 Entering Gaussian System, Link 0=g16
 Initial command:
 /opt/packages/gaussian/g16RevC.01/g16/l1.exe "/ocean/projects/che200051p/zlab/tmp/Gau-43309.inp" -scrdir="/ocean/projects/che200051p/zlab/tmp/"
 Entering Link 1 = /opt/packages/gaussian/g16RevC.01/g16/l1.exe PID=     43310.
  
 Copyright (c) 1988-2019, Gaussian, Inc.  All Rights Reserved.
  
 This is part of the Gaussian(R) 16 program.  It is based on
 the Gaussian(R) 09 system (copyright 2009, Gaussian, Inc.),
 the Gaussian(R) 03 system (copyright 2003, Gaussian, Inc.),
 the Gaussian(R) 98 system (copyright 1998, Gaussian, Inc.),
 the Gaussian(R) 94 system (copyright 1995, Gaussian, Inc.),
 the Gaussian 92(TM) system (copyright 1992, Gaussian, Inc.),
 the Gaussian 90(TM) system (copyright 1990, Gaussian, Inc.),
 the Gaussian 88(TM) system (copyright 1988, Gaussian, Inc.),
 the Gaussian 86(TM) system (copyright 1986, Carnegie Mellon
 University), and the Gaussian 82(TM) system (copyright 1983,
 Carnegie Mellon University). Gaussian is a federally registered
 trademark of Gaussian, Inc.
  
 This software contains proprietary and confidential information,
 including trade secrets, belonging to Gaussian, Inc.
  
 This software is provided under written license and may be
 used, copied, transmitted, or stored only in accord with that
 written license.
  
 The following legend is applicable only to US Government
 contracts under FAR:
  
                    RESTRICTED RIGHTS LEGEND
  
 Use, reproduction and disclosure by the US Government is
 subject to restrictions as set forth in subparagraphs (a)
 and (c) of the Commercial Computer Software - Restricted
 Rights clause in FAR 52.227-19.
  
 Gaussian, Inc.
 340 Quinnipiac St., Bldg. 40, Wallingford CT 06492
  
  
 ---------------------------------------------------------------
 Warning -- This program may not be used in any manner that
 competes with the business of Gaussian, Inc. or will provide
 assistance to any competitor of Gaussian, Inc.  The licensee
 of this program is prohibited from giving any competitor of
 Gaussian, Inc. access to this program.  By using this program,
 the user acknowledges that Gaussian, Inc. is engaged in the
 business of creating and licensing software in the field of
 computational chemistry and represents and warrants to the
 licensee that it is not a competitor of Gaussian, Inc. and that
 it will not use this program in any manner prohibited above.
 ---------------------------------------------------------------
  

 Cite this work as:
 Gaussian 16, Revision C.01,
 M. J. Frisch, G. W. Trucks, H. B. Schlegel, G. E. Scuseria, 
 M. A. Robb, J. R. Cheeseman, G. Scalmani, V. Barone, 
 G. A. Petersson, H. Nakatsuji, X. Li, M. Caricato, A. V. Marenich, 
 J. Bloino, B. G. Janesko, R. Gomperts, B. Mennucci, H. P. Hratchian, 
 J. V. Ortiz, A. F. Izmaylov, J. L. Sonnenberg, D. Williams-Young, 
 F. Ding, F. Lipparini, F. Egidi, J. Goings, B. Peng, A. Petrone, 
 T. Henderson, D. Ranasinghe, V. G. Zakrzewski, J. Gao, N. Rega, 
 G. Zheng, W. Liang, M. Hada, M. Ehara, K. Toyota, R. Fukuda, 
 J. Hasegawa, M. Ishida, T. Nakajima, Y. Honda, O. Kitao, H. Nakai, 
 T. Vreven, K. Throssell, J. A. Montgomery, Jr., J. E. Peralta, 
 F. Ogliaro, M. J. Bearpark, J. J. Heyd, E. N. Brothers, K. N. Kudin, 
 V. N. Staroverov, T. A. Keith, R. Kobayashi, J. Normand, 
 K. Raghavachari, A. P. Rendell, J. C. Burant, S. S. Iyengar, 
 J. Tomasi, M. Cossi, J. M. Millam, M. Klene, C. Adamo, R. Cammi, 
 J. W. Ochterski, R. L. Martin, K. Morokuma, O. Farkas, 
 J. B. Foresman, and D. J. Fox, Gaussian, Inc., Wallingford CT, 2019.
 
 ******************************************
 Gaussian 16:  ES64L-G16RevC.01  3-Jul-2019
                 7-Jul-2026 
 ******************************************
 %chk=iminium_ground_cam.chk
 %mem=30GB
 %nprocshared=8
 Will use up to    8 processors via shared memory.
 -----------------------------------------------------------
 #p CAM-B3LYP/6-31+G(d) Opt Freq SCRF=(SMD,Solvent=Methanol)
 -----------------------------------------------------------
 1/18=20,19=15,26=3,38=1/1,3;
 2/9=110,12=2,17=6,18=5,40=1/2;
 3/5=1,6=6,7=11,11=2,25=1,30=1,70=32201,71=1,72=3,74=-40/1,2,3;
 4//1;
 5/5=2,38=5,53=3/2;
 6/7=2,8=2,9=2,10=2,28=1/1;
 7//1,2,3,16;
 1/18=20,19=15,26=3/3(2);
 2/9=110/2;
 99//99;
 2/9=110/2;
 3/5=1,6=6,7=11,11=2,25=1,30=1,70=32205,71=1,72=3,74=-40/1,2,3;
 4/5=5,16=3,69=1/1;
 5/5=2,38=5,53=3/2;
 7//1,2,3,16;
 1/18=20,19=15,26=3/3(-5);
 2/9=110/2;
 6/7=2,8=2,9=2,10=2,19=2,28=1/1;
 99/9=1/99;
 Leave Link    1 at Tue Jul  7 16:43:15 2026, MaxMem=  4026531840 cpu:               1.2 elap:               0.2
 (Enter /opt/packages/gaussian/g16RevC.01/g16/l101.exe)
 ------------------------------------------------------
 Ground-state geometry optimization (S0) with CAM-B3LYP
 ------------------------------------------------------
 Symbolic Z-matrix:
 Charge =  1 Multiplicity = 1
 C                    -2.4875    0.26569  -0.01059 
 C                    -1.85289  -0.98715   0.03092 
 C                    -0.46409  -1.04718   0.04039 
 C                     0.32612   0.12107   0.01244 
 C                    -0.33605   1.37513  -0.02335 
 C                    -1.71465   1.44641  -0.03656 
 H                    -2.22236   2.40599  -0.06618 
 H                    -2.42573  -1.90684   0.05283 
 H                     0.00818  -2.02332   0.07211 
 H                     0.223     2.30594  -0.04042 
 O                    -3.82643   0.443    -0.02807 
 C                    -4.69004  -0.70856  -0.00576 
 H                    -4.53502  -1.28882   0.90973 
 H                    -4.52111  -1.33356  -0.8888 
 H                    -5.70382  -0.30663  -0.02379 
 C                     1.76689   0.00076   0.02605 
 C                     2.54482  -1.29043   0.08537 
 N                     2.60504   1.00588   0.02207 
 C                     4.02993   0.6353    0.1025 
 C                     3.99599  -0.86475  -0.22775 
 H                     2.155    -2.03564  -0.61219 
 H                     2.44034  -1.7019    1.0989 
 H                     4.38616   0.84654   1.11721 
 H                     4.60377   1.23791  -0.60516 
 H                     4.20755  -1.01742  -1.29075 
 H                     4.72919  -1.42755   0.35383 
 H                     2.31991   1.98236   0.03077 
 
 ITRead=  0  0  0  0  0  0  0  0  0  0  0  0  0  0  0  0  0  0  0  0
 ITRead=  0  0  0  0  0  0  0
 MicOpt= -1 -1 -1 -1 -1 -1 -1 -1 -1 -1 -1 -1 -1 -1 -1 -1 -1 -1 -1 -1
 MicOpt= -1 -1 -1 -1 -1 -1 -1
 NAtoms=     27 NQM=       27 NQMF=       0 NMMI=      0 NMMIF=      0
                NMic=       0 NMicF=      0.
                    Isotopes and Nuclear Properties:
 (Nuclear quadrupole moments (NQMom) in fm**2, nuclear magnetic moments (NMagM)
  in nuclear magnetons)

  Atom         1           2           3           4           5           6           7           8           9          10
 IAtWgt=          12          12          12          12          12          12           1           1           1           1
 AtmWgt=  12.0000000  12.0000000  12.0000000  12.0000000  12.0000000  12.0000000   1.0078250   1.0078250   1.0078250   1.0078250
 NucSpn=           0           0           0           0           0           0           1           1           1           1
 AtZEff=  -0.0000000  -0.0000000  -0.0000000  -0.0000000  -0.0000000  -0.0000000  -0.0000000  -0.0000000  -0.0000000  -0.0000000
 NQMom=    0.0000000   0.0000000   0.0000000   0.0000000   0.0000000   0.0000000   0.0000000   0.0000000   0.0000000   0.0000000
 NMagM=    0.0000000   0.0000000   0.0000000   0.0000000   0.0000000   0.0000000   2.7928460   2.7928460   2.7928460   2.7928460
 AtZNuc=   6.0000000   6.0000000   6.0000000   6.0000000   6.0000000   6.0000000   1.0000000   1.0000000   1.0000000   1.0000000

  Atom        11          12          13          14          15          16          17          18          19          20
 IAtWgt=          16          12           1           1           1          12          12          14          12          12
 AtmWgt=  15.9949146  12.0000000   1.0078250   1.0078250   1.0078250  12.0000000  12.0000000  14.0030740  12.0000000  12.0000000
 NucSpn=           0           0           1           1           1           0           0           2           0           0
 AtZEff=  -0.0000000  -0.0000000  -0.0000000  -0.0000000  -0.0000000  -0.0000000  -0.0000000  -0.0000000  -0.0000000  -0.0000000
 NQMom=    0.0000000   0.0000000   0.0000000   0.0000000   0.0000000   0.0000000   0.0000000   2.0440000   0.0000000   0.0000000
 NMagM=    0.0000000   0.0000000   2.7928460   2.7928460   2.7928460   0.0000000   0.0000000   0.4037610   0.0000000   0.0000000
 AtZNuc=   8.0000000   6.0000000   1.0000000   1.0000000   1.0000000   6.0000000   6.0000000   7.0000000   6.0000000   6.0000000

  Atom        21          22          23          24          25          26          27
 IAtWgt=           1           1           1           1           1           1           1
 AtmWgt=   1.0078250   1.0078250   1.0078250   1.0078250   1.0078250   1.0078250   1.0078250
 NucSpn=           1           1           1           1           1           1           1
 AtZEff=  -0.0000000  -0.0000000  -0.0000000  -0.0000000  -0.0000000  -0.0000000  -0.0000000
 NQMom=    0.0000000   0.0000000   0.0000000   0.0000000   0.0000000   0.0000000   0.0000000
 NMagM=    2.7928460   2.7928460   2.7928460   2.7928460   2.7928460   2.7928460   2.7928460
 AtZNuc=   1.0000000   1.0000000   1.0000000   1.0000000   1.0000000   1.0000000   1.0000000
 Leave Link  101 at Tue Jul  7 16:43:15 2026, MaxMem=  4026531840 cpu:               1.2 elap:               0.2
 (Enter /opt/packages/gaussian/g16RevC.01/g16/l103.exe)

 GradGradGradGradGradGradGradGradGradGradGradGradGradGradGradGradGradGrad
 Berny optimization.
 Initialization pass.
                           ----------------------------
                           !    Initial Parameters    !
                           ! (Angstroms and Degrees)  !
 --------------------------                            --------------------------
 ! Name  Definition              Value          Derivative Info.                !
 --------------------------------------------------------------------------------
 ! R1    R(1,2)                  1.405          estimate D2E/DX2                !
 ! R2    R(1,6)                  1.4114         estimate D2E/DX2                !
 ! R3    R(1,11)                 1.3507         estimate D2E/DX2                !
 ! R4    R(2,3)                  1.3901         estimate D2E/DX2                !
 ! R5    R(2,8)                  1.0837         estimate D2E/DX2                !
 ! R6    R(3,4)                  1.4107         estimate D2E/DX2                !
 ! R7    R(3,9)                  1.0848         estimate D2E/DX2                !
 ! R8    R(4,5)                  1.4186         estimate D2E/DX2                !
 ! R9    R(4,16)                 1.4458         estimate D2E/DX2                !
 ! R10   R(5,6)                  1.3805         estimate D2E/DX2                !
 ! R11   R(5,10)                 1.0859         estimate D2E/DX2                !
 ! R12   R(6,7)                  1.086          estimate D2E/DX2                !
 ! R13   R(11,12)                1.4396         estimate D2E/DX2                !
 ! R14   R(12,13)                1.0949         estimate D2E/DX2                !
 ! R15   R(12,14)                1.095          estimate D2E/DX2                !
 ! R16   R(12,15)                1.0907         estimate D2E/DX2                !
 ! R17   R(16,17)                1.5086         estimate D2E/DX2                !
 ! R18   R(16,18)                1.3087         estimate D2E/DX2                !
 ! R19   R(17,20)                1.5444         estimate D2E/DX2                !
 ! R20   R(17,21)                1.0927         estimate D2E/DX2                !
 ! R21   R(17,22)                1.0988         estimate D2E/DX2                !
 ! R22   R(18,19)                1.4745         estimate D2E/DX2                !
 ! R23   R(18,27)                1.0173         estimate D2E/DX2                !
 ! R24   R(19,20)                1.5363         estimate D2E/DX2                !
 ! R25   R(19,23)                1.096          estimate D2E/DX2                !
 ! R26   R(19,24)                1.0923         estimate D2E/DX2                !
 ! R27   R(20,25)                1.0945         estimate D2E/DX2                !
 ! R28   R(20,26)                1.092          estimate D2E/DX2                !
 ! A1    A(2,1,6)              119.945          estimate D2E/DX2                !
 ! A2    A(2,1,11)             124.4136         estimate D2E/DX2                !
 ! A3    A(6,1,11)             115.6414         estimate D2E/DX2                !
 ! A4    A(1,2,3)              119.3374         estimate D2E/DX2                !
 ! A5    A(1,2,8)              121.2366         estimate D2E/DX2                !
 ! A6    A(3,2,8)              119.4258         estimate D2E/DX2                !
 ! A7    A(2,3,4)              121.5828         estimate D2E/DX2                !
 ! A8    A(2,3,9)              118.2924         estimate D2E/DX2                !
 ! A9    A(4,3,9)              120.1247         estimate D2E/DX2                !
 ! A10   A(3,4,5)              118.1071         estimate D2E/DX2                !
 ! A11   A(3,4,16)             119.2813         estimate D2E/DX2                !
 ! A12   A(5,4,16)             122.6112         estimate D2E/DX2                !
 ! A13   A(4,5,6)              120.7985         estimate D2E/DX2                !
 ! A14   A(4,5,10)             121.187          estimate D2E/DX2                !
 ! A15   A(6,5,10)             118.0145         estimate D2E/DX2                !
 ! A16   A(1,6,5)              120.2284         estimate D2E/DX2                !
 ! A17   A(1,6,7)              118.9255         estimate D2E/DX2                !
 ! A18   A(5,6,7)              120.8461         estimate D2E/DX2                !
 ! A19   A(1,11,12)            119.3047         estimate D2E/DX2                !
 ! A20   A(11,12,13)           110.6065         estimate D2E/DX2                !
 ! A21   A(11,12,14)           110.5819         estimate D2E/DX2                !
 ! A22   A(11,12,15)           105.2221         estimate D2E/DX2                !
 ! A23   A(13,12,14)           110.4849         estimate D2E/DX2                !
 ! A24   A(13,12,15)           109.9202         estimate D2E/DX2                !
 ! A25   A(14,12,15)           109.902          estimate D2E/DX2                !
 ! A26   A(4,16,17)            125.8342         estimate D2E/DX2                !
 ! A27   A(4,16,18)            125.0467         estimate D2E/DX2                !
 ! A28   A(17,16,18)           109.0992         estimate D2E/DX2                !
 ! A29   A(16,17,20)           103.9254         estimate D2E/DX2                !
 ! A30   A(16,17,21)           112.0032         estimate D2E/DX2                !
 ! A31   A(16,17,22)           107.9225         estimate D2E/DX2                !
 ! A32   A(20,17,21)           113.1899         estimate D2E/DX2                !
 ! A33   A(20,17,22)           112.3063         estimate D2E/DX2                !
 ! A34   A(21,17,22)           107.4296         estimate D2E/DX2                !
 ! A35   A(16,18,19)           115.1949         estimate D2E/DX2                !
 ! A36   A(16,18,27)           123.8949         estimate D2E/DX2                !
 ! A37   A(19,18,27)           120.7727         estimate D2E/DX2                !
 ! A38   A(18,19,20)           102.2581         estimate D2E/DX2                !
 ! A39   A(18,19,23)           108.4311         estimate D2E/DX2                !
 ! A40   A(18,19,24)           109.4918         estimate D2E/DX2                !
 ! A41   A(20,19,23)           113.2278         estimate D2E/DX2                !
 ! A42   A(20,19,24)           114.2665         estimate D2E/DX2                !
 ! A43   A(23,19,24)           108.8276         estimate D2E/DX2                !
 ! A44   A(17,20,19)           104.2583         estimate D2E/DX2                !
 ! A45   A(17,20,25)           109.8815         estimate D2E/DX2                !
 ! A46   A(17,20,26)           112.3864         estimate D2E/DX2                !
 ! A47   A(19,20,25)           109.9182         estimate D2E/DX2                !
 ! A48   A(19,20,26)           111.9549         estimate D2E/DX2                !
 ! A49   A(25,20,26)           108.3943         estimate D2E/DX2                !
 ! D1    D(6,1,2,3)             -0.2622         estimate D2E/DX2                !
 ! D2    D(6,1,2,8)            179.9134         estimate D2E/DX2                !
 ! D3    D(11,1,2,3)           179.7571         estimate D2E/DX2                !
 ! D4    D(11,1,2,8)            -0.0673         estimate D2E/DX2                !
 ! D5    D(2,1,6,5)              0.0974         estimate D2E/DX2                !
 ! D6    D(2,1,6,7)           -179.8565         estimate D2E/DX2                !
 ! D7    D(11,1,6,5)          -179.9203         estimate D2E/DX2                !
 ! D8    D(11,1,6,7)             0.1257         estimate D2E/DX2                !
 ! D9    D(2,1,11,12)           -0.1096         estimate D2E/DX2                !
 ! D10   D(6,1,11,12)          179.9091         estimate D2E/DX2                !
 ! D11   D(1,2,3,4)              0.1499         estimate D2E/DX2                !
 ! D12   D(1,2,3,9)           -179.97           estimate D2E/DX2                !
 ! D13   D(8,2,3,4)            179.9775         estimate D2E/DX2                !
 ! D14   D(8,2,3,9)             -0.1424         estimate D2E/DX2                !
 ! D15   D(2,3,4,5)              0.1237         estimate D2E/DX2                !
 ! D16   D(2,3,4,16)           179.9012         estimate D2E/DX2                !
 ! D17   D(9,3,4,5)           -179.7542         estimate D2E/DX2                !
 ! D18   D(9,3,4,16)             0.0233         estimate D2E/DX2                !
 ! D19   D(3,4,5,6)             -0.2916         estimate D2E/DX2                !
 ! D20   D(3,4,5,10)           179.6628         estimate D2E/DX2                !
 ! D21   D(16,4,5,6)           179.9388         estimate D2E/DX2                !
 ! D22   D(16,4,5,10)           -0.1068         estimate D2E/DX2                !
 ! D23   D(3,4,16,17)           -0.7861         estimate D2E/DX2                !
 ! D24   D(3,4,16,18)         -178.987          estimate D2E/DX2                !
 ! D25   D(5,4,16,17)          178.9809         estimate D2E/DX2                !
 ! D26   D(5,4,16,18)            0.78           estimate D2E/DX2                !
 ! D27   D(4,5,6,1)              0.1836         estimate D2E/DX2                !
 ! D28   D(4,5,6,7)           -179.8633         estimate D2E/DX2                !
 ! D29   D(10,5,6,1)          -179.7722         estimate D2E/DX2                !
 ! D30   D(10,5,6,7)             0.1809         estimate D2E/DX2                !
 ! D31   D(1,11,12,13)          61.2186         estimate D2E/DX2                !
 ! D32   D(1,11,12,14)         -61.5038         estimate D2E/DX2                !
 ! D33   D(1,11,12,15)         179.8745         estimate D2E/DX2                !
 ! D34   D(4,16,17,20)         168.3236         estimate D2E/DX2                !
 ! D35   D(4,16,17,21)          45.7918         estimate D2E/DX2                !
 ! D36   D(4,16,17,22)         -72.2577         estimate D2E/DX2                !
 ! D37   D(18,16,17,20)        -13.235          estimate D2E/DX2                !
 ! D38   D(18,16,17,21)       -135.7668         estimate D2E/DX2                !
 ! D39   D(18,16,17,22)        106.1836         estimate D2E/DX2                !
 ! D40   D(4,16,18,19)         177.2428         estimate D2E/DX2                !
 ! D41   D(4,16,18,27)           1.4884         estimate D2E/DX2                !
 ! D42   D(17,16,18,19)         -1.2137         estimate D2E/DX2                !
 ! D43   D(17,16,18,27)       -176.9681         estimate D2E/DX2                !
 ! D44   D(16,17,20,19)         21.5264         estimate D2E/DX2                !
 ! D45   D(16,17,20,25)        -96.228          estimate D2E/DX2                !
 ! D46   D(16,17,20,26)        142.9844         estimate D2E/DX2                !
 ! D47   D(21,17,20,19)        143.272          estimate D2E/DX2                !
 ! D48   D(21,17,20,25)         25.5176         estimate D2E/DX2                !
 ! D49   D(21,17,20,26)        -95.27           estimate D2E/DX2                !
 ! D50   D(22,17,20,19)        -94.8595         estimate D2E/DX2                !
 ! D51   D(22,17,20,25)        147.3861         estimate D2E/DX2                !
 ! D52   D(22,17,20,26)         26.5985         estimate D2E/DX2                !
 ! D53   D(16,18,19,20)         15.0905         estimate D2E/DX2                !
 ! D54   D(16,18,19,23)       -104.7652         estimate D2E/DX2                !
 ! D55   D(16,18,19,24)        136.627          estimate D2E/DX2                !
 ! D56   D(27,18,19,20)       -169.0108         estimate D2E/DX2                !
 ! D57   D(27,18,19,23)         71.1334         estimate D2E/DX2                !
 ! D58   D(27,18,19,24)        -47.4743         estimate D2E/DX2                !
 ! D59   D(18,19,20,17)        -21.698          estimate D2E/DX2                !
 ! D60   D(18,19,20,25)         96.0312         estimate D2E/DX2                !
 ! D61   D(18,19,20,26)       -143.4417         estimate D2E/DX2                !
 ! D62   D(23,19,20,17)         94.7462         estimate D2E/DX2                !
 ! D63   D(23,19,20,25)       -147.5247         estimate D2E/DX2                !
 ! D64   D(23,19,20,26)        -26.9976         estimate D2E/DX2                !
 ! D65   D(24,19,20,17)       -139.8946         estimate D2E/DX2                !
 ! D66   D(24,19,20,25)        -22.1654         estimate D2E/DX2                !
 ! D67   D(24,19,20,26)         98.3617         estimate D2E/DX2                !
 --------------------------------------------------------------------------------
 Trust Radius=3.00D-01 FncErr=1.00D-07 GrdErr=1.00D-06 EigMax=2.50D+02 EigMin=1.00D-04
 Number of steps in this run=    154 maximum allowed number of steps=    162.
 GradGradGradGradGradGradGradGradGradGradGradGradGradGradGradGradGradGrad

 Leave Link  103 at Tue Jul  7 16:43:16 2026, MaxMem=  4026531840 cpu:               0.1 elap:               0.0
 (Enter /opt/packages/gaussian/g16RevC.01/g16/l202.exe)
                          Input orientation:                          
 ---------------------------------------------------------------------
 Center     Atomic      Atomic             Coordinates (Angstroms)
 Number     Number       Type             X           Y           Z
 ---------------------------------------------------------------------
      1          6           0       -2.487500    0.265690   -0.010590
      2          6           0       -1.852890   -0.987150    0.030920
      3          6           0       -0.464090   -1.047180    0.040390
      4          6           0        0.326120    0.121070    0.012440
      5          6           0       -0.336050    1.375130   -0.023350
      6          6           0       -1.714650    1.446410   -0.036560
      7          1           0       -2.222360    2.405990   -0.066180
      8          1           0       -2.425730   -1.906840    0.052830
      9          1           0        0.008180   -2.023320    0.072110
     10          1           0        0.223000    2.305940   -0.040420
     11          8           0       -3.826430    0.443000   -0.028070
     12          6           0       -4.690040   -0.708560   -0.005760
     13          1           0       -4.535020   -1.288820    0.909730
     14          1           0       -4.521110   -1.333560   -0.888800
     15          1           0       -5.703820   -0.306630   -0.023790
     16          6           0        1.766890    0.000760    0.026050
     17          6           0        2.544820   -1.290430    0.085370
     18          7           0        2.605040    1.005880    0.022070
     19          6           0        4.029930    0.635300    0.102500
     20          6           0        3.995990   -0.864750   -0.227750
     21          1           0        2.155000   -2.035640   -0.612190
     22          1           0        2.440340   -1.701900    1.098900
     23          1           0        4.386160    0.846540    1.117210
     24          1           0        4.603770    1.237910   -0.605160
     25          1           0        4.207550   -1.017420   -1.290750
     26          1           0        4.729190   -1.427550    0.353830
     27          1           0        2.319910    1.982360    0.030770
 ---------------------------------------------------------------------
                    Distance matrix (angstroms):
                    1          2          3          4          5
     1  C    0.000000
     2  C    1.405013   0.000000
     3  C    2.412554   1.390129   0.000000
     4  C    2.817428   2.444704   1.410681   0.000000
     5  C    2.420694   2.807867   2.426529   1.418597   0.000000
     6  C    1.411408   2.438417   2.790665   2.433859   1.380505
     7  H    2.157377   3.414577   3.876500   3.423710   2.150040
     8  H    2.174333   1.083723   2.141775   3.418586   3.891516
     9  H    3.387451   2.130476   1.084848   2.168653   3.417173
    10  H    3.392686   3.893437   3.423746   2.187941   1.085926
    11  O    1.350732   2.437964   3.678404   4.165207   3.612706
    12  C    2.408395   2.851031   4.239746   5.084337   4.826935
    13  H    2.730536   2.838509   4.169726   5.140389   5.059508
    14  H    2.732110   2.843463   4.171908   5.140411   5.059717
    15  H    3.266870   3.910980   5.292193   6.045198   5.625057
    16  C    4.262788   3.752172   2.464885   1.445849   2.512706
    17  C    5.268298   4.408491   3.019062   2.630643   3.926378
    18  N    5.146155   4.883174   3.692553   2.444679   2.964527
    19  C    6.528882   6.102871   4.799043   3.740421   4.430008
    20  C    6.584884   5.855876   4.471856   3.807555   4.881128
    21  H    5.216402   4.192386   2.874465   2.895922   4.264436
    22  H    5.420884   4.481436   3.159876   2.995587   4.293705
    23  H    6.989744   6.593041   5.317014   4.269748   4.886671
    24  H    7.182258   6.858859   5.596568   4.463973   4.975857
    25  H    6.936056   6.202956   4.857678   4.249701   5.289130
    26  H    7.421622   6.604695   5.216616   4.679936   5.801201
    27  H    5.104886   5.121548   4.114470   2.727624   2.725029
                    6          7          8          9         10
     6  C    0.000000
     7  H    1.086021   0.000000
     8  H    3.428981   4.319262   0.000000
     9  H    3.875433   4.961171   2.436772   0.000000
    10  H    2.119739   2.447541   4.977146   4.336047   0.000000
    11  O    2.338059   2.535315   2.736833   4.560373   4.457419
    12  C    3.673934   3.974106   2.562500   4.879337   5.764232
    13  H    4.041217   4.466813   2.359095   4.677795   6.038530
    14  H    4.041134   4.466004   2.367685   4.681195   6.039229
    15  H    4.357383   4.413691   3.648618   5.965163   6.477113
    16  C    3.770271   4.659158   4.606269   2.681806   2.775224
    17  C    5.064410   6.034277   5.008731   2.640425   4.282587
    18  N    4.342491   5.027115   5.813220   3.990268   2.714438
    19  C    5.803226   6.500379   6.938335   4.821168   4.159829
    20  C    6.163556   7.027924   6.511771   4.163512   4.931919
    21  H    5.237386   6.259991   4.630543   2.253276   4.786320
    22  H    5.335266   6.322416   4.981456   2.659513   4.719897
    23  H    6.237861   6.892375   7.424005   5.338074   4.560905
    24  H    6.347378   6.946291   7.728924   5.675717   4.544311
    25  H    6.535740   7.386681   6.826176   4.528127   5.337105
    26  H    7.066479   7.949622   7.177270   4.766785   5.865162
    27  H    4.070559   4.563012   6.135753   4.625070   2.122923
                   11         12         13         14         15
    11  O    0.000000
    12  C    1.439587   0.000000
    13  H    2.093029   1.094922   0.000000
    14  H    2.092750   1.094953   1.799140   0.000000
    15  H    2.021523   1.090698   1.789483   1.789310   0.000000
    16  C    5.611037   6.495852   6.492917   6.492789   7.477197
    17  C    6.603823   7.258793   7.127672   7.132898   8.307818
    18  N    6.456249   7.493882   7.552089   7.555440   8.412012
    19  C    7.859798   8.823580   8.815454   8.830593   9.780034
    20  C    7.933495   8.690270   8.616950   8.555569   9.717994
    21  H    6.500950   6.998819   6.901474   6.718621   8.068255
    22  H    6.718859   7.283496   6.990141   7.249028   8.338738
    23  H    8.301876   9.276681   9.175525   9.387032  10.219559
    24  H    8.487237   9.514354   9.601913   9.484532  10.438870
    25  H    8.262689   8.995204   9.019329   8.743627  10.017268
    26  H    8.766039   9.453473   9.281910   9.333864  10.499846
    27  H    6.336449   7.508780   7.646127   7.657708   8.344022
                   16         17         18         19         20
    16  C    0.000000
    17  C    1.508597   0.000000
    18  N    1.308731   2.297971   0.000000
    19  C    2.351560   2.431930   1.474486   0.000000
    20  C    2.404664   1.544390   2.344442   1.536349   0.000000
    21  H    2.169079   1.092652   3.139373   3.340668   2.215406
    22  H    2.122167   1.098848   2.918692   2.997017   2.209268
    23  H    2.960836   3.003642   2.096929   1.095974   2.211258
    24  H    3.158616   3.332958   2.107647   1.092343   2.221039
    25  H    2.954230   2.175526   2.895734   2.168912   1.094548
    26  H    3.304955   2.205073   3.247100   2.192597   1.092045
    27  H    2.057326   3.280963   1.017294   2.178046   3.313927
                   21         22         23         24         25
    21  H    0.000000
    22  H    1.766531   0.000000
    23  H    4.034335   3.206415   0.000000
    24  H    4.088111   4.028242   1.779630   0.000000
    25  H    2.389598   3.049913   3.050331   2.390301   0.000000
    26  H    2.815923   2.422650   2.423201   2.835502   1.773403
    27  H    4.072458   3.837861   2.596118   2.484880   3.782629
                   26         27
    26  H    0.000000
    27  H    4.187659   0.000000
 Stoichiometry    C11H14NO(1+)
 Framework group  C1[X(C11H14NO)]
 Deg. of freedom    75
 Full point group                 C1      NOp   1
 Largest Abelian subgroup         C1      NOp   1
 Largest concise Abelian subgroup C1      NOp   1
                         Standard orientation:                         
 ---------------------------------------------------------------------
 Center     Atomic      Atomic             Coordinates (Angstroms)
 Number     Number       Type             X           Y           Z
 ---------------------------------------------------------------------
      1          6           0       -2.487501    0.265691   -0.010590
      2          6           0       -1.852891   -0.987149    0.030920
      3          6           0       -0.464091   -1.047179    0.040390
      4          6           0        0.326119    0.121070    0.012440
      5          6           0       -0.336051    1.375130   -0.023350
      6          6           0       -1.714651    1.446411   -0.036560
      7          1           0       -2.222360    2.405991   -0.066180
      8          1           0       -2.425731   -1.906839    0.052830
      9          1           0        0.008179   -2.023320    0.072110
     10          1           0        0.223000    2.305940   -0.040420
     11          8           0       -3.826431    0.443001   -0.028070
     12          6           0       -4.690041   -0.708558   -0.005760
     13          1           0       -4.535021   -1.288819    0.909730
     14          1           0       -4.521111   -1.333559   -0.888800
     15          1           0       -5.703821   -0.306628   -0.023790
     16          6           0        1.766889    0.000760    0.026050
     17          6           0        2.544819   -1.290430    0.085370
     18          7           0        2.605039    1.005880    0.022070
     19          6           0        4.029929    0.635299    0.102500
     20          6           0        3.995989   -0.864751   -0.227750
     21          1           0        2.154999   -2.035640   -0.612190
     22          1           0        2.440339   -1.701900    1.098900
     23          1           0        4.386159    0.846539    1.117210
     24          1           0        4.603769    1.237909   -0.605160
     25          1           0        4.207549   -1.017421   -1.290750
     26          1           0        4.729189   -1.427551    0.353830
     27          1           0        2.319910    1.982360    0.030770
 ---------------------------------------------------------------------
 Rotational constants (GHZ):           2.8518027           0.3508183           0.3153496
 Leave Link  202 at Tue Jul  7 16:43:16 2026, MaxMem=  4026531840 cpu:               0.1 elap:               0.1
 (Enter /opt/packages/gaussian/g16RevC.01/g16/l301.exe)
 Standard basis: 6-31+G(d) (6D, 7F)
 Ernie: Thresh=  0.10000D-02 Tol=  0.10000D-05 Strict=F.
 There are   275 symmetry adapted cartesian basis functions of A   symmetry.
 There are   275 symmetry adapted basis functions of A   symmetry.
   275 basis functions,   472 primitive gaussians,   275 cartesian basis functions
    47 alpha electrons       47 beta electrons
       nuclear repulsion energy       754.7621420954 Hartrees.
 IExCor=20419 DFT=T Ex+Corr=CAM-B3LYP ExCW=0 ScaHFX=  1.000000
 ScaDFX=  1.000000  1.000000  1.000000  0.810000 ScalE2=  1.000000  1.000000
 IRadAn=      5 IRanWt=     -1 IRanGd=            0 ICorTp=0 IEmpDi=  4
 HFx  wShort=  0.000000 wLong=  0.330000 cFull=  0.190000 cShort=  0.000000 cLong=  0.460000
 DFx  wShort=  0.000000 wLong=  0.330000 cFull=  0.190000 cShort=  0.000000 cLong=  0.460000
 NAtoms=   27 NActive=   27 NUniq=   27 SFac= 1.00D+00 NAtFMM=   60 NAOKFM=F Big=F
 Integral buffers will be    131072 words long.
 Raffenetti 2 integral format.
 Two-electron integral symmetry is turned on.
 ------------------------------------------------------------------------------
 Polarizable Continuum Model (PCM)
 =================================
 Model                : PCM.
 Atomic radii         : SMD-Coulomb.
 Polarization charges : Total charges.
 Charge compensation  : None.
 Solution method      : On-the-fly selection.
 Cavity type          : VdW (van der Waals Surface) (Alpha=1.000).
 Cavity algorithm     : GePol (No added spheres)
                        Default sphere list used, NSphG=   27.
                        Lebedev-Laikov grids with approx.  5.0 points / Ang**2.
                        Smoothing algorithm: York/Karplus (Gamma=1.0000).
                        Polarization charges: spherical gaussians, with
                                              point-specific exponents (IZeta= 3).
                        Self-potential: point-specific (ISelfS= 7).
                        Self-field    : sphere-specific E.n sum rule (ISelfD= 2).
 1st derivatives      : Analytical E(r).r(x)/FMM algorithm (CHGder, D1EAlg=3).
                        Cavity 1st derivative terms included.
 Solvent              : Methanol, Eps=  32.613000 Eps(inf)=   1.765709
 ------------------------------------------------------------------------------
 GePol: Number of generator spheres                  =      27
 GePol: Total number of spheres                      =      27
 GePol: Number of exposed spheres                    =      27 (100.00%)
 GePol: Number of points                             =    1975
 GePol: Average weight of points                     =       0.11
 GePol: Minimum weight of points                     =   0.13D-11
 GePol: Maximum weight of points                     =    0.21991
 GePol: Number of points with low weight             =     101
 GePol: Fraction of low-weight points (<1% of avg)   =       5.11%
 GePol: Cavity surface area                          =    216.147 Ang**2
 GePol: Cavity volume                                =    192.155 Ang**3
 ------------------------------------------------------------------------------
 Atomic radii for non-electrostatic terms: SMD-CDS.
 ------------------------------------------------------------------------------
 PCM non-electrostatic energy =        -0.0004342071 Hartrees.
 Nuclear repulsion after PCM non-electrostatic terms =      754.7617078883 Hartrees.
 Leave Link  301 at Tue Jul  7 16:43:16 2026, MaxMem=  4026531840 cpu:               0.6 elap:               0.1
 (Enter /opt/packages/gaussian/g16RevC.01/g16/l302.exe)
 NPDir=0 NMtPBC=     1 NCelOv=     1 NCel=       1 NClECP=     1 NCelD=      1
         NCelK=      1 NCelE2=     1 NClLst=     1 CellRange=     0.0.
 One-electron integrals computed using PRISM.
 One-electron integral symmetry used in STVInt
 NBasis=   275 RedAO= T EigKep=  2.15D-06  NBF=   275
 NBsUse=   273 1.00D-06 EigRej=  9.11D-07 NBFU=   273
 Precomputing XC quadrature grid using
 IXCGrd= 4 IRadAn=           5 IRanWt=          -1 IRanGd=           0 AccXCQ= 0.00D+00.
 Generated NRdTot=       0 NPtTot=           0 NUsed=           0 NTot=          32
 NSgBfM=   274   274   274   274   274 MxSgAt=    27 MxSgA2=    27.
 Leave Link  302 at Tue Jul  7 16:43:17 2026, MaxMem=  4026531840 cpu:               1.8 elap:               0.3
 (Enter /opt/packages/gaussian/g16RevC.01/g16/l303.exe)
 DipDrv:  MaxL=1.
 Leave Link  303 at Tue Jul  7 16:43:17 2026, MaxMem=  4026531840 cpu:               0.2 elap:               0.1
 (Enter /opt/packages/gaussian/g16RevC.01/g16/l401.exe)
 ExpMin= 4.38D-02 ExpMax= 5.48D+03 ExpMxC= 8.25D+02 IAcc=3 IRadAn=         5 AccDes= 0.00D+00
 Harris functional with IExCor=20419 and IRadAn=       5 diagonalized for initial guess.
 HarFok:  IExCor=20419 AccDes= 0.00D+00 IRadAn=         5 IDoV= 1 UseB2=F ITyADJ=14
 ICtDFT=  3500011 ScaDFX=  1.000000  1.000000  1.000000  1.000000
 FoFCou: FMM=F IPFlag=           0 FMFlag=      100000 FMFlg1=           0
         NFxFlg=           0 DoJE=T BraDBF=F KetDBF=T FulRan=T
         wScrn=  0.000000 ICntrl=       500 IOpCl=  0 I1Cent=   200000004 NGrid=           0
         NMat0=    1 NMatS0=      1 NMatT0=    0 NMatD0=    1 NMtDS0=    0 NMtDT0=    0
 Petite list used in FoFCou.
 Harris En= -534.985840446777    
 JPrj=0 DoOrth=F DoCkMO=F.
 Leave Link  401 at Tue Jul  7 16:43:18 2026, MaxMem=  4026531840 cpu:               7.2 elap:               1.0
 (Enter /opt/packages/gaussian/g16RevC.01/g16/l502.exe)
 Integral symmetry usage will be decided dynamically.
 Closed shell SCF:
 Using DIIS extrapolation, IDIIS=  1040.
 NGot=  4026531840 LenX=  4026374748 LenY=  4026298682
 Requested convergence on RMS density matrix=1.00D-08 within 128 cycles.
 Requested convergence on MAX density matrix=1.00D-06.
 Requested convergence on             energy=1.00D-06.
 No special actions if energy rises.
 Fock matrices will be formed incrementally for  20 cycles.

 Cycle   1  Pass 1  IDiag  1:
 FoFJK:  IHMeth= 1 ICntrl=       0 DoSepK=T KAlg= 0 I1Cent=           0 FoldK=F
 IRaf=         1 NMat=       1 IRICut=       1 DoRegI=T DoRafI=F ISym2E= 0 IDoP0=0 IntGTp=1.
 FoFCou: FMM=F IPFlag=           0 FMFlag=      100000 FMFlg1=           0
         NFxFlg=           0 DoJE=T BraDBF=F KetDBF=F FulRan=T
         wScrn=  0.000000 ICntrl=       500 IOpCl=  0 I1Cent=           0 NGrid=           0
         NMat0=    1 NMatS0=      1 NMatT0=    0 NMatD0=    1 NMtDS0=    0 NMtDT0=    0
 Symmetry not used in FoFCou.
 Inv3:  Mode=1 IEnd=    11701875.
 Iteration    1 A*A^-1 deviation from unit magnitude is 3.11D-15 for    242.
 Iteration    1 A*A^-1 deviation from orthogonality  is 2.14D-15 for    761    590.
 Iteration    1 A^-1*A deviation from unit magnitude is 3.11D-15 for    242.
 Iteration    1 A^-1*A deviation from orthogonality  is 7.07D-14 for   1246   1218.
 E= -556.976360671444    
 DIIS: error= 4.71D-02 at cycle   1 NSaved=   1.
 NSaved= 1 IEnMin= 1 EnMin= -556.976360671444     IErMin= 1 ErrMin= 4.71D-02
 ErrMax= 4.71D-02  0.00D+00 EMaxC= 1.00D-01 BMatC= 4.89D-01 BMatP= 4.89D-01
 IDIUse=3 WtCom= 5.29D-01 WtEn= 4.71D-01
 Coeff-Com:  0.100D+01
 Coeff-En:   0.100D+01
 Coeff:      0.100D+01
 Gap=     0.270 Goal=   None    Shift=    0.000
 GapD=    0.270 DampG=1.000 DampE=0.500 DampFc=0.5000 IDamp=-1.
 Damping current iteration by 5.00D-01
 RMSDP=3.50D-02 MaxDP=3.22D+00              OVMax= 1.52D-01

 Cycle   2  Pass 1  IDiag  1:
 RMSU=  7.62D-03    CP:  8.13D-01
 E= -557.056464265214     Delta-E=       -0.080103593770 Rises=F Damp=T
 DIIS: error= 2.32D-02 at cycle   2 NSaved=   2.
 NSaved= 2 IEnMin= 2 EnMin= -557.056464265214     IErMin= 2 ErrMin= 2.32D-02
 ErrMax= 2.32D-02  0.00D+00 EMaxC= 1.00D-01 BMatC= 9.15D-02 BMatP= 4.89D-01
 IDIUse=3 WtCom= 7.68D-01 WtEn= 2.32D-01
 Coeff-Com: -0.241D+00 0.124D+01
 Coeff-En:   0.000D+00 0.100D+01
 Coeff:     -0.185D+00 0.119D+01
 Gap=     0.309 Goal=   None    Shift=    0.000
 RMSDP=2.22D-02 MaxDP=2.26D+00 DE=-8.01D-02 OVMax= 1.33D-01

 Cycle   3  Pass 1  IDiag  1:
 RMSU=  5.22D-03    CP:  5.63D-01  1.59D+00
 E= -557.130548218536     Delta-E=       -0.074083953322 Rises=F Damp=F
 DIIS: error= 7.42D-03 at cycle   3 NSaved=   3.
 NSaved= 3 IEnMin= 3 EnMin= -557.130548218536     IErMin= 3 ErrMin= 7.42D-03
 ErrMax= 7.42D-03  0.00D+00 EMaxC= 1.00D-01 BMatC= 3.29D-02 BMatP= 9.15D-02
 IDIUse=3 WtCom= 9.26D-01 WtEn= 7.42D-02
 Coeff-Com: -0.259D+00 0.552D+00 0.707D+00
 Coeff-En:   0.000D+00 0.000D+00 0.100D+01
 Coeff:     -0.240D+00 0.511D+00 0.729D+00
 Gap=     0.260 Goal=   None    Shift=    0.000
 RMSDP=2.78D-03 MaxDP=1.81D-01 DE=-7.41D-02 OVMax= 4.02D-02

 Cycle   4  Pass 1  IDiag  1:
 RMSU=  1.30D-03    CP:  5.42D-01  1.74D+00  7.61D-01
 E= -557.154602268115     Delta-E=       -0.024054049579 Rises=F Damp=F
 DIIS: error= 1.47D-03 at cycle   4 NSaved=   4.
 NSaved= 4 IEnMin= 4 EnMin= -557.154602268115     IErMin= 4 ErrMin= 1.47D-03
 ErrMax= 1.47D-03  0.00D+00 EMaxC= 1.00D-01 BMatC= 1.77D-03 BMatP= 3.29D-02
 IDIUse=3 WtCom= 9.85D-01 WtEn= 1.47D-02
 Coeff-Com: -0.117D+00 0.240D+00 0.388D+00 0.488D+00
 Coeff-En:   0.000D+00 0.000D+00 0.000D+00 0.100D+01
 Coeff:     -0.115D+00 0.237D+00 0.382D+00 0.496D+00
 Gap=     0.252 Goal=   None    Shift=    0.000
 RMSDP=6.00D-04 MaxDP=4.86D-02 DE=-2.41D-02 OVMax= 5.75D-03

 Cycle   5  Pass 1  IDiag  1:
 RMSU=  3.18D-04    CP:  5.38D-01  1.75D+00  8.08D-01  7.92D-01
 E= -557.155939141280     Delta-E=       -0.001336873165 Rises=F Damp=F
 DIIS: error= 1.54D-04 at cycle   5 NSaved=   5.
 NSaved= 5 IEnMin= 5 EnMin= -557.155939141280     IErMin= 5 ErrMin= 1.54D-04
 ErrMax= 1.54D-04  0.00D+00 EMaxC= 1.00D-01 BMatC= 1.16D-05 BMatP= 1.77D-03
 IDIUse=3 WtCom= 9.98D-01 WtEn= 1.54D-03
 Coeff-Com:  0.777D-02-0.178D-01-0.892D-02 0.170D-02 0.102D+01
 Coeff-En:   0.000D+00 0.000D+00 0.000D+00 0.000D+00 0.100D+01
 Coeff:      0.776D-02-0.177D-01-0.890D-02 0.170D-02 0.102D+01
 Gap=     0.253 Goal=   None    Shift=    0.000
 RMSDP=2.90D-04 MaxDP=2.36D-02 DE=-1.34D-03 OVMax= 2.21D-03

 Cycle   6  Pass 1  IDiag  1:
 RMSU=  8.58D-05    CP:  5.35D-01  1.76D+00  8.14D-01  8.61D-01  1.23D+00
 E= -557.155958435314     Delta-E=       -0.000019294034 Rises=F Damp=F
 DIIS: error= 6.98D-05 at cycle   6 NSaved=   6.
 NSaved= 6 IEnMin= 6 EnMin= -557.155958435314     IErMin= 6 ErrMin= 6.98D-05
 ErrMax= 6.98D-05  0.00D+00 EMaxC= 1.00D-01 BMatC= 2.82D-06 BMatP= 1.16D-05
 IDIUse=1 WtCom= 1.00D+00 WtEn= 0.00D+00
 Coeff-Com:  0.117D-01-0.245D-01-0.319D-01-0.434D-01 0.379D+00 0.709D+00
 Coeff:      0.117D-01-0.245D-01-0.319D-01-0.434D-01 0.379D+00 0.709D+00
 Gap=     0.253 Goal=   None    Shift=    0.000
 RMSDP=7.47D-05 MaxDP=4.95D-03 DE=-1.93D-05 OVMax= 6.48D-04

 Cycle   7  Pass 1  IDiag  1:
 RMSU=  2.50D-05    CP:  5.34D-01  1.76D+00  8.16D-01  8.71D-01  1.34D+00
                    CP:  1.01D+00
 E= -557.155961817247     Delta-E=       -0.000003381932 Rises=F Damp=F
 DIIS: error= 1.98D-05 at cycle   7 NSaved=   7.
 NSaved= 7 IEnMin= 7 EnMin= -557.155961817247     IErMin= 7 ErrMin= 1.98D-05
 ErrMax= 1.98D-05  0.00D+00 EMaxC= 1.00D-01 BMatC= 1.77D-07 BMatP= 2.82D-06
 IDIUse=1 WtCom= 1.00D+00 WtEn= 0.00D+00
 Coeff-Com:  0.182D-02-0.363D-02-0.617D-02-0.119D-01-0.179D-01 0.182D+00
 Coeff-Com:  0.855D+00
 Coeff:      0.182D-02-0.363D-02-0.617D-02-0.119D-01-0.179D-01 0.182D+00
 Coeff:      0.855D+00
 Gap=     0.253 Goal=   None    Shift=    0.000
 RMSDP=1.08D-05 MaxDP=7.93D-04 DE=-3.38D-06 OVMax= 4.16D-04

 Cycle   8  Pass 1  IDiag  1:
 RMSU=  6.60D-06    CP:  5.34D-01  1.76D+00  8.16D-01  8.71D-01  1.35D+00
                    CP:  1.04D+00  9.90D-01
 E= -557.155962147595     Delta-E=       -0.000000330348 Rises=F Damp=F
 DIIS: error= 6.33D-06 at cycle   8 NSaved=   8.
 NSaved= 8 IEnMin= 8 EnMin= -557.155962147595     IErMin= 8 ErrMin= 6.33D-06
 ErrMax= 6.33D-06  0.00D+00 EMaxC= 1.00D-01 BMatC= 2.27D-08 BMatP= 1.77D-07
 IDIUse=1 WtCom= 1.00D+00 WtEn= 0.00D+00
 Coeff-Com: -0.577D-03 0.126D-02 0.134D-02 0.271D-03-0.369D-01-0.961D-02
 Coeff-Com:  0.262D+00 0.782D+00
 Coeff:     -0.577D-03 0.126D-02 0.134D-02 0.271D-03-0.369D-01-0.961D-02
 Coeff:      0.262D+00 0.782D+00
 Gap=     0.253 Goal=   None    Shift=    0.000
 RMSDP=5.67D-06 MaxDP=3.48D-04 DE=-3.30D-07 OVMax= 8.78D-05

 Cycle   9  Pass 1  IDiag  1:
 RMSU=  3.35D-06    CP:  5.34D-01  1.76D+00  8.16D-01  8.70D-01  1.35D+00
                    CP:  1.03D+00  1.10D+00  1.10D+00
 E= -557.155962184633     Delta-E=       -0.000000037038 Rises=F Damp=F
 DIIS: error= 3.75D-06 at cycle   9 NSaved=   9.
 NSaved= 9 IEnMin= 9 EnMin= -557.155962184633     IErMin= 9 ErrMin= 3.75D-06
 ErrMax= 3.75D-06  0.00D+00 EMaxC= 1.00D-01 BMatC= 3.76D-09 BMatP= 2.27D-08
 IDIUse=1 WtCom= 1.00D+00 WtEn= 0.00D+00
 Coeff-Com: -0.501D-03 0.105D-02 0.147D-02 0.171D-02-0.127D-01-0.357D-01
 Coeff-Com: -0.192D-01 0.291D+00 0.773D+00
 Coeff:     -0.501D-03 0.105D-02 0.147D-02 0.171D-02-0.127D-01-0.357D-01
 Coeff:     -0.192D-01 0.291D+00 0.773D+00
 Gap=     0.253 Goal=   None    Shift=    0.000
 RMSDP=2.34D-06 MaxDP=1.37D-04 DE=-3.70D-08 OVMax= 7.55D-05

 Cycle  10  Pass 1  IDiag  1:
 RMSU=  1.03D-06    CP:  5.34D-01  1.76D+00  8.16D-01  8.69D-01  1.35D+00
                    CP:  1.02D+00  1.12D+00  1.27D+00  1.21D+00
 E= -557.155962192124     Delta-E=       -0.000000007492 Rises=F Damp=F
 DIIS: error= 1.17D-06 at cycle  10 NSaved=  10.
 NSaved=10 IEnMin=10 EnMin= -557.155962192124     IErMin=10 ErrMin= 1.17D-06
 ErrMax= 1.17D-06  0.00D+00 EMaxC= 1.00D-01 BMatC= 6.48D-10 BMatP= 3.76D-09
 IDIUse=1 WtCom= 1.00D+00 WtEn= 0.00D+00
 Coeff-Com: -0.671D-04 0.137D-03 0.236D-03 0.316D-03 0.678D-04-0.111D-01
 Coeff-Com: -0.228D-01 0.383D-03 0.290D+00 0.743D+00
 Coeff:     -0.671D-04 0.137D-03 0.236D-03 0.316D-03 0.678D-04-0.111D-01
 Coeff:     -0.228D-01 0.383D-03 0.290D+00 0.743D+00
 Gap=     0.253 Goal=   None    Shift=    0.000
 RMSDP=6.29D-07 MaxDP=2.44D-05 DE=-7.49D-09 OVMax= 1.91D-05

 Cycle  11  Pass 1  IDiag  1:
 RMSU=  4.14D-07    CP:  5.34D-01  1.76D+00  8.16D-01  8.69D-01  1.35D+00
                    CP:  1.02D+00  1.14D+00  1.29D+00  1.26D+00  9.59D-01
 E= -557.155962193161     Delta-E=       -0.000000001036 Rises=F Damp=F
 DIIS: error= 4.18D-07 at cycle  11 NSaved=  11.
 NSaved=11 IEnMin=11 EnMin= -557.155962193161     IErMin=11 ErrMin= 4.18D-07
 ErrMax= 4.18D-07  0.00D+00 EMaxC= 1.00D-01 BMatC= 8.95D-11 BMatP= 6.48D-10
 IDIUse=1 WtCom= 1.00D+00 WtEn= 0.00D+00
 Coeff-Com:  0.584D-04-0.125D-03-0.155D-03-0.156D-03 0.240D-02 0.142D-02
 Coeff-Com: -0.264D-02-0.683D-01-0.339D-01 0.233D+00 0.868D+00
 Coeff:      0.584D-04-0.125D-03-0.155D-03-0.156D-03 0.240D-02 0.142D-02
 Coeff:     -0.264D-02-0.683D-01-0.339D-01 0.233D+00 0.868D+00
 Gap=     0.253 Goal=   None    Shift=    0.000
 RMSDP=3.95D-07 MaxDP=1.65D-05 DE=-1.04D-09 OVMax= 1.36D-05

 Cycle  12  Pass 1  IDiag  1:
 RMSU=  1.49D-07    CP:  5.34D-01  1.76D+00  8.16D-01  8.69D-01  1.35D+00
                    CP:  1.02D+00  1.14D+00  1.31D+00  1.31D+00  1.02D+00
                    CP:  1.23D+00
 E= -557.155962193399     Delta-E=       -0.000000000239 Rises=F Damp=F
 DIIS: error= 2.19D-07 at cycle  12 NSaved=  12.
 NSaved=12 IEnMin=12 EnMin= -557.155962193399     IErMin=12 ErrMin= 2.19D-07
 ErrMax= 2.19D-07  0.00D+00 EMaxC= 1.00D-01 BMatC= 1.65D-11 BMatP= 8.95D-11
 IDIUse=1 WtCom= 1.00D+00 WtEn= 0.00D+00
 Coeff-Com:  0.302D-04-0.638D-04-0.896D-04-0.925D-04 0.905D-03 0.173D-02
 Coeff-Com:  0.369D-02-0.272D-01-0.421D-01-0.724D-02 0.325D+00 0.745D+00
 Coeff:      0.302D-04-0.638D-04-0.896D-04-0.925D-04 0.905D-03 0.173D-02
 Coeff:      0.369D-02-0.272D-01-0.421D-01-0.724D-02 0.325D+00 0.745D+00
 Gap=     0.253 Goal=   None    Shift=    0.000
 RMSDP=1.10D-07 MaxDP=6.42D-06 DE=-2.39D-10 OVMax= 4.01D-06

 Cycle  13  Pass 1  IDiag  1:
 RMSU=  5.62D-08    CP:  5.34D-01  1.76D+00  8.16D-01  8.69D-01  1.35D+00
                    CP:  1.02D+00  1.14D+00  1.31D+00  1.32D+00  1.05D+00
                    CP:  1.31D+00  1.01D+00
 E= -557.155962193429     Delta-E=       -0.000000000030 Rises=F Damp=F
 DIIS: error= 1.22D-07 at cycle  13 NSaved=  13.
 NSaved=13 IEnMin=13 EnMin= -557.155962193429     IErMin=13 ErrMin= 1.22D-07
 ErrMax= 1.22D-07  0.00D+00 EMaxC= 1.00D-01 BMatC= 2.60D-12 BMatP= 1.65D-11
 IDIUse=1 WtCom= 1.00D+00 WtEn= 0.00D+00
 Coeff-Com: -0.341D-05 0.770D-05 0.537D-05 0.122D-04-0.195D-03 0.159D-03
 Coeff-Com:  0.220D-02 0.315D-02-0.767D-02-0.581D-01-0.759D-01 0.263D+00
 Coeff-Com:  0.873D+00
 Coeff:     -0.341D-05 0.770D-05 0.537D-05 0.122D-04-0.195D-03 0.159D-03
 Coeff:      0.220D-02 0.315D-02-0.767D-02-0.581D-01-0.759D-01 0.263D+00
 Coeff:      0.873D+00
 Gap=     0.253 Goal=   None    Shift=    0.000
 RMSDP=5.68D-08 MaxDP=2.99D-06 DE=-3.04D-11 OVMax= 2.18D-06

 Cycle  14  Pass 1  IDiag  1:
 RMSU=  2.62D-08    CP:  5.34D-01  1.76D+00  8.16D-01  8.69D-01  1.35D+00
                    CP:  1.02D+00  1.15D+00  1.31D+00  1.32D+00  1.05D+00
                    CP:  1.36D+00  1.10D+00  1.16D+00
 E= -557.155962193436     Delta-E=       -0.000000000007 Rises=F Damp=F
 DIIS: error= 1.86D-08 at cycle  14 NSaved=  14.
 NSaved=14 IEnMin=14 EnMin= -557.155962193436     IErMin=14 ErrMin= 1.86D-08
 ErrMax= 1.86D-08  0.00D+00 EMaxC= 1.00D-01 BMatC= 1.87D-13 BMatP= 2.60D-12
 IDIUse=1 WtCom= 1.00D+00 WtEn= 0.00D+00
 Coeff-Com: -0.232D-05 0.505D-05 0.583D-05 0.622D-05-0.101D-03-0.893D-04
 Coeff-Com:  0.371D-03 0.245D-02 0.102D-02-0.148D-01-0.404D-01-0.728D-02
 Coeff-Com:  0.242D+00 0.817D+00
 Coeff:     -0.232D-05 0.505D-05 0.583D-05 0.622D-05-0.101D-03-0.893D-04
 Coeff:      0.371D-03 0.245D-02 0.102D-02-0.148D-01-0.404D-01-0.728D-02
 Coeff:      0.242D+00 0.817D+00
 Gap=     0.253 Goal=   None    Shift=    0.000
 RMSDP=1.51D-08 MaxDP=8.73D-07 DE=-6.59D-12 OVMax= 3.81D-07

 Cycle  15  Pass 1  IDiag  1:
 RMSU=  4.89D-09    CP:  5.34D-01  1.76D+00  8.16D-01  8.69D-01  1.35D+00
                    CP:  1.02D+00  1.15D+00  1.31D+00  1.32D+00  1.05D+00
                    CP:  1.36D+00  1.11D+00  1.26D+00  1.13D+00
 E= -557.155962193440     Delta-E=       -0.000000000004 Rises=F Damp=F
 DIIS: error= 1.18D-08 at cycle  15 NSaved=  15.
 NSaved=15 IEnMin=15 EnMin= -557.155962193440     IErMin=15 ErrMin= 1.18D-08
 ErrMax= 1.18D-08  0.00D+00 EMaxC= 1.00D-01 BMatC= 2.39D-14 BMatP= 1.87D-13
 IDIUse=1 WtCom= 1.00D+00 WtEn= 0.00D+00
 Coeff-Com: -0.643D-06 0.133D-05 0.220D-05 0.120D-05-0.163D-04-0.771D-04
 Coeff-Com: -0.151D-03 0.590D-03 0.170D-02 0.266D-02-0.385D-02-0.428D-01
 Coeff-Com: -0.115D-01 0.308D+00 0.745D+00
 Coeff:     -0.643D-06 0.133D-05 0.220D-05 0.120D-05-0.163D-04-0.771D-04
 Coeff:     -0.151D-03 0.590D-03 0.170D-02 0.266D-02-0.385D-02-0.428D-01
 Coeff:     -0.115D-01 0.308D+00 0.745D+00
 Gap=     0.253 Goal=   None    Shift=    0.000
 RMSDP=5.47D-09 MaxDP=1.71D-07 DE=-4.09D-12 OVMax= 1.18D-07

 Error on total polarization charges =  0.05329
 SCF Done:  E(RCAM-B3LYP) =  -557.155962193     A.U. after   15 cycles
            NFock= 15  Conv=0.55D-08     -V/T= 2.0098
 KE= 5.517555333394D+02 PE=-2.787104743049D+03 EE= 9.234315396280D+02
 SMD-CDS (non-electrostatic) energy       (kcal/mol) =      -0.27
 (included in total energy above)
 Leave Link  502 at Tue Jul  7 16:43:59 2026, MaxMem=  4026531840 cpu:             318.0 elap:              40.7
 (Enter /opt/packages/gaussian/g16RevC.01/g16/l601.exe)
 Copying SCF densities to generalized density rwf, IOpCl= 0 IROHF=0.

 **********************************************************************

            Population analysis using the SCF Density.

 **********************************************************************

 Orbital symmetries:
       Occupied  (A) (A) (A) (A) (A) (A) (A) (A) (A) (A) (A) (A)
                 (A) (A) (A) (A) (A) (A) (A) (A) (A) (A) (A) (A)
                 (A) (A) (A) (A) (A) (A) (A) (A) (A) (A) (A) (A)
                 (A) (A) (A) (A) (A) (A) (A) (A) (A) (A) (A)
       Virtual   (A) (A) (A) (A) (A) (A) (A) (A) (A) (A) (A) (A)
                 (A) (A) (A) (A) (A) (A) (A) (A) (A) (A) (A) (A)
                 (A) (A) (A) (A) (A) (A) (A) (A) (A) (A) (A) (A)
                 (A) (A) (A) (A) (A) (A) (A) (A) (A) (A) (A) (A)
                 (A) (A) (A) (A) (A) (A) (A) (A) (A) (A) (A) (A)
                 (A) (A) (A) (A) (A) (A) (A) (A) (A) (A) (A) (A)
                 (A) (A) (A) (A) (A) (A) (A) (A) (A) (A) (A) (A)
                 (A) (A) (A) (A) (A) (A) (A) (A) (A) (A) (A) (A)
                 (A) (A) (A) (A) (A) (A) (A) (A) (A) (A) (A) (A)
                 (A) (A) (A) (A) (A) (A) (A) (A) (A) (A) (A) (A)
                 (A) (A) (A) (A) (A) (A) (A) (A) (A) (A) (A) (A)
                 (A) (A) (A) (A) (A) (A) (A) (A) (A) (A) (A) (A)
                 (A) (A) (A) (A) (A) (A) (A) (A) (A) (A) (A) (A)
                 (A) (A) (A) (A) (A) (A) (A) (A) (A) (A) (A) (A)
                 (A) (A) (A) (A) (A) (A) (A) (A) (A) (A) (A) (A)
                 (A) (A) (A) (A) (A) (A) (A) (A) (A) (A) (A) (A)
                 (A) (A) (A) (A) (A) (A) (A) (A) (A) (A) (A) (A)
                 (A) (A) (A) (A) (A) (A) (A) (A) (A) (A) (A) (A)
                 (A) (A) (A) (A) (A) (A) (A) (A) (A) (A)
 The electronic state is 1-A.
 Alpha  occ. eigenvalues --  -19.27881 -14.49549 -10.37761 -10.35661 -10.31137
 Alpha  occ. eigenvalues --  -10.31127 -10.29894 -10.29747 -10.29672 -10.28504
 Alpha  occ. eigenvalues --  -10.28129 -10.28092 -10.27309  -1.16842  -1.09587
 Alpha  occ. eigenvalues --   -0.96440  -0.88689  -0.88296  -0.85366  -0.82949
 Alpha  occ. eigenvalues --   -0.78526  -0.71932  -0.70867  -0.68893  -0.68651
 Alpha  occ. eigenvalues --   -0.63974  -0.60768  -0.58505  -0.57070  -0.54876
 Alpha  occ. eigenvalues --   -0.54526  -0.52831  -0.51132  -0.50406  -0.49751
 Alpha  occ. eigenvalues --   -0.48970  -0.48317  -0.47031  -0.45476  -0.44575
 Alpha  occ. eigenvalues --   -0.43718  -0.43231  -0.40847  -0.40579  -0.38117
 Alpha  occ. eigenvalues --   -0.33294  -0.29796
 Alpha virt. eigenvalues --   -0.04494   0.01764   0.03145   0.04578   0.04886
 Alpha virt. eigenvalues --    0.05664   0.05862   0.06138   0.06642   0.06950
 Alpha virt. eigenvalues --    0.07570   0.08042   0.08240   0.09259   0.09831
 Alpha virt. eigenvalues --    0.10255   0.10517   0.11051   0.12154   0.12991
 Alpha virt. eigenvalues --    0.13872   0.14414   0.14610   0.15024   0.15622
 Alpha virt. eigenvalues --    0.15982   0.16374   0.17089   0.17650   0.17945
 Alpha virt. eigenvalues --    0.18298   0.19111   0.19233   0.20042   0.20565
 Alpha virt. eigenvalues --    0.21256   0.21506   0.21816   0.22409   0.23134
 Alpha virt. eigenvalues --    0.23439   0.23943   0.24350   0.24968   0.25446
 Alpha virt. eigenvalues --    0.26467   0.26748   0.27180   0.27669   0.27792
 Alpha virt. eigenvalues --    0.28428   0.29378   0.29821   0.30305   0.30650
 Alpha virt. eigenvalues --    0.31292   0.31561   0.32011   0.32318   0.32919
 Alpha virt. eigenvalues --    0.33747   0.34325   0.34819   0.35623   0.36312
 Alpha virt. eigenvalues --    0.36767   0.37622   0.38110   0.38773   0.39894
 Alpha virt. eigenvalues --    0.40170   0.41208   0.43348   0.44143   0.44430
 Alpha virt. eigenvalues --    0.47315   0.48906   0.49303   0.50590   0.52755
 Alpha virt. eigenvalues --    0.63021   0.65491   0.67954   0.70816   0.71298
 Alpha virt. eigenvalues --    0.72495   0.72985   0.73816   0.74212   0.74687
 Alpha virt. eigenvalues --    0.75568   0.76447   0.77001   0.77288   0.77671
 Alpha virt. eigenvalues --    0.78531   0.79291   0.80609   0.81970   0.83112
 Alpha virt. eigenvalues --    0.83733   0.85200   0.87999   0.89006   0.90069
 Alpha virt. eigenvalues --    0.93880   0.95259   0.97751   0.98461   0.99632
 Alpha virt. eigenvalues --    1.00421   1.01055   1.01976   1.02979   1.04488
 Alpha virt. eigenvalues --    1.04673   1.05901   1.09240   1.10934   1.11366
 Alpha virt. eigenvalues --    1.12972   1.14401   1.15063   1.15449   1.17733
 Alpha virt. eigenvalues --    1.18859   1.20281   1.21409   1.22324   1.24372
 Alpha virt. eigenvalues --    1.26371   1.26845   1.28277   1.29522   1.30684
 Alpha virt. eigenvalues --    1.33822   1.34565   1.35780   1.38648   1.41641
 Alpha virt. eigenvalues --    1.42724   1.45778   1.47184   1.48410   1.50719
 Alpha virt. eigenvalues --    1.51330   1.51834   1.55344   1.56395   1.58995
 Alpha virt. eigenvalues --    1.60457   1.63454   1.66864   1.69918   1.77931
 Alpha virt. eigenvalues --    1.79349   1.82121   1.86913   1.88579   1.88722
 Alpha virt. eigenvalues --    1.90317   1.91924   1.94017   1.97984   1.99109
 Alpha virt. eigenvalues --    2.01506   2.01870   2.03468   2.06268   2.07053
 Alpha virt. eigenvalues --    2.08758   2.10328   2.12761   2.14101   2.15904
 Alpha virt. eigenvalues --    2.16565   2.18049   2.21203   2.21810   2.23877
 Alpha virt. eigenvalues --    2.25560   2.26085   2.29448   2.31334   2.35682
 Alpha virt. eigenvalues --    2.36881   2.37117   2.38747   2.41477   2.46176
 Alpha virt. eigenvalues --    2.46971   2.50497   2.54883   2.57679   2.60262
 Alpha virt. eigenvalues --    2.62367   2.63167   2.67740   2.69687   2.71654
 Alpha virt. eigenvalues --    2.73581   2.77501   2.81098   2.84722   2.86624
 Alpha virt. eigenvalues --    2.89084   2.92497   2.95499   3.09117   3.11377
 Alpha virt. eigenvalues --    3.18990   3.32083   3.49523   4.16201   4.29994
 Alpha virt. eigenvalues --    4.31166   4.32519   4.35393   4.38785   4.42646
 Alpha virt. eigenvalues --    4.45293   4.49189   4.56173   4.63969   4.70354
 Alpha virt. eigenvalues --    4.86207
          Condensed to atoms (all electrons):
               1          2          3          4          5          6
     1  C    6.757910   0.525981  -0.051452  -0.792556  -0.621713   0.168187
     2  C    0.525981   6.928627   1.332528  -0.845751  -0.123553  -1.749802
     3  C   -0.051452   1.332528   9.791715   2.411513  -4.716091   0.414071
     4  C   -0.792556  -0.845751   2.411513  11.759110  -4.793277   1.192503
     5  C   -0.621713  -0.123553  -4.716091  -4.793277  15.167625  -3.372503
     6  C    0.168187  -1.749802   0.414071   1.192503  -3.372503  11.205363
     7  H   -0.077196  -0.009581   0.002591   0.035853  -0.040816   0.403498
     8  H   -0.052612   0.326585  -0.012854   0.043336  -0.010157   0.019964
     9  H    0.015131  -0.027183   0.308876  -0.048903   0.035627  -0.028671
    10  H    0.017489  -0.004259   0.001872  -0.057035   0.333797  -0.040107
    11  O    0.410610   0.109507   0.021687  -0.021577   0.001220  -0.528431
    12  C   -0.176316  -0.131098   0.008796  -0.012840   0.004691   0.130932
    13  H   -0.065117   0.037568   0.013045   0.002365  -0.001288  -0.002043
    14  H   -0.054430   0.030254   0.006901   0.000700   0.000440   0.001817
    15  H    0.034839  -0.044379  -0.006104  -0.001043   0.000872   0.023352
    16  C   -0.148002  -0.046680  -1.382837  -1.502108   2.943318  -1.135566
    17  C   -0.025636  -0.045905  -0.963068  -1.302813   0.741761  -0.268382
    18  N   -0.017605  -0.050374  -0.110027   0.128891  -0.011860   0.190527
    19  C   -0.000868  -0.008139  -0.040545  -0.060235  -0.039273  -0.002654
    20  C   -0.000580  -0.002103  -0.125328  -0.027854   0.150289   0.005134
    21  H   -0.000336   0.002767   0.010158  -0.020402  -0.010139   0.003480
    22  H   -0.001691  -0.010511  -0.050026   0.013791   0.022238   0.005705
    23  H   -0.000166  -0.000717  -0.006407  -0.013538   0.009364   0.001946
    24  H    0.000031  -0.000029   0.001324   0.005295  -0.003860   0.000002
    25  H   -0.000115  -0.001306  -0.010690   0.000731   0.009718   0.001153
    26  H    0.000068   0.000454   0.003490   0.000626  -0.001219  -0.000298
    27  H    0.002713  -0.003956  -0.040906  -0.093312   0.093863   0.034452
               7          8          9         10         11         12
     1  C   -0.077196  -0.052612   0.015131   0.017489   0.410610  -0.176316
     2  C   -0.009581   0.326585  -0.027183  -0.004259   0.109507  -0.131098
     3  C    0.002591  -0.012854   0.308876   0.001872   0.021687   0.008796
     4  C    0.035853   0.043336  -0.048903  -0.057035  -0.021577  -0.012840
     5  C   -0.040816  -0.010157   0.035627   0.333797   0.001220   0.004691
     6  C    0.403498   0.019964  -0.028671  -0.040107  -0.528431   0.130932
     7  H    0.451105  -0.000095   0.000010  -0.003511  -0.002723  -0.001726
     8  H   -0.000095   0.454015  -0.003481   0.000011  -0.010068  -0.001397
     9  H    0.000010  -0.003481   0.455015  -0.000095  -0.000568   0.000549
    10  H   -0.003511   0.000011  -0.000095   0.461657  -0.000374   0.000438
    11  O   -0.002723  -0.010068  -0.000568  -0.000374   8.518004   0.060181
    12  C   -0.001726  -0.001397   0.000549   0.000438   0.060181   5.323910
    13  H   -0.000000  -0.001037   0.000002   0.000000  -0.032481   0.391656
    14  H   -0.000000  -0.001032   0.000002   0.000000  -0.032856   0.391174
    15  H   -0.000005   0.000151  -0.000000  -0.000000  -0.051771   0.395150
    16  C   -0.004699   0.000346   0.029394   0.024087  -0.001200   0.000406
    17  C    0.000021   0.001658   0.012934   0.014591  -0.000457  -0.000087
    18  N    0.000301   0.000091   0.000130   0.001215   0.000019  -0.000280
    19  C    0.000077   0.000023   0.001695   0.005462  -0.000027   0.000146
    20  C    0.000001  -0.000048  -0.001252  -0.000890   0.000064  -0.000212
    21  H   -0.000000   0.000000   0.000049   0.000001   0.000000  -0.000013
    22  H   -0.000000  -0.000000  -0.000992  -0.000003   0.000000  -0.000009
    23  H    0.000000   0.000000  -0.000000  -0.000004   0.000000  -0.000000
    24  H    0.000000   0.000000   0.000000   0.000003   0.000000   0.000000
    25  H    0.000000   0.000000  -0.000007  -0.000000   0.000000  -0.000001
    26  H    0.000000  -0.000000  -0.000000   0.000000  -0.000000   0.000000
    27  H   -0.000001   0.000000   0.000001   0.004256  -0.000001   0.000002
              13         14         15         16         17         18
     1  C   -0.065117  -0.054430   0.034839  -0.148002  -0.025636  -0.017605
     2  C    0.037568   0.030254  -0.044379  -0.046680  -0.045905  -0.050374
     3  C    0.013045   0.006901  -0.006104  -1.382837  -0.963068  -0.110027
     4  C    0.002365   0.000700  -0.001043  -1.502108  -1.302813   0.128891
     5  C   -0.001288   0.000440   0.000872   2.943318   0.741761  -0.011860
     6  C   -0.002043   0.001817   0.023352  -1.135566  -0.268382   0.190527
     7  H   -0.000000  -0.000000  -0.000005  -0.004699   0.000021   0.000301
     8  H   -0.001037  -0.001032   0.000151   0.000346   0.001658   0.000091
     9  H    0.000002   0.000002  -0.000000   0.029394   0.012934   0.000130
    10  H    0.000000   0.000000  -0.000000   0.024087   0.014591   0.001215
    11  O   -0.032481  -0.032856  -0.051771  -0.001200  -0.000457   0.000019
    12  C    0.391656   0.391174   0.395150   0.000406  -0.000087  -0.000280
    13  H    0.474836  -0.035771  -0.024259   0.000421   0.000022  -0.000000
    14  H   -0.035771   0.474636  -0.024291   0.000036  -0.000040  -0.000000
    15  H   -0.024259  -0.024291   0.457249  -0.000123  -0.000004   0.000000
    16  C    0.000421   0.000036  -0.000123   7.218789  -0.841748   0.300777
    17  C    0.000022  -0.000040  -0.000004  -0.841748   9.020334  -0.314442
    18  N   -0.000000  -0.000000   0.000000   0.300777  -0.314442   7.004332
    19  C    0.000003  -0.000001  -0.000000  -0.542846   0.496808   0.100866
    20  C   -0.000006   0.000004   0.000000   0.360430  -0.919375  -0.057938
    21  H   -0.000000   0.000000   0.000000  -0.087342   0.438471   0.008723
    22  H    0.000000  -0.000000   0.000000  -0.030398   0.364949   0.006669
    23  H   -0.000000   0.000000   0.000000  -0.023860   0.017430  -0.031585
    24  H    0.000000  -0.000000  -0.000000  -0.016322   0.038138  -0.035759
    25  H    0.000000  -0.000000   0.000000   0.027772  -0.114349   0.013866
    26  H   -0.000000   0.000000  -0.000000   0.023457  -0.075982   0.006229
    27  H    0.000000  -0.000000  -0.000000  -0.008042  -0.006992   0.260477
              19         20         21         22         23         24
     1  C   -0.000868  -0.000580  -0.000336  -0.001691  -0.000166   0.000031
     2  C   -0.008139  -0.002103   0.002767  -0.010511  -0.000717  -0.000029
     3  C   -0.040545  -0.125328   0.010158  -0.050026  -0.006407   0.001324
     4  C   -0.060235  -0.027854  -0.020402   0.013791  -0.013538   0.005295
     5  C   -0.039273   0.150289  -0.010139   0.022238   0.009364  -0.003860
     6  C   -0.002654   0.005134   0.003480   0.005705   0.001946   0.000002
     7  H    0.000077   0.000001  -0.000000  -0.000000   0.000000   0.000000
     8  H    0.000023  -0.000048   0.000000  -0.000000   0.000000   0.000000
     9  H    0.001695  -0.001252   0.000049  -0.000992  -0.000000   0.000000
    10  H    0.005462  -0.000890   0.000001  -0.000003  -0.000004   0.000003
    11  O   -0.000027   0.000064   0.000000   0.000000   0.000000   0.000000
    12  C    0.000146  -0.000212  -0.000013  -0.000009  -0.000000   0.000000
    13  H    0.000003  -0.000006  -0.000000   0.000000  -0.000000   0.000000
    14  H   -0.000001   0.000004   0.000000  -0.000000   0.000000  -0.000000
    15  H   -0.000000   0.000000   0.000000   0.000000   0.000000  -0.000000
    16  C   -0.542846   0.360430  -0.087342  -0.030398  -0.023860  -0.016322
    17  C    0.496808  -0.919375   0.438471   0.364949   0.017430   0.038138
    18  N    0.100866  -0.057938   0.008723   0.006669  -0.031585  -0.035759
    19  C    6.119510  -0.424817   0.024070   0.006434   0.417677   0.437597
    20  C   -0.424817   6.867941  -0.046550  -0.015290  -0.051409  -0.095019
    21  H    0.024070  -0.046550   0.427897  -0.023296  -0.000172  -0.000035
    22  H    0.006434  -0.015290  -0.023296   0.420084   0.000954  -0.000152
    23  H    0.417677  -0.051409  -0.000172   0.000954   0.448091  -0.030149
    24  H    0.437597  -0.095019  -0.000035  -0.000152  -0.030149   0.445646
    25  H   -0.088268   0.486572  -0.005005   0.002691   0.002720  -0.005264
    26  H   -0.066553   0.441615   0.000961  -0.004367  -0.003506   0.001349
    27  H   -0.020104   0.014100  -0.000078  -0.000192   0.000111  -0.000837
              25         26         27
     1  C   -0.000115   0.000068   0.002713
     2  C   -0.001306   0.000454  -0.003956
     3  C   -0.010690   0.003490  -0.040906
     4  C    0.000731   0.000626  -0.093312
     5  C    0.009718  -0.001219   0.093863
     6  C    0.001153  -0.000298   0.034452
     7  H    0.000000   0.000000  -0.000001
     8  H    0.000000  -0.000000   0.000000
     9  H   -0.000007  -0.000000   0.000001
    10  H   -0.000000   0.000000   0.004256
    11  O    0.000000  -0.000000  -0.000001
    12  C   -0.000001   0.000000   0.000002
    13  H    0.000000  -0.000000   0.000000
    14  H   -0.000000   0.000000  -0.000000
    15  H    0.000000  -0.000000  -0.000000
    16  C    0.027772   0.023457  -0.008042
    17  C   -0.114349  -0.075982  -0.006992
    18  N    0.013866   0.006229   0.260477
    19  C   -0.088268  -0.066553  -0.020104
    20  C    0.486572   0.441615   0.014100
    21  H   -0.005005   0.000961  -0.000078
    22  H    0.002691  -0.004367  -0.000192
    23  H    0.002720  -0.003506   0.000111
    24  H   -0.005264   0.001349  -0.000837
    25  H    0.450550  -0.024411  -0.000144
    26  H   -0.024411   0.447464  -0.000065
    27  H   -0.000144  -0.000065   0.265348
 Mulliken charges:
               1
     1  C    0.153433
     2  C   -0.188943
     3  C   -0.812232
     4  C   -0.001470
     5  C    0.230924
     6  C   -0.673629
     7  H    0.246896
     8  H    0.246600
     9  H    0.251739
    10  H    0.241399
    11  O   -0.438758
    12  C   -0.384053
    13  H    0.242086
    14  H    0.242458
    15  H    0.240366
    16  C    0.842539
    17  C   -0.267838
    18  N   -0.393241
    19  C   -0.316040
    20  C   -0.557475
    21  H    0.276792
    22  H    0.293411
    23  H    0.263220
    24  H    0.258041
    25  H    0.253784
    26  H    0.250688
    27  H    0.499306
 Sum of Mulliken charges =   1.00000
 Mulliken charges with hydrogens summed into heavy atoms:
               1
     1  C    0.153433
     2  C    0.057657
     3  C   -0.560493
     4  C   -0.001470
     5  C    0.472323
     6  C   -0.426733
    11  O   -0.438758
    12  C    0.340857
    16  C    0.842539
    17  C    0.302364
    18  N    0.106064
    19  C    0.205221
    20  C   -0.053003
 Electronic spatial extent (au):  <R**2>=           3396.1665
 Charge=              1.0000 electrons
 Dipole moment (field-independent basis, Debye):
    X=              7.1281    Y=             -0.4508    Z=              0.3502  Tot=              7.1510
 Quadrupole moment (field-independent basis, Debye-Ang):
   XX=            -24.6198   YY=            -58.7807   ZZ=            -77.7819
   XY=             12.5532   XZ=              0.8219   YZ=             -0.2513
 Traceless Quadrupole moment (field-independent basis, Debye-Ang):
   XX=             29.1077   YY=             -5.0532   ZZ=            -24.0545
   XY=             12.5532   XZ=              0.8219   YZ=             -0.2513
 Octapole moment (field-independent basis, Debye-Ang**2):
  XXX=             39.5673  YYY=             14.6037  ZZZ=              0.7473  XYY=             14.1212
  XXY=            -24.4085  XXZ=              3.5731  XZZ=              8.0473  YZZ=             -2.5787
  YYZ=              0.0553  XYZ=             -0.3493
 Hexadecapole moment (field-independent basis, Debye-Ang**3):
 XXXX=          -2840.3737 YYYY=           -475.8437 ZZZZ=           -114.7011 XXXY=            212.9038
 XXXZ=             10.9646 YYYX=             30.5186 YYYZ=             -1.6539 ZZZX=              1.9874
 ZZZY=              0.5389 XXYY=           -638.3596 XXZZ=           -638.1586 YYZZ=           -114.9592
 XXYZ=             -4.1635 YYXZ=              1.4246 ZZXY=              3.8190
 N-N= 7.547617078883D+02 E-N=-2.787104744359D+03  KE= 5.517555333394D+02
 No NMR shielding tensors so no spin-rotation constants.
 Leave Link  601 at Tue Jul  7 16:43:59 2026, MaxMem=  4026531840 cpu:               0.8 elap:               0.1
 (Enter /opt/packages/gaussian/g16RevC.01/g16/l701.exe)
 ... and contract with generalized density number  0.
 Compute integral first derivatives.
 D1PCM: PCM CHGder 1st derivatives, ID1Alg=3 FixD1E=F DoIter=F DoCFld=F I1PDM=0.
 GePol: Maximum number of non-zero 1st derivatives   =     255
 Leave Link  701 at Tue Jul  7 16:44:00 2026, MaxMem=  4026531840 cpu:               6.7 elap:               0.9
 (Enter /opt/packages/gaussian/g16RevC.01/g16/l702.exe)
 L702 exits ... SP integral derivatives will be done elsewhere.
 Leave Link  702 at Tue Jul  7 16:44:01 2026, MaxMem=  4026531840 cpu:               0.1 elap:               0.0
 (Enter /opt/packages/gaussian/g16RevC.01/g16/l703.exe)
 Integral derivatives from FoFJK, PRISM(SPDF).
 Compute integral first derivatives, UseDBF=F ICtDFT=           0.
 Calling FoFJK, ICntrl=      2127 FMM=F ISym2X=0 I1Cent= 0 IOpClX= 0 NMat=1 NMatS=1 NMatT=0.
 FoFJK:  IHMeth= 1 ICntrl=    2127 DoSepK=T KAlg= 0 I1Cent=           0 FoldK=F
 IRaf=         1 NMat=       1 IRICut=       1 DoRegI=T DoRafI=F ISym2E= 0 IDoP0=0 IntGTp=1.
 FoFCou: FMM=F IPFlag=           0 FMFlag=      100000 FMFlg1=         800
         NFxFlg=           0 DoJE=F BraDBF=F KetDBF=F FulRan=T
         wScrn=  0.000000 ICntrl=      2527 IOpCl=  0 I1Cent=           0 NGrid=           0
         NMat0=    1 NMatS0=      1 NMatT0=    0 NMatD0=    1 NMtDS0=    0 NMtDT0=    0
 Symmetry not used in FoFCou.
 Leave Link  703 at Tue Jul  7 16:44:09 2026, MaxMem=  4026531840 cpu:              64.0 elap:               8.1
 (Enter /opt/packages/gaussian/g16RevC.01/g16/l716.exe)
 Dipole        = 2.80442481D+00-1.77347332D-01 1.37780877D-01
 ***** Axes restored to original set *****
 -------------------------------------------------------------------
 Center     Atomic                   Forces (Hartrees/Bohr)
 Number     Number              X              Y              Z
 -------------------------------------------------------------------
      1        6           0.001932993   -0.000217164   -0.000022477
      2        6           0.000525457    0.004653324   -0.000133673
      3        6           0.000097605    0.005468971   -0.000159968
      4        6          -0.006369651   -0.000258479    0.000019730
      5        6          -0.001448376   -0.004653163    0.000087482
      6        6           0.001512238   -0.004438273    0.000153564
      7        1           0.000195808   -0.000602291    0.000024907
      8        1           0.000098363    0.000477216    0.000002727
      9        1          -0.000069492    0.000390762    0.000002086
     10        1          -0.000176105   -0.000444937    0.000012559
     11        8           0.001880105   -0.004234194    0.000157206
     12        6           0.002946272    0.002941784   -0.000038467
     13        1           0.000093103    0.000592672   -0.000661971
     14        1           0.000087680    0.000626150    0.000652960
     15        1           0.000741106   -0.000331606    0.000024182
     16        6           0.007924888    0.004516479    0.000078577
     17        6           0.001153512    0.002418722   -0.000272149
     18        7          -0.004001458   -0.007658620    0.000248941
     19        6          -0.002074253   -0.001870244   -0.000124514
     20        6          -0.002653602    0.001996883    0.000657691
     21        1           0.000130001    0.000880178    0.000352408
     22        1          -0.000074765    0.000796208   -0.000887085
     23        1          -0.000627212   -0.000414823   -0.001008437
     24        1          -0.000697885   -0.000731988    0.000376130
     25        1          -0.000309948    0.000191651    0.000881200
     26        1          -0.000702908    0.000486067   -0.000327798
     27        1          -0.000113473   -0.000581284   -0.000095812
 -------------------------------------------------------------------
 Cartesian Forces:  Max     0.007924888 RMS     0.002154184
 Leave Link  716 at Tue Jul  7 16:44:09 2026, MaxMem=  4026531840 cpu:               0.1 elap:               0.0
 (Enter /opt/packages/gaussian/g16RevC.01/g16/l103.exe)

 GradGradGradGradGradGradGradGradGradGradGradGradGradGradGradGradGradGrad
 Berny optimization.
 FormGI is forming the generalized inverse of G from B-inverse, IUseBI=4.
 GSVD:  received Info=                   1 from GESDD.
 Internal  Forces:  Max     0.010123778 RMS     0.001835263
 Search for a local minimum.
 Step number   1 out of a maximum of  154
 All quantities printed in internal units (Hartrees-Bohrs-Radians)
 RMS Force = .18353D-02 SwitMx=.10000D-02 MixMth= 1
 Mixed Optimization -- RFO/linear search
 Second derivative matrix not updated -- first step.
 ITU=  0
     Eigenvalues ---    0.00403   0.01043   0.01168   0.01289   0.01482
     Eigenvalues ---    0.01761   0.01776   0.01919   0.02011   0.02048
     Eigenvalues ---    0.02072   0.02104   0.02119   0.02145   0.02198
     Eigenvalues ---    0.02343   0.03298   0.03554   0.04933   0.05180
     Eigenvalues ---    0.05584   0.05867   0.06889   0.07469   0.08391
     Eigenvalues ---    0.08414   0.09392   0.10088   0.10692   0.10976
     Eigenvalues ---    0.15945   0.16000   0.16000   0.16000   0.16000
     Eigenvalues ---    0.16000   0.16000   0.16000   0.21513   0.22000
     Eigenvalues ---    0.22647   0.22958   0.24000   0.24983   0.25000
     Eigenvalues ---    0.25000   0.25000   0.27251   0.28003   0.30530
     Eigenvalues ---    0.33810   0.34082   0.34131   0.34246   0.34250
     Eigenvalues ---    0.34292   0.34508   0.34543   0.34577   0.34732
     Eigenvalues ---    0.35277   0.35288   0.35415   0.35548   0.38794
     Eigenvalues ---    0.39642   0.40202   0.41244   0.43837   0.43956
     Eigenvalues ---    0.44773   0.46005   0.48408   0.54866   0.61190
 RFO step:  Lambda=-1.11315676D-03 EMin= 4.03326554D-03
 Linear search not attempted -- first point.
 Iteration  1 RMS(Cart)=  0.01904383 RMS(Int)=  0.00004009
 Iteration  2 RMS(Cart)=  0.00006447 RMS(Int)=  0.00000191
 Iteration  3 RMS(Cart)=  0.00000000 RMS(Int)=  0.00000191
 ITry= 1 IFail=0 DXMaxC= 9.39D-02 DCOld= 1.00D+10 DXMaxT= 3.00D-01 DXLimC= 3.00D+00 Rises=F
 Variable       Old X    -DE/DX   Delta X   Delta X   Delta X     New X
                                 (Linear)    (Quad)   (Total)
    R1        2.65509  -0.00671   0.00000  -0.01492  -0.01492   2.64017
    R2        2.66717  -0.00601   0.00000  -0.01367  -0.01367   2.65350
    R3        2.55251  -0.00576   0.00000  -0.01047  -0.01047   2.54204
    R4        2.62696  -0.00470   0.00000  -0.00992  -0.00992   2.61705
    R5        2.04794  -0.00046   0.00000  -0.00128  -0.00128   2.04666
    R6        2.66580  -0.00722   0.00000  -0.01644  -0.01644   2.64936
    R7        2.05006  -0.00038   0.00000  -0.00107  -0.00107   2.04899
    R8        2.68076  -0.00644   0.00000  -0.01508  -0.01507   2.66568
    R9        2.73226  -0.00204   0.00000  -0.00526  -0.00526   2.72700
   R10        2.60878  -0.00533   0.00000  -0.01085  -0.01085   2.59793
   R11        2.05210  -0.00047   0.00000  -0.00134  -0.00134   2.05077
   R12        2.05228  -0.00063   0.00000  -0.00177  -0.00177   2.05051
   R13        2.72042  -0.00537   0.00000  -0.01351  -0.01351   2.70691
   R14        2.06910  -0.00086   0.00000  -0.00250  -0.00250   2.06660
   R15        2.06916  -0.00086   0.00000  -0.00250  -0.00250   2.06666
   R16        2.06112  -0.00081   0.00000  -0.00233  -0.00233   2.05879
   R17        2.85084  -0.00398   0.00000  -0.01308  -0.01307   2.83776
   R18        2.47314  -0.01012   0.00000  -0.01648  -0.01648   2.45666
   R19        2.91848  -0.00437   0.00000  -0.01374  -0.01374   2.90473
   R20        2.06481  -0.00088   0.00000  -0.00253  -0.00253   2.06228
   R21        2.07652  -0.00111   0.00000  -0.00326  -0.00326   2.07326
   R22        2.78638  -0.00305   0.00000  -0.00942  -0.00943   2.77695
   R23        1.92241  -0.00052   0.00000  -0.00117  -0.00117   1.92124
   R24        2.90328  -0.00398   0.00000  -0.01225  -0.01226   2.89102
   R25        2.07109  -0.00121   0.00000  -0.00353  -0.00353   2.06756
   R26        2.06423  -0.00102   0.00000  -0.00294  -0.00294   2.06129
   R27        2.06840  -0.00095   0.00000  -0.00276  -0.00276   2.06564
   R28        2.06367  -0.00089   0.00000  -0.00258  -0.00258   2.06109
    A1        2.09343   0.00091   0.00000   0.00389   0.00389   2.09733
    A2        2.17143  -0.00147   0.00000  -0.00596  -0.00596   2.16547
    A3        2.01832   0.00055   0.00000   0.00207   0.00207   2.02039
    A4        2.08283  -0.00058   0.00000  -0.00238  -0.00238   2.08045
    A5        2.11598   0.00012   0.00000   0.00013   0.00014   2.11611
    A6        2.08437   0.00046   0.00000   0.00225   0.00225   2.08662
    A7        2.12202  -0.00039   0.00000  -0.00162  -0.00162   2.12040
    A8        2.06459   0.00030   0.00000   0.00150   0.00150   2.06610
    A9        2.09657   0.00008   0.00000   0.00012   0.00012   2.09669
   A10        2.06136   0.00105   0.00000   0.00427   0.00427   2.06563
   A11        2.08185  -0.00065   0.00000  -0.00262  -0.00262   2.07923
   A12        2.13997  -0.00041   0.00000  -0.00165  -0.00165   2.13832
   A13        2.10833  -0.00048   0.00000  -0.00200  -0.00200   2.10633
   A14        2.11511   0.00016   0.00000   0.00051   0.00051   2.11563
   A15        2.05974   0.00032   0.00000   0.00149   0.00149   2.06123
   A16        2.09838  -0.00053   0.00000  -0.00215  -0.00215   2.09623
   A17        2.07564   0.00015   0.00000   0.00037   0.00037   2.07601
   A18        2.10916   0.00038   0.00000   0.00179   0.00179   2.11095
   A19        2.08226  -0.00286   0.00000  -0.01141  -0.01141   2.07085
   A20        1.93045  -0.00035   0.00000  -0.00235  -0.00235   1.92810
   A21        1.93002  -0.00036   0.00000  -0.00243  -0.00243   1.92759
   A22        1.83647   0.00023   0.00000   0.00175   0.00175   1.83822
   A23        1.92833   0.00018   0.00000   0.00057   0.00056   1.92889
   A24        1.91847   0.00015   0.00000   0.00127   0.00127   1.91973
   A25        1.91815   0.00015   0.00000   0.00128   0.00128   1.91943
   A26        2.19622  -0.00073   0.00000  -0.00165  -0.00166   2.19457
   A27        2.18248  -0.00079   0.00000  -0.00187  -0.00188   2.18060
   A28        1.90414   0.00151   0.00000   0.00351   0.00351   1.90765
   A29        1.81384  -0.00062   0.00000  -0.00204  -0.00204   1.81180
   A30        1.95482   0.00010   0.00000  -0.00256  -0.00256   1.95226
   A31        1.88360  -0.00009   0.00000  -0.00265  -0.00265   1.88095
   A32        1.97554   0.00017   0.00000   0.00130   0.00129   1.97683
   A33        1.96012   0.00036   0.00000   0.00223   0.00223   1.96234
   A34        1.87500   0.00006   0.00000   0.00327   0.00327   1.87827
   A35        2.01053   0.00018   0.00000  -0.00229  -0.00229   2.00824
   A36        2.16237  -0.00036   0.00000  -0.00050  -0.00049   2.16188
   A37        2.10788   0.00017   0.00000   0.00279   0.00279   2.11067
   A38        1.78474  -0.00021   0.00000  -0.00062  -0.00063   1.78412
   A39        1.89248  -0.00001   0.00000  -0.00049  -0.00049   1.89199
   A40        1.91099   0.00009   0.00000  -0.00094  -0.00094   1.91005
   A41        1.97620   0.00009   0.00000   0.00002   0.00002   1.97622
   A42        1.99433  -0.00016   0.00000  -0.00157  -0.00157   1.99276
   A43        1.89940   0.00019   0.00000   0.00327   0.00327   1.90267
   A44        1.81965  -0.00094   0.00000  -0.00051  -0.00052   1.81913
   A45        1.91779   0.00022   0.00000   0.00009   0.00009   1.91789
   A46        1.96151   0.00025   0.00000  -0.00116  -0.00116   1.96035
   A47        1.91844   0.00020   0.00000   0.00042   0.00042   1.91886
   A48        1.95398   0.00034   0.00000  -0.00059  -0.00058   1.95340
   A49        1.89184  -0.00007   0.00000   0.00167   0.00167   1.89350
    D1       -0.00458  -0.00001   0.00000  -0.00034  -0.00034  -0.00492
    D2        3.14008  -0.00001   0.00000  -0.00057  -0.00057   3.13951
    D3        3.13735   0.00001   0.00000   0.00033   0.00033   3.13769
    D4       -0.00117   0.00000   0.00000   0.00010   0.00010  -0.00107
    D5        0.00170   0.00001   0.00000   0.00038   0.00038   0.00208
    D6       -3.13909   0.00001   0.00000   0.00038   0.00038  -3.13871
    D7       -3.14020  -0.00001   0.00000  -0.00024  -0.00024  -3.14044
    D8        0.00219  -0.00001   0.00000  -0.00023  -0.00024   0.00196
    D9       -0.00191  -0.00001   0.00000  -0.00038  -0.00038  -0.00229
   D10        3.14001   0.00001   0.00000   0.00027   0.00027   3.14027
   D11        0.00262   0.00000   0.00000   0.00010   0.00010   0.00272
   D12       -3.14107  -0.00001   0.00000  -0.00027  -0.00027  -3.14133
   D13        3.14120   0.00001   0.00000   0.00032   0.00032   3.14152
   D14       -0.00249  -0.00000   0.00000  -0.00004  -0.00004  -0.00253
   D15        0.00216   0.00000   0.00000   0.00010   0.00010   0.00226
   D16        3.13987  -0.00000   0.00000  -0.00008  -0.00008   3.13979
   D17       -3.13730   0.00001   0.00000   0.00047   0.00047  -3.13683
   D18        0.00041   0.00001   0.00000   0.00029   0.00029   0.00070
   D19       -0.00509  -0.00000   0.00000  -0.00007  -0.00007  -0.00516
   D20        3.13571  -0.00001   0.00000  -0.00028  -0.00028   3.13543
   D21        3.14052   0.00000   0.00000   0.00012   0.00012   3.14064
   D22       -0.00186  -0.00000   0.00000  -0.00009  -0.00009  -0.00195
   D23       -0.01372  -0.00002   0.00000   0.00009   0.00009  -0.01362
   D24       -3.12391   0.00003   0.00000   0.00091   0.00091  -3.12301
   D25        3.12381  -0.00002   0.00000  -0.00008  -0.00008   3.12372
   D26        0.01361   0.00003   0.00000   0.00073   0.00073   0.01434
   D27        0.00321  -0.00000   0.00000  -0.00017  -0.00017   0.00303
   D28       -3.13921  -0.00000   0.00000  -0.00018  -0.00018  -3.13939
   D29       -3.13762   0.00000   0.00000   0.00003   0.00003  -3.13758
   D30        0.00316   0.00000   0.00000   0.00002   0.00002   0.00318
   D31        1.06847  -0.00013   0.00000  -0.00095  -0.00095   1.06752
   D32       -1.07344   0.00013   0.00000   0.00162   0.00161  -1.07183
   D33        3.13940   0.00001   0.00000   0.00035   0.00035   3.13975
   D34        2.93780  -0.00011   0.00000  -0.00154  -0.00154   2.93626
   D35        0.79922   0.00003   0.00000  -0.00041  -0.00041   0.79881
   D36       -1.26114  -0.00005   0.00000  -0.00125  -0.00125  -1.26239
   D37       -0.23099  -0.00018   0.00000  -0.00232  -0.00232  -0.23331
   D38       -2.36958  -0.00005   0.00000  -0.00118  -0.00118  -2.37076
   D39        1.85325  -0.00012   0.00000  -0.00203  -0.00203   1.85123
   D40        3.09347  -0.00008   0.00000  -0.00108  -0.00108   3.09239
   D41        0.02598  -0.00004   0.00000  -0.00138  -0.00138   0.02460
   D42       -0.02118  -0.00001   0.00000  -0.00032  -0.00032  -0.02150
   D43       -3.08868   0.00003   0.00000  -0.00062  -0.00062  -3.08929
   D44        0.37571  -0.00012   0.00000   0.00357   0.00357   0.37928
   D45       -1.67950   0.00005   0.00000   0.00331   0.00331  -1.67619
   D46        2.49555  -0.00017   0.00000   0.00190   0.00190   2.49745
   D47        2.50057  -0.00030   0.00000  -0.00018  -0.00018   2.50039
   D48        0.44537  -0.00013   0.00000  -0.00044  -0.00044   0.44493
   D49       -1.66278  -0.00036   0.00000  -0.00185  -0.00185  -1.66463
   D50       -1.65561   0.00018   0.00000   0.00682   0.00682  -1.64879
   D51        2.57237   0.00035   0.00000   0.00656   0.00656   2.57894
   D52        0.46423   0.00012   0.00000   0.00515   0.00515   0.46938
   D53        0.26338   0.00019   0.00000   0.00278   0.00278   0.26616
   D54       -1.82850   0.00020   0.00000   0.00329   0.00329  -1.82521
   D55        2.38459  -0.00007   0.00000   0.00017   0.00017   2.38476
   D56       -2.94980   0.00013   0.00000   0.00292   0.00292  -2.94687
   D57        1.24151   0.00013   0.00000   0.00343   0.00343   1.24495
   D58       -0.82858  -0.00013   0.00000   0.00031   0.00031  -0.82827
   D59       -0.37870   0.00003   0.00000  -0.00406  -0.00406  -0.38276
   D60        1.67606  -0.00013   0.00000  -0.00403  -0.00403   1.67203
   D61       -2.50353   0.00014   0.00000  -0.00202  -0.00202  -2.50555
   D62        1.65363  -0.00006   0.00000  -0.00499  -0.00499   1.64864
   D63       -2.57479  -0.00023   0.00000  -0.00496  -0.00496  -2.57975
   D64       -0.47120   0.00004   0.00000  -0.00295  -0.00295  -0.47415
   D65       -2.44162   0.00013   0.00000  -0.00177  -0.00177  -2.44339
   D66       -0.38686  -0.00003   0.00000  -0.00174  -0.00174  -0.38860
   D67        1.71674   0.00024   0.00000   0.00027   0.00027   1.71701
         Item               Value     Threshold  Converged?
 Maximum Force            0.010124     0.000450     NO 
 RMS     Force            0.001835     0.000300     NO 
 Maximum Displacement     0.093912     0.001800     NO 
 RMS     Displacement     0.019032     0.001200     NO 
 Predicted change in Energy=-5.583021D-04
 Lowest energy point so far.  Saving SCF results.
 GradGradGradGradGradGradGradGradGradGradGradGradGradGradGradGradGradGrad

 Leave Link  103 at Tue Jul  7 16:44:09 2026, MaxMem=  4026531840 cpu:               0.8 elap:               0.1
 (Enter /opt/packages/gaussian/g16RevC.01/g16/l202.exe)
                          Input orientation:                          
 ---------------------------------------------------------------------
 Center     Atomic      Atomic             Coordinates (Angstroms)
 Number     Number       Type             X           Y           Z
 ---------------------------------------------------------------------
      1          6           0       -2.474426    0.271531   -0.011391
      2          6           0       -1.847447   -0.976296    0.030644
      3          6           0       -0.463944   -1.037305    0.040188
      4          6           0        0.320525    0.124316    0.011879
      5          6           0       -0.333525    1.373621   -0.024227
      6          6           0       -1.706284    1.446682   -0.037485
      7          1           0       -2.213815    2.405293   -0.067291
      8          1           0       -2.422801   -1.893602    0.053180
      9          1           0        0.008690   -2.012612    0.072700
     10          1           0        0.227953    2.302140   -0.041378
     11          8           0       -3.808339    0.444509   -0.028477
     12          6           0       -4.651403   -0.713323   -0.005217
     13          1           0       -4.485421   -1.288997    0.909663
     14          1           0       -4.471414   -1.334658   -0.887016
     15          1           0       -5.670278   -0.327963   -0.023138
     16          6           0        1.758294    0.001558    0.025745
     17          6           0        2.528111   -1.286408    0.085471
     18          7           0        2.590844    0.999994    0.022360
     19          6           0        4.009982    0.627470    0.104204
     20          6           0        3.972691   -0.865304   -0.228533
     21          1           0        2.134105   -2.027918   -0.611583
     22          1           0        2.421524   -1.693539    1.098664
     23          1           0        4.363559    0.834764    1.118638
     24          1           0        4.584332    1.228384   -0.602086
     25          1           0        4.181281   -1.015800   -1.290927
     26          1           0        4.704029   -1.430046    0.350944
     27          1           0        2.305375    1.975738    0.030219
 ---------------------------------------------------------------------
                    Distance matrix (angstroms):
                    1          2          3          4          5
     1  C    0.000000
     2  C    1.397119   0.000000
     3  C    2.399531   1.384881   0.000000
     4  C    2.798922   2.431420   1.401983   0.000000
     5  C    2.407950   2.795904   2.415310   1.410620   0.000000
     6  C    1.404174   2.428043   2.778423   2.420546   1.374765
     7  H    2.150345   3.402788   3.863300   3.410572   2.145155
     8  H    2.166711   1.083046   2.137881   3.405809   3.878893
     9  H    3.374943   2.126256   1.084280   2.160417   3.404861
    10  H    3.380403   3.880801   3.411343   2.180441   1.085219
    11  O    1.345191   2.422247   3.658615   4.141457   3.596887
    12  C    2.389394   2.816488   4.200219   5.042023   4.795806
    13  H    2.706970   2.798099   4.122088   5.089261   5.019952
    14  H    2.708232   2.802806   4.124069   5.089135   5.020090
    15  H    3.251615   3.877790   5.254816   6.007953   5.601456
    16  C    4.241484   3.735987   2.453118   1.443067   2.502152
    17  C    5.240414   4.386877   3.002748   2.620877   3.908548
    18  N    5.117495   4.858418   3.671871   2.433366   2.948508
    19  C    6.495198   6.073464   4.774054   3.724753   4.409001
    20  C    6.550180   5.826963   4.448092   3.791499   4.857780
    21  H    5.185195   4.167868   2.855867   2.882688   4.243189
    22  H    5.391108   4.458612   3.142760   2.983269   4.273014
    23  H    6.953577   6.560509   5.288902   4.251562   4.864063
    24  H    7.147766   6.828525   5.570544   4.447019   4.953821
    25  H    6.898758   6.172007   4.832229   4.231147   5.262826
    26  H    7.386262   6.574977   5.192183   4.663273   5.777392
    27  H    5.074696   5.095138   4.092389   2.714356   2.707268
                    6          7          8          9         10
     6  C    0.000000
     7  H    1.085086   0.000000
     8  H    3.417472   4.305658   0.000000
     9  H    3.862641   4.947425   2.434480   0.000000
    10  H    2.114969   2.444083   4.963838   4.321825   0.000000
    11  O    2.328748   2.527585   2.719035   4.540638   4.443266
    12  C    3.652450   3.958719   2.522526   4.838459   5.736064
    13  H    4.013057   4.445493   2.313766   4.628299   6.001386
    14  H    4.012917   4.444765   2.322327   4.631631   6.002120
    15  H    4.343134   4.406787   3.605989   5.924348   6.458088
    16  C    3.754422   4.643732   4.590636   2.668371   2.763897
    17  C    5.041330   6.011477   4.988112   2.622026   4.264328
    18  N    4.320697   5.006760   5.788824   3.968104   2.698684
    19  C    5.776408   6.475007   6.909349   4.793889   4.138775
    20  C    6.134536   6.999690   6.483754   4.137675   4.908237
    21  H    5.210664   6.233300   4.607096   2.232905   4.765286
    22  H    5.309485   6.296527   4.959894   2.641246   4.698606
    23  H    6.209192   6.865482   7.391472   5.307205   4.538950
    24  H    6.319674   6.919966   7.699096   5.647645   4.521657
    25  H    6.503719   7.355162   6.796400   4.501514   5.310263
    26  H    7.036942   7.920942   7.148094   4.739516   5.841094
    27  H    4.046960   4.540606   6.109661   4.602554   2.104125
                   11         12         13         14         15
    11  O    0.000000
    12  C    1.432436   0.000000
    13  H    2.084128   1.093598   0.000000
    14  H    2.083793   1.093628   1.797314   0.000000
    15  H    2.015826   1.089463   1.788180   1.788014   0.000000
    16  C    5.584492   6.449514   6.436678   6.436449   7.436037
    17  C    6.569601   7.202921   7.061794   7.066924   8.254938
    18  N    6.423448   7.442201   7.490014   7.493534   8.367297
    19  C    7.821587   8.765232   8.746055   8.761652   9.728129
    20  C    7.893038   8.628323   8.544861   8.482735   9.660112
    21  H    6.462627   6.938224   6.832152   6.647507   8.009026
    22  H    6.682282   7.225349   6.921363   7.182222   8.282541
    23  H    8.261240   9.215702   9.102663   9.315889  10.165307
    24  H    8.448693   9.456494   9.533258   9.415780  10.388187
    25  H    8.219508   8.930892   8.945890   8.667983   9.956586
    26  H    8.724582   9.389603   9.207500   9.259071  10.439385
    27  H    6.302825   7.458489   7.585962   7.597690   8.301862
                   16         17         18         19         20
    16  C    0.000000
    17  C    1.501680   0.000000
    18  N    1.300010   2.288133   0.000000
    19  C    2.338380   2.420583   1.469499   0.000000
    20  C    2.391581   1.537119   2.334906   1.529863   0.000000
    21  H    2.160138   1.091313   3.127099   3.329018   2.208800
    22  H    2.112909   1.097122   2.905550   2.983159   2.203076
    23  H    2.945514   2.989259   2.090848   1.094104   2.204060
    24  H    3.144164   3.320385   2.101450   1.090789   2.212957
    25  H    2.939304   2.168103   2.884032   2.162423   1.093087
    26  H    3.291291   2.196753   3.237069   2.185396   1.090680
    27  H    2.048585   3.270208   1.016676   2.174623   3.304303
                   21         22         23         24         25
    21  H    0.000000
    22  H    1.766172   0.000000
    23  H    4.019836   3.188136   0.000000
    24  H    4.075195   4.013468   1.778924   0.000000
    25  H    2.382608   3.044047   3.043652   2.381873   0.000000
    26  H    2.808634   2.416266   2.415499   2.826631   1.772176
    27  H    4.058387   3.823436   2.592798   2.480322   3.770113
                   26         27
    26  H    0.000000
    27  H    4.178010   0.000000
 Stoichiometry    C11H14NO(1+)
 Framework group  C1[X(C11H14NO)]
 Deg. of freedom    75
 Full point group                 C1      NOp   1
 RotChk:  IX=0 Diff= 7.39D-04
 Largest Abelian subgroup         C1      NOp   1
 Largest concise Abelian subgroup C1      NOp   1
                         Standard orientation:                         
 ---------------------------------------------------------------------
 Center     Atomic      Atomic             Coordinates (Angstroms)
 Number     Number       Type             X           Y           Z
 ---------------------------------------------------------------------
      1          6           0       -2.474691    0.269434   -0.011254
      2          6           0       -1.847061   -0.978065    0.030781
      3          6           0       -0.463526   -1.038352    0.040325
      4          6           0        0.320336    0.123678    0.012017
      5          6           0       -0.334366    1.372641   -0.024089
      6          6           0       -1.707162    1.444986   -0.037348
      7          1           0       -2.215194    2.403332   -0.067154
      8          1           0       -2.421935   -1.895672    0.053317
      9          1           0        0.009617   -2.013412    0.072837
     10          1           0        0.226628    2.301453   -0.041241
     11          8           0       -3.808694    0.441716   -0.028340
     12          6           0       -4.651153   -0.716556   -0.005080
     13          1           0       -4.484871   -1.292143    0.909800
     14          1           0       -4.470840   -1.337797   -0.886879
     15          1           0       -5.670229   -0.331727   -0.023000
     16          6           0        1.758170    0.001671    0.025882
     17          6           0        2.528659   -1.285893    0.085609
     18          7           0        2.590198    1.000542    0.022497
     19          6           0        4.009531    0.628759    0.104342
     20          6           0        3.973018   -0.864036   -0.228396
     21          1           0        2.135039   -2.027609   -0.611445
     22          1           0        2.422284   -1.693080    1.098801
     23          1           0        4.362999    0.836236    1.118775
     24          1           0        4.583567    1.229972   -0.601948
     25          1           0        4.181687   -1.014422   -1.290790
     26          1           0        4.704652   -1.428395    0.351082
     27          1           0        2.304219    1.976136    0.030356
 ---------------------------------------------------------------------
 Rotational constants (GHZ):           2.8684542           0.3549947           0.3189286
 Leave Link  202 at Tue Jul  7 16:44:09 2026, MaxMem=  4026531840 cpu:               0.0 elap:               0.0
 (Enter /opt/packages/gaussian/g16RevC.01/g16/l301.exe)
 Standard basis: 6-31+G(d) (6D, 7F)
 Ernie: Thresh=  0.10000D-02 Tol=  0.10000D-05 Strict=F.
 There are   275 symmetry adapted cartesian basis functions of A   symmetry.
 There are   275 symmetry adapted basis functions of A   symmetry.
   275 basis functions,   472 primitive gaussians,   275 cartesian basis functions
    47 alpha electrons       47 beta electrons
       nuclear repulsion energy       758.4228447326 Hartrees.
 IExCor=20419 DFT=T Ex+Corr=CAM-B3LYP ExCW=0 ScaHFX=  1.000000
 ScaDFX=  1.000000  1.000000  1.000000  0.810000 ScalE2=  1.000000  1.000000
 IRadAn=      5 IRanWt=     -1 IRanGd=            0 ICorTp=0 IEmpDi=  4
 HFx  wShort=  0.000000 wLong=  0.330000 cFull=  0.190000 cShort=  0.000000 cLong=  0.460000
 DFx  wShort=  0.000000 wLong=  0.330000 cFull=  0.190000 cShort=  0.000000 cLong=  0.460000
 NAtoms=   27 NActive=   27 NUniq=   27 SFac= 1.00D+00 NAtFMM=   60 NAOKFM=F Big=F
 Integral buffers will be    131072 words long.
 Raffenetti 2 integral format.
 Two-electron integral symmetry is turned on.
 ------------------------------------------------------------------------------
 Polarizable Continuum Model (PCM)
 =================================
 Model                : PCM.
 Atomic radii         : SMD-Coulomb.
 Polarization charges : Total charges.
 Charge compensation  : None.
 Solution method      : On-the-fly selection.
 Cavity type          : VdW (van der Waals Surface) (Alpha=1.000).
 Cavity algorithm     : GePol (No added spheres)
                        Default sphere list used, NSphG=   27.
                        Lebedev-Laikov grids with approx.  5.0 points / Ang**2.
                        Smoothing algorithm: York/Karplus (Gamma=1.0000).
                        Polarization charges: spherical gaussians, with
                                              point-specific exponents (IZeta= 3).
                        Self-potential: point-specific (ISelfS= 7).
                        Self-field    : sphere-specific E.n sum rule (ISelfD= 2).
 1st derivatives      : Analytical E(r).r(x)/FMM algorithm (CHGder, D1EAlg=3).
                        Cavity 1st derivative terms included.
 Solvent              : Methanol, Eps=  32.613000 Eps(inf)=   1.765709
 ------------------------------------------------------------------------------
 GePol: Number of generator spheres                  =      27
 GePol: Total number of spheres                      =      27
 GePol: Number of exposed spheres                    =      27 (100.00%)
 GePol: Number of points                             =    1965
 GePol: Average weight of points                     =       0.11
 GePol: Minimum weight of points                     =   0.11D-08
 GePol: Maximum weight of points                     =    0.21991
 GePol: Number of points with low weight             =     101
 GePol: Fraction of low-weight points (<1% of avg)   =       5.14%
 GePol: Cavity surface area                          =    214.853 Ang**2
 GePol: Cavity volume                                =    191.165 Ang**3
 ------------------------------------------------------------------------------
 Atomic radii for non-electrostatic terms: SMD-CDS.
 ------------------------------------------------------------------------------
 PCM non-electrostatic energy =        -0.0004744518 Hartrees.
 Nuclear repulsion after PCM non-electrostatic terms =      758.4223702809 Hartrees.
 Leave Link  301 at Tue Jul  7 16:44:09 2026, MaxMem=  4026531840 cpu:               0.4 elap:               0.1
 (Enter /opt/packages/gaussian/g16RevC.01/g16/l302.exe)
 NPDir=0 NMtPBC=     1 NCelOv=     1 NCel=       1 NClECP=     1 NCelD=      1
         NCelK=      1 NCelE2=     1 NClLst=     1 CellRange=     0.0.
 One-electron integrals computed using PRISM.
 One-electron integral symmetry used in STVInt
 NBasis=   275 RedAO= T EigKep=  2.05D-06  NBF=   275
 NBsUse=   273 1.00D-06 EigRej=  8.38D-07 NBFU=   273
 Precomputing XC quadrature grid using
 IXCGrd= 4 IRadAn=           5 IRanWt=          -1 IRanGd=           0 AccXCQ= 0.00D+00.
 Generated NRdTot=       0 NPtTot=           0 NUsed=           0 NTot=          32
 NSgBfM=   274   274   274   274   274 MxSgAt=    27 MxSgA2=    27.
 Leave Link  302 at Tue Jul  7 16:44:09 2026, MaxMem=  4026531840 cpu:               1.4 elap:               0.2
 (Enter /opt/packages/gaussian/g16RevC.01/g16/l303.exe)
 DipDrv:  MaxL=1.
 Leave Link  303 at Tue Jul  7 16:44:10 2026, MaxMem=  4026531840 cpu:               0.1 elap:               0.0
 (Enter /opt/packages/gaussian/g16RevC.01/g16/l401.exe)
 Initial guess from the checkpoint file:  "iminium_ground_cam.chk"
 B after Tr=     0.000000   -0.000000   -0.000000
         Rot=    1.000000    0.000028    0.000026   -0.000060 Ang=   0.01 deg.
 Guess basis will be translated and rotated to current coordinates.
 JPrj=2 DoOrth=T DoCkMO=T.
 Generating alternative initial guess.
 ExpMin= 4.38D-02 ExpMax= 5.48D+03 ExpMxC= 8.25D+02 IAcc=3 IRadAn=         5 AccDes= 0.00D+00
 Harris functional with IExCor=20419 and IRadAn=       5 diagonalized for initial guess.
 HarFok:  IExCor=20419 AccDes= 0.00D+00 IRadAn=         5 IDoV= 1 UseB2=F ITyADJ=14
 ICtDFT=  3500011 ScaDFX=  1.000000  1.000000  1.000000  1.000000
 FoFCou: FMM=F IPFlag=           0 FMFlag=      100000 FMFlg1=           0
         NFxFlg=           0 DoJE=T BraDBF=F KetDBF=T FulRan=T
         wScrn=  0.000000 ICntrl=       500 IOpCl=  0 I1Cent=   200000004 NGrid=           0
         NMat0=    1 NMatS0=      1 NMatT0=    0 NMatD0=    1 NMtDS0=    0 NMtDT0=    0
 Petite list used in FoFCou.
 Harris En= -534.976256059388    
 Leave Link  401 at Tue Jul  7 16:44:10 2026, MaxMem=  4026531840 cpu:               6.8 elap:               0.9
 (Enter /opt/packages/gaussian/g16RevC.01/g16/l502.exe)
 Integral symmetry usage will be decided dynamically.
 Closed shell SCF:
 Using DIIS extrapolation, IDIIS=  1040.
 NGot=  4026531840 LenX=  4026374748 LenY=  4026298682
 Requested convergence on RMS density matrix=1.00D-08 within 128 cycles.
 Requested convergence on MAX density matrix=1.00D-06.
 Requested convergence on             energy=1.00D-06.
 No special actions if energy rises.
 Fock matrices will be formed incrementally for  20 cycles.

 Cycle   1  Pass 1  IDiag  1:
 FoFJK:  IHMeth= 1 ICntrl=       0 DoSepK=T KAlg= 0 I1Cent=           0 FoldK=F
 IRaf=         1 NMat=       1 IRICut=       1 DoRegI=T DoRafI=F ISym2E= 0 IDoP0=0 IntGTp=1.
 FoFCou: FMM=F IPFlag=           0 FMFlag=      100000 FMFlg1=           0
         NFxFlg=           0 DoJE=T BraDBF=F KetDBF=F FulRan=T
         wScrn=  0.000000 ICntrl=       500 IOpCl=  0 I1Cent=           0 NGrid=           0
         NMat0=    1 NMatS0=      1 NMatT0=    0 NMatD0=    1 NMtDS0=    0 NMtDT0=    0
 Symmetry not used in FoFCou.
 Inv3:  Mode=1 IEnd=    11583675.
 Iteration    1 A*A^-1 deviation from unit magnitude is 3.22D-15 for    923.
 Iteration    1 A*A^-1 deviation from orthogonality  is 1.76D-15 for    777    692.
 Iteration    1 A^-1*A deviation from unit magnitude is 3.11D-15 for   1858.
 Iteration    1 A^-1*A deviation from orthogonality  is 5.74D-14 for   1304   1212.
 E= -557.156071840090    
 DIIS: error= 5.46D-04 at cycle   1 NSaved=   1.
 NSaved= 1 IEnMin= 1 EnMin= -557.156071840090     IErMin= 1 ErrMin= 5.46D-04
 ErrMax= 5.46D-04  0.00D+00 EMaxC= 1.00D-01 BMatC= 2.78D-04 BMatP= 2.78D-04
 IDIUse=3 WtCom= 9.95D-01 WtEn= 5.46D-03
 Coeff-Com:  0.100D+01
 Coeff-En:   0.100D+01
 Coeff:      0.100D+01
 Gap=     0.516 Goal=   None    Shift=    0.000
 RMSDP=1.76D-03 MaxDP=1.65D-01              OVMax= 3.53D-03

 Cycle   2  Pass 1  IDiag  1:
 RMSU=  9.03D-04    CP:  1.03D+00
 E= -557.156416433378     Delta-E=       -0.000344593288 Rises=F Damp=F
 DIIS: error= 1.64D-04 at cycle   2 NSaved=   2.
 NSaved= 2 IEnMin= 2 EnMin= -557.156416433378     IErMin= 2 ErrMin= 1.64D-04
 ErrMax= 1.64D-04  0.00D+00 EMaxC= 1.00D-01 BMatC= 1.95D-05 BMatP= 2.78D-04
 IDIUse=3 WtCom= 9.98D-01 WtEn= 1.64D-03
 Coeff-Com:  0.650D-01 0.935D+00
 Coeff-En:   0.000D+00 0.100D+01
 Coeff:      0.648D-01 0.935D+00
 Gap=     0.255 Goal=   None    Shift=    0.000
 RMSDP=1.46D-04 MaxDP=1.22D-02 DE=-3.45D-04 OVMax= 1.25D-03

 Cycle   3  Pass 1  IDiag  1:
 RMSU=  1.23D-04    CP:  1.03D+00  1.07D+00
 E= -557.156434820957     Delta-E=       -0.000018387579 Rises=F Damp=F
 DIIS: error= 1.05D-04 at cycle   3 NSaved=   3.
 NSaved= 3 IEnMin= 3 EnMin= -557.156434820957     IErMin= 3 ErrMin= 1.05D-04
 ErrMax= 1.05D-04  0.00D+00 EMaxC= 1.00D-01 BMatC= 7.30D-06 BMatP= 1.95D-05
 IDIUse=3 WtCom= 9.99D-01 WtEn= 1.05D-03
 Coeff-Com: -0.453D-01 0.360D+00 0.686D+00
 Coeff-En:   0.000D+00 0.000D+00 0.100D+01
 Coeff:     -0.452D-01 0.359D+00 0.686D+00
 Gap=     0.255 Goal=   None    Shift=    0.000
 RMSDP=9.48D-05 MaxDP=8.64D-03 DE=-1.84D-05 OVMax= 4.42D-04

 Cycle   4  Pass 1  IDiag  1:
 RMSU=  6.47D-05    CP:  1.03D+00  1.07D+00  5.46D-01
 E= -557.156441917527     Delta-E=       -0.000007096569 Rises=F Damp=F
 DIIS: error= 2.90D-05 at cycle   4 NSaved=   4.
 NSaved= 4 IEnMin= 4 EnMin= -557.156441917527     IErMin= 4 ErrMin= 2.90D-05
 ErrMax= 2.90D-05  0.00D+00 EMaxC= 1.00D-01 BMatC= 4.17D-07 BMatP= 7.30D-06
 IDIUse=1 WtCom= 1.00D+00 WtEn= 0.00D+00
 Coeff-Com: -0.191D-01 0.930D-01 0.258D+00 0.668D+00
 Coeff:     -0.191D-01 0.930D-01 0.258D+00 0.668D+00
 Gap=     0.255 Goal=   None    Shift=    0.000
 RMSDP=1.73D-05 MaxDP=1.29D-03 DE=-7.10D-06 OVMax= 2.75D-04

 Cycle   5  Pass 1  IDiag  1:
 RMSU=  1.31D-05    CP:  1.03D+00  1.07D+00  5.44D-01  1.09D+00
 E= -557.156442286764     Delta-E=       -0.000000369237 Rises=F Damp=F
 DIIS: error= 1.12D-05 at cycle   5 NSaved=   5.
 NSaved= 5 IEnMin= 5 EnMin= -557.156442286764     IErMin= 5 ErrMin= 1.12D-05
 ErrMax= 1.12D-05  0.00D+00 EMaxC= 1.00D-01 BMatC= 8.66D-08 BMatP= 4.17D-07
 IDIUse=1 WtCom= 1.00D+00 WtEn= 0.00D+00
 Coeff-Com:  0.115D-02-0.337D-01-0.261D-01 0.306D+00 0.752D+00
 Coeff:      0.115D-02-0.337D-01-0.261D-01 0.306D+00 0.752D+00
 Gap=     0.255 Goal=   None    Shift=    0.000
 RMSDP=6.94D-06 MaxDP=2.85D-04 DE=-3.69D-07 OVMax= 1.10D-04

 Cycle   6  Pass 1  IDiag  1:
 RMSU=  4.49D-06    CP:  1.03D+00  1.07D+00  5.48D-01  1.15D+00  7.57D-01
 E= -557.156442380370     Delta-E=       -0.000000093606 Rises=F Damp=F
 DIIS: error= 2.43D-06 at cycle   6 NSaved=   6.
 NSaved= 6 IEnMin= 6 EnMin= -557.156442380370     IErMin= 6 ErrMin= 2.43D-06
 ErrMax= 2.43D-06  0.00D+00 EMaxC= 1.00D-01 BMatC= 3.52D-09 BMatP= 8.66D-08
 IDIUse=1 WtCom= 1.00D+00 WtEn= 0.00D+00
 Coeff-Com:  0.147D-02-0.171D-01-0.237D-01 0.720D-01 0.230D+00 0.737D+00
 Coeff:      0.147D-02-0.171D-01-0.237D-01 0.720D-01 0.230D+00 0.737D+00
 Gap=     0.255 Goal=   None    Shift=    0.000
 RMSDP=2.01D-06 MaxDP=7.63D-05 DE=-9.36D-08 OVMax= 5.73D-05

 Cycle   7  Pass 1  IDiag  1:
 RMSU=  1.32D-06    CP:  1.03D+00  1.06D+00  5.44D-01  1.17D+00  7.85D-01
                    CP:  1.18D+00
 E= -557.156442387549     Delta-E=       -0.000000007179 Rises=F Damp=F
 DIIS: error= 1.23D-06 at cycle   7 NSaved=   7.
 NSaved= 7 IEnMin= 7 EnMin= -557.156442387549     IErMin= 7 ErrMin= 1.23D-06
 ErrMax= 1.23D-06  0.00D+00 EMaxC= 1.00D-01 BMatC= 8.21D-10 BMatP= 3.52D-09
 IDIUse=1 WtCom= 1.00D+00 WtEn= 0.00D+00
 Coeff-Com:  0.228D-03 0.115D-02-0.221D-02-0.312D-01-0.906D-01 0.223D+00
 Coeff-Com:  0.899D+00
 Coeff:      0.228D-03 0.115D-02-0.221D-02-0.312D-01-0.906D-01 0.223D+00
 Coeff:      0.899D+00
 Gap=     0.255 Goal=   None    Shift=    0.000
 RMSDP=1.13D-06 MaxDP=4.11D-05 DE=-7.18D-09 OVMax= 3.98D-05

 Cycle   8  Pass 1  IDiag  1:
 RMSU=  5.27D-07    CP:  1.03D+00  1.06D+00  5.45D-01  1.17D+00  7.64D-01
                    CP:  1.34D+00  1.43D+00
 E= -557.156442389669     Delta-E=       -0.000000002120 Rises=F Damp=F
 DIIS: error= 4.96D-07 at cycle   8 NSaved=   8.
 NSaved= 8 IEnMin= 8 EnMin= -557.156442389669     IErMin= 8 ErrMin= 4.96D-07
 ErrMax= 4.96D-07  0.00D+00 EMaxC= 1.00D-01 BMatC= 6.26D-11 BMatP= 8.21D-10
 IDIUse=1 WtCom= 1.00D+00 WtEn= 0.00D+00
 Coeff-Com: -0.185D-03 0.272D-02 0.322D-02-0.131D-01-0.534D-01-0.568D-01
 Coeff-Com:  0.113D+00 0.100D+01
 Coeff:     -0.185D-03 0.272D-02 0.322D-02-0.131D-01-0.534D-01-0.568D-01
 Coeff:      0.113D+00 0.100D+01
 Gap=     0.255 Goal=   None    Shift=    0.000
 RMSDP=4.19D-07 MaxDP=1.64D-05 DE=-2.12D-09 OVMax= 1.87D-05

 Cycle   9  Pass 1  IDiag  1:
 RMSU=  1.95D-07    CP:  1.03D+00  1.06D+00  5.45D-01  1.17D+00  7.62D-01
                    CP:  1.40D+00  1.59D+00  1.12D+00
 E= -557.156442389933     Delta-E=       -0.000000000264 Rises=F Damp=F
 DIIS: error= 1.68D-07 at cycle   9 NSaved=   9.
 NSaved= 9 IEnMin= 9 EnMin= -557.156442389933     IErMin= 9 ErrMin= 1.68D-07
 ErrMax= 1.68D-07  0.00D+00 EMaxC= 1.00D-01 BMatC= 9.89D-12 BMatP= 6.26D-11
 IDIUse=1 WtCom= 1.00D+00 WtEn= 0.00D+00
 Coeff-Com: -0.712D-04 0.705D-03 0.116D-02-0.714D-03-0.908D-02-0.323D-01
 Coeff-Com: -0.518D-01 0.295D+00 0.797D+00
 Coeff:     -0.712D-04 0.705D-03 0.116D-02-0.714D-03-0.908D-02-0.323D-01
 Coeff:     -0.518D-01 0.295D+00 0.797D+00
 Gap=     0.255 Goal=   None    Shift=    0.000
 RMSDP=1.18D-07 MaxDP=4.98D-06 DE=-2.64D-10 OVMax= 3.54D-06

 Cycle  10  Pass 1  IDiag  1:
 RMSU=  5.68D-08    CP:  1.03D+00  1.06D+00  5.44D-01  1.17D+00  7.61D-01
                    CP:  1.41D+00  1.64D+00  1.19D+00  1.24D+00
 E= -557.156442389972     Delta-E=       -0.000000000039 Rises=F Damp=F
 DIIS: error= 6.12D-08 at cycle  10 NSaved=  10.
 NSaved=10 IEnMin=10 EnMin= -557.156442389972     IErMin=10 ErrMin= 6.12D-08
 ErrMax= 6.12D-08  0.00D+00 EMaxC= 1.00D-01 BMatC= 1.74D-12 BMatP= 9.89D-12
 IDIUse=1 WtCom= 1.00D+00 WtEn= 0.00D+00
 Coeff-Com:  0.631D-05-0.234D-03-0.153D-03 0.222D-02 0.604D-02 0.292D-03
 Coeff-Com: -0.412D-01-0.806D-01 0.299D+00 0.814D+00
 Coeff:      0.631D-05-0.234D-03-0.153D-03 0.222D-02 0.604D-02 0.292D-03
 Coeff:     -0.412D-01-0.806D-01 0.299D+00 0.814D+00
 Gap=     0.255 Goal=   None    Shift=    0.000
 RMSDP=4.56D-08 MaxDP=3.28D-06 DE=-3.90D-11 OVMax= 1.66D-06

 Cycle  11  Pass 1  IDiag  1:
 RMSU=  1.68D-08    CP:  1.03D+00  1.06D+00  5.44D-01  1.17D+00  7.60D-01
                    CP:  1.41D+00  1.65D+00  1.21D+00  1.38D+00  1.10D+00
 E= -557.156442389969     Delta-E=        0.000000000003 Rises=F Damp=F
 DIIS: error= 1.63D-08 at cycle  11 NSaved=  11.
 NSaved=11 IEnMin=10 EnMin= -557.156442389972     IErMin=11 ErrMin= 1.63D-08
 ErrMax= 1.63D-08  0.00D+00 EMaxC= 1.00D-01 BMatC= 1.67D-13 BMatP= 1.74D-12
 IDIUse=1 WtCom= 1.00D+00 WtEn= 0.00D+00
 Coeff-Com:  0.717D-05-0.150D-03-0.141D-03 0.103D-02 0.324D-02 0.214D-02
 Coeff-Com: -0.157D-01-0.546D-01 0.874D-01 0.357D+00 0.620D+00
 Coeff:      0.717D-05-0.150D-03-0.141D-03 0.103D-02 0.324D-02 0.214D-02
 Coeff:     -0.157D-01-0.546D-01 0.874D-01 0.357D+00 0.620D+00
 Gap=     0.255 Goal=   None    Shift=    0.000
 RMSDP=1.04D-08 MaxDP=4.76D-07 DE= 2.84D-12 OVMax= 1.60D-07

 Cycle  12  Pass 1  IDiag  1:
 RMSU=  4.79D-09    CP:  1.03D+00  1.06D+00  5.44D-01  1.17D+00  7.60D-01
                    CP:  1.41D+00  1.65D+00  1.21D+00  1.41D+00  1.17D+00
                    CP:  1.07D+00
 E= -557.156442389968     Delta-E=        0.000000000001 Rises=F Damp=F
 DIIS: error= 6.95D-09 at cycle  12 NSaved=  12.
 NSaved=12 IEnMin=10 EnMin= -557.156442389972     IErMin=12 ErrMin= 6.95D-09
 ErrMax= 6.95D-09  0.00D+00 EMaxC= 1.00D-01 BMatC= 1.68D-14 BMatP= 1.67D-13
 IDIUse=1 WtCom= 1.00D+00 WtEn= 0.00D+00
 Coeff-Com:  0.141D-05-0.108D-04-0.241D-04-0.537D-04 0.472D-04 0.849D-03
 Coeff-Com:  0.201D-02-0.424D-02-0.231D-01-0.239D-01 0.228D+00 0.820D+00
 Coeff:      0.141D-05-0.108D-04-0.241D-04-0.537D-04 0.472D-04 0.849D-03
 Coeff:      0.201D-02-0.424D-02-0.231D-01-0.239D-01 0.228D+00 0.820D+00
 Gap=     0.255 Goal=   None    Shift=    0.000
 RMSDP=4.57D-09 MaxDP=2.81D-07 DE= 1.02D-12 OVMax= 7.41D-08

 Error on total polarization charges =  0.05304
 SCF Done:  E(RCAM-B3LYP) =  -557.156442390     A.U. after   12 cycles
            NFock= 12  Conv=0.46D-08     -V/T= 2.0093
 KE= 5.520007304809D+02 PE=-2.794556336386D+03 EE= 9.269767932348D+02
 SMD-CDS (non-electrostatic) energy       (kcal/mol) =      -0.30
 (included in total energy above)
 Leave Link  502 at Tue Jul  7 16:44:40 2026, MaxMem=  4026531840 cpu:             232.3 elap:              29.3
 (Enter /opt/packages/gaussian/g16RevC.01/g16/l701.exe)
 ... and contract with generalized density number  0.
 Compute integral first derivatives.
 D1PCM: PCM CHGder 1st derivatives, ID1Alg=3 FixD1E=F DoIter=F DoCFld=F I1PDM=0.
 GePol: Maximum number of non-zero 1st derivatives   =     252
 Leave Link  701 at Tue Jul  7 16:44:41 2026, MaxMem=  4026531840 cpu:               6.4 elap:               0.8
 (Enter /opt/packages/gaussian/g16RevC.01/g16/l702.exe)
 L702 exits ... SP integral derivatives will be done elsewhere.
 Leave Link  702 at Tue Jul  7 16:44:41 2026, MaxMem=  4026531840 cpu:               0.1 elap:               0.0
 (Enter /opt/packages/gaussian/g16RevC.01/g16/l703.exe)
 Integral derivatives from FoFJK, PRISM(SPDF).
 Compute integral first derivatives, UseDBF=F ICtDFT=           0.
 Calling FoFJK, ICntrl=      2127 FMM=F ISym2X=0 I1Cent= 0 IOpClX= 0 NMat=1 NMatS=1 NMatT=0.
 FoFJK:  IHMeth= 1 ICntrl=    2127 DoSepK=T KAlg= 0 I1Cent=           0 FoldK=F
 IRaf=         1 NMat=       1 IRICut=       1 DoRegI=T DoRafI=F ISym2E= 0 IDoP0=0 IntGTp=1.
 FoFCou: FMM=F IPFlag=           0 FMFlag=      100000 FMFlg1=         800
         NFxFlg=           0 DoJE=F BraDBF=F KetDBF=F FulRan=T
         wScrn=  0.000000 ICntrl=      2527 IOpCl=  0 I1Cent=           0 NGrid=           0
         NMat0=    1 NMatS0=      1 NMatT0=    0 NMatD0=    1 NMtDS0=    0 NMtDT0=    0
 Symmetry not used in FoFCou.
 Leave Link  703 at Tue Jul  7 16:44:49 2026, MaxMem=  4026531840 cpu:              63.9 elap:               8.0
 (Enter /opt/packages/gaussian/g16RevC.01/g16/l716.exe)
 Dipole        = 2.83188614D+00-1.64737280D-01 1.38904883D-01
 ***** Axes restored to original set *****
 -------------------------------------------------------------------
 Center     Atomic                   Forces (Hartrees/Bohr)
 Number     Number              X              Y              Z
 -------------------------------------------------------------------
      1        6          -0.000104372    0.000436375    0.000009047
      2        6          -0.000525144   -0.000596623    0.000034305
      3        6           0.000875559   -0.000308438    0.000009843
      4        6          -0.001451030   -0.000285670    0.000005304
      5        6           0.000785463    0.000290830   -0.000013732
      6        6          -0.000158183    0.000459319   -0.000017430
      7        1          -0.000127375    0.000052158    0.000001515
      8        1           0.000322253    0.000092188    0.000033627
      9        1          -0.000013224   -0.000020422    0.000012659
     10        1           0.000019126    0.000135747   -0.000030964
     11        8          -0.001179083   -0.001239783    0.000032265
     12        6           0.000451977    0.001891968   -0.000078775
     13        1          -0.000397808   -0.000267415    0.000049766
     14        1          -0.000371261   -0.000274118   -0.000019868
     15        1          -0.000283849   -0.000386139    0.000015815
     16        6           0.001879602    0.000537523    0.000018070
     17        6          -0.000035241   -0.000084633   -0.000313233
     18        7          -0.000488525   -0.000331352    0.000137298
     19        6           0.000056326    0.000256344   -0.000232546
     20        6          -0.000003983   -0.000087946    0.000282947
     21        1           0.000035625   -0.000151769    0.000104740
     22        1          -0.000074305   -0.000114210    0.000090142
     23        1           0.000105789    0.000045414    0.000067966
     24        1           0.000246176    0.000048444    0.000082033
     25        1           0.000093111   -0.000065381   -0.000079791
     26        1           0.000217201   -0.000092162   -0.000167058
     27        1           0.000125175    0.000059749   -0.000033946
 -------------------------------------------------------------------
 Cartesian Forces:  Max     0.001891968 RMS     0.000460108
 Leave Link  716 at Tue Jul  7 16:44:49 2026, MaxMem=  4026531840 cpu:               0.1 elap:               0.0
 (Enter /opt/packages/gaussian/g16RevC.01/g16/l103.exe)

 GradGradGradGradGradGradGradGradGradGradGradGradGradGradGradGradGradGrad
 Berny optimization.
 Using GEDIIS/GDIIS optimizer.
 FormGI is forming the generalized inverse of G from B-inverse, IUseBI=4.
 GSVD:  received Info=                   1 from GESDD.
 Internal  Forces:  Max     0.002902187 RMS     0.000427052
 Search for a local minimum.
 Step number   2 out of a maximum of  154
 All quantities printed in internal units (Hartrees-Bohrs-Radians)
 RMS Force = .42705D-03 SwitMx=.10000D-02 MixMth= 2
 Mixed Optimization -- En-DIIS/RFO-DIIS
 Update second derivatives using D2CorX and points    1    2
 DE= -4.80D-04 DEPred=-5.58D-04 R= 8.60D-01
 TightC=F SS=  1.41D+00  RLast= 5.53D-02 DXNew= 5.0454D-01 1.6576D-01
 Trust test= 8.60D-01 RLast= 5.53D-02 DXMaxT set to 3.00D-01
 ITU=  1  0
 Use linear search instead of GDIIS.
     Eigenvalues ---    0.00405   0.01044   0.01168   0.01288   0.01482
     Eigenvalues ---    0.01759   0.01776   0.01919   0.02011   0.02049
     Eigenvalues ---    0.02072   0.02104   0.02119   0.02145   0.02198
     Eigenvalues ---    0.02343   0.03302   0.03564   0.04960   0.05180
     Eigenvalues ---    0.05577   0.05873   0.06882   0.07464   0.08392
     Eigenvalues ---    0.08409   0.09374   0.10124   0.10690   0.10963
     Eigenvalues ---    0.15935   0.15967   0.16000   0.16000   0.16000
     Eigenvalues ---    0.16000   0.16000   0.16059   0.21512   0.21996
     Eigenvalues ---    0.22643   0.22954   0.24061   0.24981   0.24983
     Eigenvalues ---    0.25000   0.25447   0.27493   0.28138   0.30662
     Eigenvalues ---    0.33816   0.34111   0.34137   0.34248   0.34266
     Eigenvalues ---    0.34300   0.34500   0.34546   0.34582   0.34741
     Eigenvalues ---    0.35279   0.35296   0.35413   0.35528   0.38047
     Eigenvalues ---    0.39763   0.40097   0.41237   0.43847   0.44771
     Eigenvalues ---    0.45406   0.46124   0.50442   0.57408   0.60556
 RFO step:  Lambda=-5.02770302D-05 EMin= 4.04505948D-03
 Quartic linear search produced a step of -0.12478.
 Iteration  1 RMS(Cart)=  0.00856486 RMS(Int)=  0.00002449
 Iteration  2 RMS(Cart)=  0.00003755 RMS(Int)=  0.00000082
 Iteration  3 RMS(Cart)=  0.00000000 RMS(Int)=  0.00000082
 ITry= 1 IFail=0 DXMaxC= 4.86D-02 DCOld= 1.00D+10 DXMaxT= 3.00D-01 DXLimC= 3.00D+00 Rises=F
 Variable       Old X    -DE/DX   Delta X   Delta X   Delta X     New X
                                 (Linear)    (Quad)   (Total)
    R1        2.64017   0.00111   0.00186  -0.00035   0.00151   2.64168
    R2        2.65350   0.00086   0.00171  -0.00060   0.00111   2.65461
    R3        2.54204   0.00172   0.00131   0.00095   0.00226   2.54430
    R4        2.61705   0.00133   0.00124   0.00078   0.00202   2.61906
    R5        2.04666  -0.00025   0.00016  -0.00083  -0.00067   2.04599
    R6        2.64936   0.00040   0.00205  -0.00207  -0.00002   2.64935
    R7        2.04899   0.00001   0.00013  -0.00015  -0.00002   2.04898
    R8        2.66568   0.00046   0.00188  -0.00170   0.00018   2.66587
    R9        2.72700   0.00215   0.00066   0.00393   0.00459   2.73159
   R10        2.59793   0.00104   0.00135  -0.00003   0.00133   2.59926
   R11        2.05077   0.00013   0.00017   0.00008   0.00025   2.05101
   R12        2.05051   0.00010   0.00022  -0.00005   0.00017   2.05069
   R13        2.70691  -0.00041   0.00169  -0.00324  -0.00156   2.70536
   R14        2.06660   0.00012   0.00031  -0.00013   0.00019   2.06679
   R15        2.06666   0.00012   0.00031  -0.00013   0.00018   2.06684
   R16        2.05879   0.00013   0.00029  -0.00008   0.00021   2.05899
   R17        2.83776   0.00040   0.00163  -0.00111   0.00052   2.83828
   R18        2.45666  -0.00010   0.00206  -0.00292  -0.00087   2.45580
   R19        2.90473   0.00030   0.00171  -0.00152   0.00020   2.90493
   R20        2.06228   0.00002   0.00032  -0.00038  -0.00007   2.06221
   R21        2.07326   0.00013   0.00041  -0.00022   0.00019   2.07345
   R22        2.77695   0.00035   0.00118  -0.00073   0.00045   2.77740
   R23        1.92124   0.00002   0.00015  -0.00015  -0.00001   1.92123
   R24        2.89102   0.00024   0.00153  -0.00148   0.00005   2.89107
   R25        2.06756   0.00011   0.00044  -0.00033   0.00011   2.06767
   R26        2.06129   0.00010   0.00037  -0.00025   0.00012   2.06141
   R27        2.06564   0.00010   0.00034  -0.00022   0.00012   2.06576
   R28        2.06109   0.00010   0.00032  -0.00018   0.00014   2.06123
    A1        2.09733  -0.00068  -0.00049  -0.00162  -0.00211   2.09522
    A2        2.16547   0.00112   0.00074   0.00286   0.00360   2.16907
    A3        2.02039  -0.00044  -0.00026  -0.00123  -0.00149   2.01890
    A4        2.08045   0.00019   0.00030   0.00043   0.00073   2.08118
    A5        2.11611   0.00014  -0.00002   0.00087   0.00085   2.11697
    A6        2.08662  -0.00033  -0.00028  -0.00130  -0.00158   2.08504
    A7        2.12040   0.00015   0.00020   0.00025   0.00045   2.12085
    A8        2.06610  -0.00010  -0.00019  -0.00011  -0.00030   2.06580
    A9        2.09669  -0.00006  -0.00001  -0.00014  -0.00015   2.09654
   A10        2.06563  -0.00017  -0.00053  -0.00006  -0.00059   2.06504
   A11        2.07923   0.00039   0.00033   0.00100   0.00132   2.08056
   A12        2.13832  -0.00022   0.00021  -0.00094  -0.00074   2.13758
   A13        2.10633   0.00013   0.00025  -0.00007   0.00018   2.10651
   A14        2.11563  -0.00001  -0.00006   0.00026   0.00020   2.11583
   A15        2.06123  -0.00012  -0.00019  -0.00020  -0.00038   2.06085
   A16        2.09623   0.00038   0.00027   0.00106   0.00133   2.09756
   A17        2.07601  -0.00028  -0.00005  -0.00117  -0.00122   2.07479
   A18        2.11095  -0.00010  -0.00022   0.00011  -0.00012   2.11083
   A19        2.07085   0.00290   0.00142   0.00817   0.00959   2.08044
   A20        1.92810   0.00049   0.00029   0.00241   0.00270   1.93080
   A21        1.92759   0.00047   0.00030   0.00228   0.00258   1.93017
   A22        1.83822   0.00045  -0.00022   0.00255   0.00233   1.84055
   A23        1.92889  -0.00034  -0.00007  -0.00136  -0.00143   1.92746
   A24        1.91973  -0.00053  -0.00016  -0.00294  -0.00310   1.91663
   A25        1.91943  -0.00052  -0.00016  -0.00282  -0.00299   1.91644
   A26        2.19457   0.00002   0.00021  -0.00014   0.00007   2.19463
   A27        2.18060   0.00007   0.00023  -0.00001   0.00023   2.18083
   A28        1.90765  -0.00010  -0.00044   0.00013  -0.00031   1.90734
   A29        1.81180   0.00004   0.00025  -0.00035  -0.00010   1.81171
   A30        1.95226   0.00006   0.00032   0.00068   0.00100   1.95326
   A31        1.88095  -0.00003   0.00033  -0.00072  -0.00039   1.88056
   A32        1.97683  -0.00001  -0.00016   0.00030   0.00014   1.97697
   A33        1.96234   0.00001  -0.00028   0.00053   0.00025   1.96260
   A34        1.87827  -0.00007  -0.00041  -0.00046  -0.00086   1.87740
   A35        2.00824   0.00018   0.00029   0.00012   0.00040   2.00865
   A36        2.16188   0.00004   0.00006   0.00036   0.00042   2.16230
   A37        2.11067  -0.00022  -0.00035  -0.00048  -0.00082   2.10985
   A38        1.78412  -0.00007   0.00008  -0.00051  -0.00043   1.78369
   A39        1.89199   0.00002   0.00006  -0.00004   0.00002   1.89201
   A40        1.91005   0.00013   0.00012   0.00154   0.00166   1.91171
   A41        1.97622   0.00001  -0.00000  -0.00032  -0.00032   1.97589
   A42        1.99276   0.00002   0.00020   0.00000   0.00020   1.99295
   A43        1.90267  -0.00009  -0.00041  -0.00055  -0.00096   1.90171
   A44        1.81913  -0.00003   0.00006  -0.00034  -0.00027   1.81886
   A45        1.91789   0.00000  -0.00001  -0.00021  -0.00022   1.91767
   A46        1.96035   0.00010   0.00014   0.00134   0.00148   1.96183
   A47        1.91886   0.00001  -0.00005  -0.00029  -0.00035   1.91851
   A48        1.95340   0.00002   0.00007   0.00067   0.00074   1.95414
   A49        1.89350  -0.00010  -0.00021  -0.00114  -0.00135   1.89215
    D1       -0.00492  -0.00001   0.00004  -0.00074  -0.00070  -0.00562
    D2        3.13951  -0.00001   0.00007  -0.00063  -0.00055   3.13896
    D3        3.13769  -0.00004  -0.00004  -0.00146  -0.00151   3.13618
    D4       -0.00107  -0.00003  -0.00001  -0.00135  -0.00136  -0.00243
    D5        0.00208   0.00001  -0.00005   0.00034   0.00030   0.00237
    D6       -3.13871  -0.00000  -0.00005   0.00005   0.00000  -3.13870
    D7       -3.14044   0.00003   0.00003   0.00101   0.00104  -3.13940
    D8        0.00196   0.00002   0.00003   0.00072   0.00075   0.00271
    D9       -0.00229  -0.00002   0.00005  -0.00072  -0.00067  -0.00296
   D10        3.14027  -0.00004  -0.00003  -0.00142  -0.00145   3.13882
   D11        0.00272   0.00002  -0.00001   0.00062   0.00061   0.00333
   D12       -3.14133   0.00000   0.00003  -0.00003   0.00000  -3.14133
   D13        3.14152   0.00001  -0.00004   0.00051   0.00047  -3.14119
   D14       -0.00253  -0.00000   0.00001  -0.00014  -0.00014  -0.00267
   D15        0.00226  -0.00000  -0.00001  -0.00009  -0.00011   0.00216
   D16        3.13979  -0.00001   0.00001  -0.00041  -0.00040   3.13939
   D17       -3.13683   0.00001  -0.00006   0.00057   0.00051  -3.13632
   D18        0.00070   0.00001  -0.00004   0.00025   0.00022   0.00092
   D19       -0.00516  -0.00001   0.00001  -0.00032  -0.00031  -0.00547
   D20        3.13543   0.00001   0.00003   0.00039   0.00043   3.13586
   D21        3.14064  -0.00000  -0.00001   0.00001  -0.00001   3.14064
   D22       -0.00195   0.00002   0.00001   0.00072   0.00073  -0.00122
   D23       -0.01362   0.00006  -0.00001   0.00357   0.00355  -0.01007
   D24       -3.12301   0.00007  -0.00011   0.00437   0.00426  -3.11875
   D25        3.12372   0.00006   0.00001   0.00324   0.00325   3.12697
   D26        0.01434   0.00006  -0.00009   0.00404   0.00395   0.01830
   D27        0.00303   0.00001   0.00002   0.00019   0.00021   0.00325
   D28       -3.13939   0.00001   0.00002   0.00049   0.00051  -3.13888
   D29       -3.13758  -0.00001  -0.00000  -0.00050  -0.00050  -3.13809
   D30        0.00318  -0.00000  -0.00000  -0.00020  -0.00020   0.00298
   D31        1.06752   0.00013   0.00012   0.00200   0.00212   1.06964
   D32       -1.07183  -0.00010  -0.00020   0.00052   0.00032  -1.07151
   D33        3.13975   0.00001  -0.00004   0.00122   0.00118   3.14093
   D34        2.93626   0.00002   0.00019  -0.00028  -0.00009   2.93617
   D35        0.79881  -0.00002   0.00005  -0.00080  -0.00075   0.79806
   D36       -1.26239   0.00005   0.00016  -0.00018  -0.00003  -1.26242
   D37       -0.23331   0.00002   0.00029  -0.00099  -0.00070  -0.23401
   D38       -2.37076  -0.00002   0.00015  -0.00150  -0.00136  -2.37211
   D39        1.85123   0.00004   0.00025  -0.00088  -0.00063   1.85060
   D40        3.09239  -0.00000   0.00014  -0.00104  -0.00091   3.09148
   D41        0.02460  -0.00001   0.00017  -0.00101  -0.00083   0.02376
   D42       -0.02150   0.00000   0.00004  -0.00035  -0.00031  -0.02181
   D43       -3.08929  -0.00001   0.00008  -0.00031  -0.00023  -3.08953
   D44        0.37928  -0.00004  -0.00045   0.00180   0.00135   0.38063
   D45       -1.67619  -0.00004  -0.00041   0.00242   0.00201  -1.67418
   D46        2.49745   0.00002  -0.00024   0.00313   0.00289   2.50034
   D47        2.50039   0.00006   0.00002   0.00256   0.00259   2.50298
   D48        0.44493   0.00005   0.00005   0.00319   0.00324   0.44817
   D49       -1.66463   0.00011   0.00023   0.00390   0.00413  -1.66050
   D50       -1.64879  -0.00003  -0.00085   0.00260   0.00174  -1.64704
   D51        2.57894  -0.00004  -0.00082   0.00322   0.00240   2.58134
   D52        0.46938   0.00002  -0.00064   0.00393   0.00328   0.47267
   D53        0.26616  -0.00002  -0.00035   0.00151   0.00117   0.26732
   D54       -1.82521  -0.00001  -0.00041   0.00216   0.00175  -1.82346
   D55        2.38476   0.00002  -0.00002   0.00196   0.00194   2.38670
   D56       -2.94687  -0.00001  -0.00036   0.00151   0.00115  -2.94572
   D57        1.24495   0.00001  -0.00043   0.00216   0.00173   1.24667
   D58       -0.82827   0.00004  -0.00004   0.00196   0.00192  -0.82635
   D59       -0.38276   0.00007   0.00051  -0.00190  -0.00139  -0.38415
   D60        1.67203   0.00007   0.00050  -0.00246  -0.00196   1.67007
   D61       -2.50555  -0.00004   0.00025  -0.00367  -0.00341  -2.50896
   D62        1.64864   0.00006   0.00062  -0.00239  -0.00176   1.64687
   D63       -2.57975   0.00005   0.00062  -0.00295  -0.00234  -2.58209
   D64       -0.47415  -0.00005   0.00037  -0.00416  -0.00379  -0.47794
   D65       -2.44339  -0.00005   0.00022  -0.00343  -0.00321  -2.44660
   D66       -0.38860  -0.00005   0.00022  -0.00399  -0.00378  -0.39238
   D67        1.71701  -0.00016  -0.00003  -0.00520  -0.00523   1.71178
         Item               Value     Threshold  Converged?
 Maximum Force            0.002902     0.000450     NO 
 RMS     Force            0.000427     0.000300     NO 
 Maximum Displacement     0.048595     0.001800     NO 
 RMS     Displacement     0.008559     0.001200     NO 
 Predicted change in Energy=-3.523437D-05
 Lowest energy point so far.  Saving SCF results.
 GradGradGradGradGradGradGradGradGradGradGradGradGradGradGradGradGradGrad

 Leave Link  103 at Tue Jul  7 16:44:49 2026, MaxMem=  4026531840 cpu:               0.2 elap:               0.0
 (Enter /opt/packages/gaussian/g16RevC.01/g16/l202.exe)
                          Input orientation:                          
 ---------------------------------------------------------------------
 Center     Atomic      Atomic             Coordinates (Angstroms)
 Number     Number       Type             X           Y           Z
 ---------------------------------------------------------------------
      1          6           0       -2.475447    0.265802   -0.010700
      2          6           0       -1.845949   -0.981556    0.034005
      3          6           0       -0.461313   -1.041235    0.042738
      4          6           0        0.322513    0.120741    0.011741
      5          6           0       -0.333009    1.369323   -0.026394
      6          6           0       -1.706542    1.441094   -0.039361
      7          1           0       -2.214920    2.399295   -0.071198
      8          1           0       -2.418746   -1.899976    0.059118
      9          1           0        0.012003   -2.016130    0.077339
     10          1           0        0.227299    2.298650   -0.046074
     11          8           0       -3.810212    0.441365   -0.029086
     12          6           0       -4.665982   -0.706075   -0.005590
     13          1           0       -4.511136   -1.283505    0.910252
     14          1           0       -4.493883   -1.332358   -0.885581
     15          1           0       -5.681380   -0.311475   -0.026190
     16          6           0        1.762933    0.000491    0.025357
     17          6           0        2.535427   -1.286278    0.083187
     18          7           0        2.593513    0.999975    0.024110
     19          6           0        4.013598    0.630217    0.106354
     20          6           0        3.979183   -0.861735   -0.230479
     21          1           0        2.143132   -2.028498   -0.614019
     22          1           0        2.429485   -1.694767    1.096008
     23          1           0        4.365631    0.835006    1.121898
     24          1           0        4.589000    1.233994   -0.596726
     25          1           0        4.187045   -1.008475   -1.293608
     26          1           0        4.713148   -1.427001    0.345296
     27          1           0        2.306811    1.975341    0.033355
 ---------------------------------------------------------------------
                    Distance matrix (angstroms):
                    1          2          3          4          5
     1  C    0.000000
     2  C    1.397916   0.000000
     3  C    2.401654   1.385949   0.000000
     4  C    2.801808   2.432649   1.401974   0.000000
     5  C    2.409989   2.796295   2.414960   1.410716   0.000000
     6  C    1.404759   2.427767   2.778362   2.421365   1.375468
     7  H    2.150192   3.402553   3.863337   3.411342   2.145796
     8  H    2.167645   1.082692   2.137580   3.405883   3.878908
     9  H    3.376740   2.127018   1.084271   2.160309   3.404568
    10  H    3.382094   3.881305   3.411292   2.180757   1.085349
    11  O    1.346386   2.426317   3.663112   4.145344   3.598895
    12  C    2.396458   2.833732   4.218282   5.056580   4.804410
    13  H    2.718922   2.821737   4.148776   5.113060   5.037017
    14  H    2.719120   2.824934   4.148271   5.110220   5.034893
    15  H    3.257529   3.893990   5.271281   6.019549   5.606260
    16  C    4.246829   3.740123   2.456169   1.445495   2.503867
    17  C    5.246583   4.392236   3.007014   2.623318   3.910518
    18  N    5.121971   4.861625   3.674078   2.435293   2.950170
    19  C    6.500324   6.077610   4.777304   3.727282   4.410997
    20  C    6.556058   5.832365   4.452513   3.794096   4.859452
    21  H    5.192214   4.174780   2.861669   2.885387   4.245205
    22  H    5.396943   4.462719   3.145345   2.985136   4.275489
    23  H    6.957523   6.562556   5.290014   4.253167   4.866342
    24  H    7.154525   6.834841   5.575952   4.451121   4.956790
    25  H    6.903509   6.177402   4.836747   4.232455   5.262190
    26  H    7.393796   6.581571   5.197634   4.667380   5.781114
    27  H    5.078825   5.097908   4.094183   2.716146   2.709148
                    6          7          8          9         10
     6  C    0.000000
     7  H    1.085178   0.000000
     8  H    3.417555   4.306073   0.000000
     9  H    3.862565   4.947446   2.433591   0.000000
    10  H    2.115464   2.444421   4.963979   4.321910   0.000000
    11  O    2.329160   2.525909   2.725039   4.545320   4.444242
    12  C    3.656468   3.956682   2.545516   4.858668   5.742317
    13  H    4.023798   4.449592   2.341487   4.657174   6.016574
    14  H    4.022113   4.447710   2.349647   4.658086   6.014861
    15  H    4.344077   4.400755   3.629792   5.944003   6.459538
    16  C    3.757230   4.646170   4.593403   2.671183   2.764925
    17  C    5.044589   6.014406   4.992097   2.626859   4.265662
    18  N    4.323088   5.008814   5.790828   3.970380   2.700084
    19  C    5.779166   6.477314   6.912247   4.797578   4.140406
    20  C    6.137346   7.001900   6.488090   4.143175   4.909040
    21  H    5.214239   6.236395   4.613064   2.240500   4.766255
    22  H    5.313135   6.300335   4.962116   2.642949   4.701208
    23  H    6.211855   6.868343   7.391711   5.307933   4.542269
    24  H    6.323558   6.922964   7.704570   5.653898   4.523400
    25  H    6.504452   7.354750   6.801552   4.508419   5.307825
    26  H    7.041757   7.925411   7.153287   4.745486   5.844355
    27  H    4.049409   4.542766   6.111435   4.604337   2.105994
                   11         12         13         14         15
    11  O    0.000000
    12  C    1.431612   0.000000
    13  H    2.085385   1.093696   0.000000
    14  H    2.084966   1.093724   1.796581   0.000000
    15  H    2.016940   1.089572   1.786404   1.786310   0.000000
    16  C    5.590820   6.467699   6.464953   6.461736   7.451025
    17  C    6.577574   7.225289   7.094934   7.095903   8.275151
    18  N    6.428263   7.457329   7.515023   7.516549   8.378323
    19  C    7.827261   8.782557   8.773806   8.787086   9.741507
    20  C    7.900209   8.649490   8.576985   8.511375   9.678378
    21  H    6.471837   6.962974   6.867146   6.678946   8.032229
    22  H    6.690494   7.248219   6.955276   7.210483   8.304153
    23  H    8.265840   9.231261   9.128519   9.339080  10.177178
    24  H    8.455603   9.474597   9.561446   9.442900  10.401667
    25  H    8.225397   8.951341   8.977249   8.696545   9.973864
    26  H    8.733762   9.413337   9.242682   9.289426  10.460813
    27  H    6.306738   7.470699   7.607459   7.618055   8.309288
                   16         17         18         19         20
    16  C    0.000000
    17  C    1.501954   0.000000
    18  N    1.299552   2.287754   0.000000
    19  C    2.338506   2.420430   1.469737   0.000000
    20  C    2.391789   1.537223   2.334708   1.529889   0.000000
    21  H    2.161053   1.091276   3.127571   3.329617   2.208965
    22  H    2.112933   1.097221   2.904739   2.982345   2.203424
    23  H    2.944971   2.988044   2.091113   1.094164   2.203904
    24  H    3.145659   3.321327   2.102895   1.090850   2.213163
    25  H    2.938367   2.168083   2.882637   2.162242   1.093153
    26  H    3.293002   2.197947   3.238244   2.186003   1.090755
    27  H    2.048389   3.270001   1.016672   2.174352   3.303851
                   21         22         23         24         25
    21  H    0.000000
    22  H    1.765664   0.000000
    23  H    4.019025   3.185762   0.000000
    24  H    4.077551   4.013290   1.778413   0.000000
    25  H    2.383247   3.044714   3.043844   2.382411   0.000000
    26  H    2.808392   2.418756   2.416723   2.825547   1.771428
    27  H    4.059139   3.822823   2.593073   2.480923   3.768192
                   26         27
    26  H    0.000000
    27  H    4.178958   0.000000
 Stoichiometry    C11H14NO(1+)
 Framework group  C1[X(C11H14NO)]
 Deg. of freedom    75
 Full point group                 C1      NOp   1
 RotChk:  IX=0 Diff= 8.45D-04
 Largest Abelian subgroup         C1      NOp   1
 Largest concise Abelian subgroup C1      NOp   1
                         Standard orientation:                         
 ---------------------------------------------------------------------
 Center     Atomic      Atomic             Coordinates (Angstroms)
 Number     Number       Type             X           Y           Z
 ---------------------------------------------------------------------
      1          6           0       -2.476341    0.265475   -0.010352
      2          6           0       -1.846544   -0.981757    0.033671
      3          6           0       -0.461893   -1.041111    0.042307
      4          6           0        0.321654    0.121068    0.011883
      5          6           0       -0.334167    1.369514   -0.025567
      6          6           0       -1.707717    1.440965   -0.038432
      7          1           0       -2.216325    2.399061   -0.069744
      8          1           0       -2.419121   -1.900326    0.058329
      9          1           0        0.011657   -2.015910    0.076375
     10          1           0        0.225919    2.298985   -0.044786
     11          8           0       -3.811148    0.440730   -0.028583
     12          6           0       -4.666644   -0.706927   -0.005649
     13          1           0       -4.511618   -1.284800    0.909884
     14          1           0       -4.494437   -1.332708   -0.885976
     15          1           0       -5.682137   -0.312558   -0.025994
     16          6           0        1.762104    0.001155    0.025369
     17          6           0        2.534907   -1.285460    0.082489
     18          7           0        2.592446    1.000837    0.024607
     19          6           0        4.012623    0.631375    0.106591
     20          6           0        3.978547   -0.860409   -0.231022
     21          1           0        2.142756   -2.027409   -0.615089
     22          1           0        2.429110   -1.694506    1.095100
     23          1           0        4.364654    0.835714    1.122226
     24          1           0        4.587847    1.235657   -0.596200
     25          1           0        4.186394   -1.006543   -1.294238
     26          1           0        4.712673   -1.425802    0.344422
     27          1           0        2.305512    1.976129    0.034376
 ---------------------------------------------------------------------
 Rotational constants (GHZ):           2.8744675           0.3538753           0.3181079
 Leave Link  202 at Tue Jul  7 16:44:49 2026, MaxMem=  4026531840 cpu:               0.0 elap:               0.0
 (Enter /opt/packages/gaussian/g16RevC.01/g16/l301.exe)
 Standard basis: 6-31+G(d) (6D, 7F)
 Ernie: Thresh=  0.10000D-02 Tol=  0.10000D-05 Strict=F.
 There are   275 symmetry adapted cartesian basis functions of A   symmetry.
 There are   275 symmetry adapted basis functions of A   symmetry.
   275 basis functions,   472 primitive gaussians,   275 cartesian basis functions
    47 alpha electrons       47 beta electrons
       nuclear repulsion energy       757.8626350199 Hartrees.
 IExCor=20419 DFT=T Ex+Corr=CAM-B3LYP ExCW=0 ScaHFX=  1.000000
 ScaDFX=  1.000000  1.000000  1.000000  0.810000 ScalE2=  1.000000  1.000000
 IRadAn=      5 IRanWt=     -1 IRanGd=            0 ICorTp=0 IEmpDi=  4
 HFx  wShort=  0.000000 wLong=  0.330000 cFull=  0.190000 cShort=  0.000000 cLong=  0.460000
 DFx  wShort=  0.000000 wLong=  0.330000 cFull=  0.190000 cShort=  0.000000 cLong=  0.460000
 NAtoms=   27 NActive=   27 NUniq=   27 SFac= 1.00D+00 NAtFMM=   60 NAOKFM=F Big=F
 Integral buffers will be    131072 words long.
 Raffenetti 2 integral format.
 Two-electron integral symmetry is turned on.
 ------------------------------------------------------------------------------
 Polarizable Continuum Model (PCM)
 =================================
 Model                : PCM.
 Atomic radii         : SMD-Coulomb.
 Polarization charges : Total charges.
 Charge compensation  : None.
 Solution method      : On-the-fly selection.
 Cavity type          : VdW (van der Waals Surface) (Alpha=1.000).
 Cavity algorithm     : GePol (No added spheres)
                        Default sphere list used, NSphG=   27.
                        Lebedev-Laikov grids with approx.  5.0 points / Ang**2.
                        Smoothing algorithm: York/Karplus (Gamma=1.0000).
                        Polarization charges: spherical gaussians, with
                                              point-specific exponents (IZeta= 3).
                        Self-potential: point-specific (ISelfS= 7).
                        Self-field    : sphere-specific E.n sum rule (ISelfD= 2).
 1st derivatives      : Analytical E(r).r(x)/FMM algorithm (CHGder, D1EAlg=3).
                        Cavity 1st derivative terms included.
 Solvent              : Methanol, Eps=  32.613000 Eps(inf)=   1.765709
 ------------------------------------------------------------------------------
 GePol: Number of generator spheres                  =      27
 GePol: Total number of spheres                      =      27
 GePol: Number of exposed spheres                    =      27 (100.00%)
 GePol: Number of points                             =    1972
 GePol: Average weight of points                     =       0.11
 GePol: Minimum weight of points                     =   0.46D-10
 GePol: Maximum weight of points                     =    0.21991
 GePol: Number of points with low weight             =     109
 GePol: Fraction of low-weight points (<1% of avg)   =       5.53%
 GePol: Cavity surface area                          =    215.072 Ang**2
 GePol: Cavity volume                                =    191.269 Ang**3
 ------------------------------------------------------------------------------
 Atomic radii for non-electrostatic terms: SMD-CDS.
 ------------------------------------------------------------------------------
 PCM non-electrostatic energy =        -0.0004885046 Hartrees.
 Nuclear repulsion after PCM non-electrostatic terms =      757.8621465153 Hartrees.
 Leave Link  301 at Tue Jul  7 16:44:49 2026, MaxMem=  4026531840 cpu:               0.4 elap:               0.1
 (Enter /opt/packages/gaussian/g16RevC.01/g16/l302.exe)
 NPDir=0 NMtPBC=     1 NCelOv=     1 NCel=       1 NClECP=     1 NCelD=      1
         NCelK=      1 NCelE2=     1 NClLst=     1 CellRange=     0.0.
 One-electron integrals computed using PRISM.
 One-electron integral symmetry used in STVInt
 NBasis=   275 RedAO= T EigKep=  2.06D-06  NBF=   275
 NBsUse=   273 1.00D-06 EigRej=  8.60D-07 NBFU=   273
 Precomputing XC quadrature grid using
 IXCGrd= 4 IRadAn=           5 IRanWt=          -1 IRanGd=           0 AccXCQ= 0.00D+00.
 Generated NRdTot=       0 NPtTot=           0 NUsed=           0 NTot=          32
 NSgBfM=   274   274   274   274   274 MxSgAt=    27 MxSgA2=    27.
 Leave Link  302 at Tue Jul  7 16:44:49 2026, MaxMem=  4026531840 cpu:               1.4 elap:               0.2
 (Enter /opt/packages/gaussian/g16RevC.01/g16/l303.exe)
 DipDrv:  MaxL=1.
 Leave Link  303 at Tue Jul  7 16:44:49 2026, MaxMem=  4026531840 cpu:               0.1 elap:               0.0
 (Enter /opt/packages/gaussian/g16RevC.01/g16/l401.exe)
 Initial guess from the checkpoint file:  "iminium_ground_cam.chk"
 B after Tr=    -0.000000    0.000000    0.000000
         Rot=    1.000000   -0.000193   -0.000025    0.000013 Ang=  -0.02 deg.
 Guess basis will be translated and rotated to current coordinates.
 JPrj=2 DoOrth=T DoCkMO=T.
 Generating alternative initial guess.
 ExpMin= 4.38D-02 ExpMax= 5.48D+03 ExpMxC= 8.25D+02 IAcc=3 IRadAn=         5 AccDes= 0.00D+00
 Harris functional with IExCor=20419 and IRadAn=       5 diagonalized for initial guess.
 HarFok:  IExCor=20419 AccDes= 0.00D+00 IRadAn=         5 IDoV= 1 UseB2=F ITyADJ=14
 ICtDFT=  3500011 ScaDFX=  1.000000  1.000000  1.000000  1.000000
 FoFCou: FMM=F IPFlag=           0 FMFlag=      100000 FMFlg1=           0
         NFxFlg=           0 DoJE=T BraDBF=F KetDBF=T FulRan=T
         wScrn=  0.000000 ICntrl=       500 IOpCl=  0 I1Cent=   200000004 NGrid=           0
         NMat0=    1 NMatS0=      1 NMatT0=    0 NMatD0=    1 NMtDS0=    0 NMtDT0=    0
 Petite list used in FoFCou.
 Harris En= -534.977192030146    
 Leave Link  401 at Tue Jul  7 16:44:50 2026, MaxMem=  4026531840 cpu:               6.8 elap:               0.9
 (Enter /opt/packages/gaussian/g16RevC.01/g16/l502.exe)
 Integral symmetry usage will be decided dynamically.
 Closed shell SCF:
 Using DIIS extrapolation, IDIIS=  1040.
 NGot=  4026531840 LenX=  4026374748 LenY=  4026298682
 Requested convergence on RMS density matrix=1.00D-08 within 128 cycles.
 Requested convergence on MAX density matrix=1.00D-06.
 Requested convergence on             energy=1.00D-06.
 No special actions if energy rises.
 Fock matrices will be formed incrementally for  20 cycles.

 Cycle   1  Pass 1  IDiag  1:
 FoFJK:  IHMeth= 1 ICntrl=       0 DoSepK=T KAlg= 0 I1Cent=           0 FoldK=F
 IRaf=         1 NMat=       1 IRICut=       1 DoRegI=T DoRafI=F ISym2E= 0 IDoP0=0 IntGTp=1.
 FoFCou: FMM=F IPFlag=           0 FMFlag=      100000 FMFlg1=           0
         NFxFlg=           0 DoJE=T BraDBF=F KetDBF=F FulRan=T
         wScrn=  0.000000 ICntrl=       500 IOpCl=  0 I1Cent=           0 NGrid=           0
         NMat0=    1 NMatS0=      1 NMatT0=    0 NMatD0=    1 NMtDS0=    0 NMtDT0=    0
 Symmetry not used in FoFCou.
 Inv3:  Mode=1 IEnd=    11666352.
 Iteration    1 A*A^-1 deviation from unit magnitude is 3.11D-15 for   1497.
 Iteration    1 A*A^-1 deviation from orthogonality  is 2.30D-15 for   1515    393.
 Iteration    1 A^-1*A deviation from unit magnitude is 3.11D-15 for   1497.
 Iteration    1 A^-1*A deviation from orthogonality  is 8.23D-14 for   1283   1217.
 E= -557.156351653325    
 DIIS: error= 3.75D-04 at cycle   1 NSaved=   1.
 NSaved= 1 IEnMin= 1 EnMin= -557.156351653325     IErMin= 1 ErrMin= 3.75D-04
 ErrMax= 3.75D-04  0.00D+00 EMaxC= 1.00D-01 BMatC= 7.86D-05 BMatP= 7.86D-05
 IDIUse=3 WtCom= 9.96D-01 WtEn= 3.75D-03
 Coeff-Com:  0.100D+01
 Coeff-En:   0.100D+01
 Coeff:      0.100D+01
 Gap=     0.516 Goal=   None    Shift=    0.000
 RMSDP=3.35D-04 MaxDP=1.72D-02              OVMax= 2.55D-03

 Cycle   2  Pass 1  IDiag  1:
 RMSU=  2.66D-04    CP:  9.96D-01
 E= -557.156468694367     Delta-E=       -0.000117041042 Rises=F Damp=F
 DIIS: error= 7.15D-05 at cycle   2 NSaved=   2.
 NSaved= 2 IEnMin= 2 EnMin= -557.156468694367     IErMin= 2 ErrMin= 7.15D-05
 ErrMax= 7.15D-05  0.00D+00 EMaxC= 1.00D-01 BMatC= 2.27D-06 BMatP= 7.86D-05
 IDIUse=1 WtCom= 1.00D+00 WtEn= 0.00D+00
 Coeff-Com: -0.953D-01 0.110D+01
 Coeff:     -0.953D-01 0.110D+01
 Gap=     0.255 Goal=   None    Shift=    0.000
 RMSDP=5.21D-05 MaxDP=3.94D-03 DE=-1.17D-04 OVMax= 7.45D-04

 Cycle   3  Pass 1  IDiag  1:
 RMSU=  4.75D-05    CP:  9.96D-01  1.06D+00
 E= -557.156473439882     Delta-E=       -0.000004745515 Rises=F Damp=F
 DIIS: error= 3.52D-05 at cycle   3 NSaved=   3.
 NSaved= 3 IEnMin= 3 EnMin= -557.156473439882     IErMin= 3 ErrMin= 3.52D-05
 ErrMax= 3.52D-05  0.00D+00 EMaxC= 1.00D-01 BMatC= 4.83D-07 BMatP= 2.27D-06
 IDIUse=1 WtCom= 1.00D+00 WtEn= 0.00D+00
 Coeff-Com: -0.468D-01 0.322D+00 0.725D+00
 Coeff:     -0.468D-01 0.322D+00 0.725D+00
 Gap=     0.255 Goal=   None    Shift=    0.000
 RMSDP=1.71D-05 MaxDP=1.08D-03 DE=-4.75D-06 OVMax= 2.01D-04

 Cycle   4  Pass 1  IDiag  1:
 RMSU=  1.48D-05    CP:  9.96D-01  1.07D+00  8.31D-01
 E= -557.156473921563     Delta-E=       -0.000000481681 Rises=F Damp=F
 DIIS: error= 1.61D-05 at cycle   4 NSaved=   4.
 NSaved= 4 IEnMin= 4 EnMin= -557.156473921563     IErMin= 4 ErrMin= 1.61D-05
 ErrMax= 1.61D-05  0.00D+00 EMaxC= 1.00D-01 BMatC= 8.94D-08 BMatP= 4.83D-07
 IDIUse=1 WtCom= 1.00D+00 WtEn= 0.00D+00
 Coeff-Com: -0.447D-02-0.271D-01 0.281D+00 0.751D+00
 Coeff:     -0.447D-02-0.271D-01 0.281D+00 0.751D+00
 Gap=     0.255 Goal=   None    Shift=    0.000
 RMSDP=6.24D-06 MaxDP=2.96D-04 DE=-4.82D-07 OVMax= 1.08D-04

 Cycle   5  Pass 1  IDiag  1:
 RMSU=  4.73D-06    CP:  9.96D-01  1.07D+00  8.92D-01  1.04D+00
 E= -557.156474019107     Delta-E=       -0.000000097544 Rises=F Damp=F
 DIIS: error= 3.77D-06 at cycle   5 NSaved=   5.
 NSaved= 5 IEnMin= 5 EnMin= -557.156474019107     IErMin= 5 ErrMin= 3.77D-06
 ErrMax= 3.77D-06  0.00D+00 EMaxC= 1.00D-01 BMatC= 7.45D-09 BMatP= 8.94D-08
 IDIUse=1 WtCom= 1.00D+00 WtEn= 0.00D+00
 Coeff-Com:  0.195D-02-0.365D-01 0.521D-01 0.286D+00 0.697D+00
 Coeff:      0.195D-02-0.365D-01 0.521D-01 0.286D+00 0.697D+00
 Gap=     0.255 Goal=   None    Shift=    0.000
 RMSDP=2.13D-06 MaxDP=8.00D-05 DE=-9.75D-08 OVMax= 3.52D-05

 Cycle   6  Pass 1  IDiag  1:
 RMSU=  1.66D-06    CP:  9.96D-01  1.07D+00  9.17D-01  1.05D+00  1.05D+00
 E= -557.156474027781     Delta-E=       -0.000000008674 Rises=F Damp=F
 DIIS: error= 1.50D-06 at cycle   6 NSaved=   6.
 NSaved= 6 IEnMin= 6 EnMin= -557.156474027781     IErMin= 6 ErrMin= 1.50D-06
 ErrMax= 1.50D-06  0.00D+00 EMaxC= 1.00D-01 BMatC= 1.13D-09 BMatP= 7.45D-09
 IDIUse=1 WtCom= 1.00D+00 WtEn= 0.00D+00
 Coeff-Com:  0.135D-02-0.134D-01-0.732D-02 0.397D-01 0.302D+00 0.678D+00
 Coeff:      0.135D-02-0.134D-01-0.732D-02 0.397D-01 0.302D+00 0.678D+00
 Gap=     0.255 Goal=   None    Shift=    0.000
 RMSDP=7.92D-07 MaxDP=4.31D-05 DE=-8.67D-09 OVMax= 2.28D-05

 Cycle   7  Pass 1  IDiag  1:
 RMSU=  5.74D-07    CP:  9.96D-01  1.07D+00  9.17D-01  1.07D+00  1.15D+00
                    CP:  9.85D-01
 E= -557.156474029268     Delta-E=       -0.000000001487 Rises=F Damp=F
 DIIS: error= 4.32D-07 at cycle   7 NSaved=   7.
 NSaved= 7 IEnMin= 7 EnMin= -557.156474029268     IErMin= 7 ErrMin= 4.32D-07
 ErrMax= 4.32D-07  0.00D+00 EMaxC= 1.00D-01 BMatC= 1.30D-10 BMatP= 1.13D-09
 IDIUse=1 WtCom= 1.00D+00 WtEn= 0.00D+00
 Coeff-Com:  0.171D-03 0.112D-02-0.105D-01-0.335D-01-0.100D-01 0.222D+00
 Coeff-Com:  0.831D+00
 Coeff:      0.171D-03 0.112D-02-0.105D-01-0.335D-01-0.100D-01 0.222D+00
 Coeff:      0.831D+00
 Gap=     0.255 Goal=   None    Shift=    0.000
 RMSDP=3.91D-07 MaxDP=1.26D-05 DE=-1.49D-09 OVMax= 1.24D-05

 Cycle   8  Pass 1  IDiag  1:
 RMSU=  1.82D-07    CP:  9.96D-01  1.07D+00  9.18D-01  1.07D+00  1.19D+00
                    CP:  1.12D+00  1.26D+00
 E= -557.156474029554     Delta-E=       -0.000000000287 Rises=F Damp=F
 DIIS: error= 2.29D-07 at cycle   8 NSaved=   8.
 NSaved= 8 IEnMin= 8 EnMin= -557.156474029554     IErMin= 8 ErrMin= 2.29D-07
 ErrMax= 2.29D-07  0.00D+00 EMaxC= 1.00D-01 BMatC= 1.37D-11 BMatP= 1.30D-10
 IDIUse=1 WtCom= 1.00D+00 WtEn= 0.00D+00
 Coeff-Com: -0.169D-03 0.248D-02-0.139D-02-0.156D-01-0.511D-01-0.427D-01
 Coeff-Com:  0.215D+00 0.893D+00
 Coeff:     -0.169D-03 0.248D-02-0.139D-02-0.156D-01-0.511D-01-0.427D-01
 Coeff:      0.215D+00 0.893D+00
 Gap=     0.255 Goal=   None    Shift=    0.000
 RMSDP=1.80D-07 MaxDP=6.23D-06 DE=-2.87D-10 OVMax= 6.70D-06

 Cycle   9  Pass 1  IDiag  1:
 RMSU=  8.08D-08    CP:  9.96D-01  1.07D+00  9.19D-01  1.07D+00  1.21D+00
                    CP:  1.17D+00  1.37D+00  1.17D+00
 E= -557.156474029606     Delta-E=       -0.000000000052 Rises=F Damp=F
 DIIS: error= 8.80D-08 at cycle   9 NSaved=   9.
 NSaved= 9 IEnMin= 9 EnMin= -557.156474029606     IErMin= 9 ErrMin= 8.80D-08
 ErrMax= 8.80D-08  0.00D+00 EMaxC= 1.00D-01 BMatC= 1.50D-12 BMatP= 1.37D-11
 IDIUse=1 WtCom= 1.00D+00 WtEn= 0.00D+00
 Coeff-Com: -0.400D-04 0.270D-03 0.820D-03 0.669D-03-0.639D-02-0.264D-01
 Coeff-Com: -0.512D-01 0.156D+00 0.926D+00
 Coeff:     -0.400D-04 0.270D-03 0.820D-03 0.669D-03-0.639D-02-0.264D-01
 Coeff:     -0.512D-01 0.156D+00 0.926D+00
 Gap=     0.255 Goal=   None    Shift=    0.000
 RMSDP=4.46D-08 MaxDP=2.07D-06 DE=-5.16D-11 OVMax= 2.41D-06

 Cycle  10  Pass 1  IDiag  1:
 RMSU=  2.05D-08    CP:  9.96D-01  1.07D+00  9.19D-01  1.07D+00  1.21D+00
                    CP:  1.17D+00  1.40D+00  1.29D+00  1.26D+00
 E= -557.156474029604     Delta-E=        0.000000000002 Rises=F Damp=F
 DIIS: error= 5.17D-08 at cycle  10 NSaved=  10.
 NSaved=10 IEnMin= 9 EnMin= -557.156474029606     IErMin=10 ErrMin= 5.17D-08
 ErrMax= 5.17D-08  0.00D+00 EMaxC= 1.00D-01 BMatC= 5.53D-13 BMatP= 1.50D-12
 IDIUse=1 WtCom= 1.00D+00 WtEn= 0.00D+00
 Coeff-Com:  0.122D-04-0.339D-03 0.671D-03 0.325D-02 0.657D-02-0.550D-02
 Coeff-Com: -0.700D-01-0.908D-01 0.451D+00 0.705D+00
 Coeff:      0.122D-04-0.339D-03 0.671D-03 0.325D-02 0.657D-02-0.550D-02
 Coeff:     -0.700D-01-0.908D-01 0.451D+00 0.705D+00
 Gap=     0.255 Goal=   None    Shift=    0.000
 RMSDP=2.40D-08 MaxDP=8.27D-07 DE= 1.59D-12 OVMax= 7.38D-07

 Cycle  11  Pass 1  IDiag  1:
 RMSU=  9.67D-09    CP:  9.96D-01  1.07D+00  9.19D-01  1.07D+00  1.22D+00
                    CP:  1.18D+00  1.41D+00  1.36D+00  1.41D+00  9.04D-01
 E= -557.156474029609     Delta-E=       -0.000000000005 Rises=F Damp=F
 DIIS: error= 6.86D-09 at cycle  11 NSaved=  11.
 NSaved=11 IEnMin=11 EnMin= -557.156474029609     IErMin=11 ErrMin= 6.86D-09
 ErrMax= 6.86D-09  0.00D+00 EMaxC= 1.00D-01 BMatC= 1.78D-14 BMatP= 5.53D-13
 IDIUse=1 WtCom= 1.00D+00 WtEn= 0.00D+00
 Coeff-Com:  0.610D-05-0.879D-04 0.376D-04 0.483D-03 0.187D-02 0.180D-02
 Coeff-Com: -0.729D-02-0.274D-01-0.132D-01 0.120D+00 0.924D+00
 Coeff:      0.610D-05-0.879D-04 0.376D-04 0.483D-03 0.187D-02 0.180D-02
 Coeff:     -0.729D-02-0.274D-01-0.132D-01 0.120D+00 0.924D+00
 Gap=     0.255 Goal=   None    Shift=    0.000
 RMSDP=5.11D-09 MaxDP=2.75D-07 DE=-4.55D-12 OVMax= 1.79D-07

 Error on total polarization charges =  0.05312
 SCF Done:  E(RCAM-B3LYP) =  -557.156474030     A.U. after   11 cycles
            NFock= 11  Conv=0.51D-08     -V/T= 2.0094
 KE= 5.519791509836D+02 PE=-2.793426858116D+03 EE= 9.264290865872D+02
 SMD-CDS (non-electrostatic) energy       (kcal/mol) =      -0.31
 (included in total energy above)
 Leave Link  502 at Tue Jul  7 16:45:18 2026, MaxMem=  4026531840 cpu:             217.0 elap:              27.5
 (Enter /opt/packages/gaussian/g16RevC.01/g16/l701.exe)
 ... and contract with generalized density number  0.
 Compute integral first derivatives.
 D1PCM: PCM CHGder 1st derivatives, ID1Alg=3 FixD1E=F DoIter=F DoCFld=F I1PDM=0.
 GePol: Maximum number of non-zero 1st derivatives   =     256
 Leave Link  701 at Tue Jul  7 16:45:18 2026, MaxMem=  4026531840 cpu:               6.4 elap:               0.8
 (Enter /opt/packages/gaussian/g16RevC.01/g16/l702.exe)
 L702 exits ... SP integral derivatives will be done elsewhere.
 Leave Link  702 at Tue Jul  7 16:45:18 2026, MaxMem=  4026531840 cpu:               0.1 elap:               0.0
 (Enter /opt/packages/gaussian/g16RevC.01/g16/l703.exe)
 Integral derivatives from FoFJK, PRISM(SPDF).
 Compute integral first derivatives, UseDBF=F ICtDFT=           0.
 Calling FoFJK, ICntrl=      2127 FMM=F ISym2X=0 I1Cent= 0 IOpClX= 0 NMat=1 NMatS=1 NMatT=0.
 FoFJK:  IHMeth= 1 ICntrl=    2127 DoSepK=T KAlg= 0 I1Cent=           0 FoldK=F
 IRaf=         1 NMat=       1 IRICut=       1 DoRegI=T DoRafI=F ISym2E= 0 IDoP0=0 IntGTp=1.
 FoFCou: FMM=F IPFlag=           0 FMFlag=      100000 FMFlg1=         800
         NFxFlg=           0 DoJE=F BraDBF=F KetDBF=F FulRan=T
         wScrn=  0.000000 ICntrl=      2527 IOpCl=  0 I1Cent=           0 NGrid=           0
         NMat0=    1 NMatS0=      1 NMatT0=    0 NMatD0=    1 NMtDS0=    0 NMtDT0=    0
 Symmetry not used in FoFCou.
 Leave Link  703 at Tue Jul  7 16:45:27 2026, MaxMem=  4026531840 cpu:              64.1 elap:               8.1
 (Enter /opt/packages/gaussian/g16RevC.01/g16/l716.exe)
 Dipole        = 2.84352585D+00-1.59811634D-01 1.40652111D-01
 ***** Axes restored to original set *****
 -------------------------------------------------------------------
 Center     Atomic                   Forces (Hartrees/Bohr)
 Number     Number              X              Y              Z
 -------------------------------------------------------------------
      1        6          -0.000150208   -0.000060909   -0.000049334
      2        6          -0.000431121    0.000056339    0.000001641
      3        6           0.000338988   -0.000149937    0.000038608
      4        6          -0.000418101   -0.000105880   -0.000000489
      5        6           0.000326768    0.000211534   -0.000031739
      6        6          -0.000132505    0.000209152    0.000001076
      7        1          -0.000021662    0.000045599   -0.000001270
      8        1          -0.000172254   -0.000150908    0.000006495
      9        1          -0.000023216   -0.000062797   -0.000003408
     10        1          -0.000022372    0.000046317   -0.000007306
     11        8          -0.000423949   -0.000463033    0.000058734
     12        6           0.000765308    0.000746515   -0.000013951
     13        1           0.000029638   -0.000156406    0.000104228
     14        1           0.000017748   -0.000164595   -0.000074472
     15        1          -0.000095186    0.000013471    0.000004002
     16        6           0.000454765    0.000057055    0.000012078
     17        6          -0.000085366   -0.000120834   -0.000145481
     18        7          -0.000195764    0.000135100    0.000072768
     19        6           0.000129313    0.000041460   -0.000123878
     20        6           0.000010128   -0.000068092    0.000114906
     21        1          -0.000059384   -0.000097936    0.000021393
     22        1          -0.000022820   -0.000065218    0.000082191
     23        1           0.000013981    0.000041271    0.000074105
     24        1           0.000038933    0.000062524    0.000016515
     25        1           0.000025992   -0.000037104   -0.000088739
     26        1           0.000077520   -0.000047214   -0.000041767
     27        1           0.000024826    0.000084524   -0.000026907
 -------------------------------------------------------------------
 Cartesian Forces:  Max     0.000765308 RMS     0.000188278
 Leave Link  716 at Tue Jul  7 16:45:27 2026, MaxMem=  4026531840 cpu:               0.1 elap:               0.0
 (Enter /opt/packages/gaussian/g16RevC.01/g16/l103.exe)

 GradGradGradGradGradGradGradGradGradGradGradGradGradGradGradGradGradGrad
 Berny optimization.
 Using GEDIIS/GDIIS optimizer.
 FormGI is forming the generalized inverse of G from B-inverse, IUseBI=4.
 GSVD:  received Info=                   1 from GESDD.
 Internal  Forces:  Max     0.000896720 RMS     0.000143546
 Search for a local minimum.
 Step number   3 out of a maximum of  154
 All quantities printed in internal units (Hartrees-Bohrs-Radians)
 RMS Force = .14355D-03 SwitMx=.10000D-02 MixMth= 2
 Mixed Optimization -- En-DIIS/RFO-DIIS
 Swapping is turned off.
 Update second derivatives using D2CorX and points    1    2    3
 DE= -3.16D-05 DEPred=-3.52D-05 R= 8.98D-01
 TightC=F SS=  1.41D+00  RLast= 2.17D-02 DXNew= 5.0454D-01 6.5032D-02
 Trust test= 8.98D-01 RLast= 2.17D-02 DXMaxT set to 3.00D-01
 ITU=  1  1  0
     Eigenvalues ---    0.00399   0.01044   0.01168   0.01289   0.01463
     Eigenvalues ---    0.01759   0.01776   0.01919   0.02013   0.02049
     Eigenvalues ---    0.02073   0.02105   0.02120   0.02145   0.02198
     Eigenvalues ---    0.02342   0.03300   0.03549   0.04909   0.05176
     Eigenvalues ---    0.05580   0.05867   0.06881   0.07465   0.08378
     Eigenvalues ---    0.08409   0.09377   0.10119   0.10669   0.10962
     Eigenvalues ---    0.15191   0.15948   0.16000   0.16000   0.16000
     Eigenvalues ---    0.16000   0.16002   0.16048   0.21502   0.21998
     Eigenvalues ---    0.22589   0.22925   0.24034   0.24676   0.24982
     Eigenvalues ---    0.25000   0.27272   0.28007   0.30462   0.32096
     Eigenvalues ---    0.33824   0.34129   0.34144   0.34248   0.34290
     Eigenvalues ---    0.34432   0.34500   0.34549   0.34583   0.34750
     Eigenvalues ---    0.34913   0.35280   0.35307   0.35417   0.36172
     Eigenvalues ---    0.39981   0.41182   0.42174   0.43985   0.44780
     Eigenvalues ---    0.45674   0.45872   0.49061   0.59767   0.60718
 En-DIIS/RFO-DIIS/Sim-DIIS IScMMF=       -3 using points:     3    2
 RFO step:  Lambda=-8.35526154D-06.
 NNeg= 0 NGDIIS= 2 SimSw=  2.50D-03 Rises=F DC= -3.16D-05 SmlDif=  1.00D-05
 NRisDI= 0 DoIntr=F SqrtH=F CThrHd= 10.0 CDAdj=  3.0
 RMS Error=  0.7289376005D-03 NUsed= 2 OKEnD=T EnDIS=F
 InvSVX:  RCond= 1.17D-04 Info=           0 Equed=N FErr=  1.60D-15 BErr=  6.41D-17
 DidBck=F Rises=F RFO-DIIS coefs:    1.20877   -0.20877
 Iteration  1 RMS(Cart)=  0.00212485 RMS(Int)=  0.00000179
 Iteration  2 RMS(Cart)=  0.00000285 RMS(Int)=  0.00000024
 Iteration  3 RMS(Cart)=  0.00000000 RMS(Int)=  0.00000024
 ITry= 1 IFail=0 DXMaxC= 9.31D-03 DCOld= 1.00D+10 DXMaxT= 3.00D-01 DXLimC= 3.00D+00 Rises=F
 Variable       Old X    -DE/DX   Delta X   Delta X   Delta X     New X
                                 (Linear)    (Quad)   (Total)
    R1        2.64168  -0.00004   0.00031  -0.00026   0.00005   2.64173
    R2        2.65461   0.00024   0.00023   0.00037   0.00060   2.65521
    R3        2.54430  -0.00030   0.00047  -0.00070  -0.00023   2.54407
    R4        2.61906   0.00032   0.00042   0.00041   0.00083   2.61990
    R5        2.04599   0.00022  -0.00014   0.00061   0.00047   2.04646
    R6        2.64935   0.00019  -0.00000   0.00035   0.00034   2.64969
    R7        2.04898   0.00005  -0.00000   0.00012   0.00011   2.04909
    R8        2.66587   0.00027   0.00004   0.00052   0.00056   2.66643
    R9        2.73159   0.00041   0.00096   0.00056   0.00152   2.73311
   R10        2.59926   0.00029   0.00028   0.00041   0.00069   2.59995
   R11        2.05101   0.00003   0.00005   0.00005   0.00010   2.05111
   R12        2.05069   0.00005   0.00004   0.00011   0.00014   2.05083
   R13        2.70536  -0.00077  -0.00032  -0.00164  -0.00196   2.70339
   R14        2.06679   0.00017   0.00004   0.00042   0.00046   2.06725
   R15        2.06684   0.00017   0.00004   0.00041   0.00045   2.06729
   R16        2.05899   0.00009   0.00004   0.00021   0.00026   2.05925
   R17        2.83828   0.00015   0.00011   0.00036   0.00047   2.83875
   R18        2.45580   0.00010  -0.00018   0.00019   0.00001   2.45580
   R19        2.90493   0.00016   0.00004   0.00042   0.00046   2.90539
   R20        2.06221   0.00007  -0.00001   0.00018   0.00017   2.06238
   R21        2.07345   0.00010   0.00004   0.00025   0.00029   2.07374
   R22        2.77740   0.00016   0.00009   0.00037   0.00047   2.77787
   R23        1.92123   0.00008  -0.00000   0.00015   0.00015   1.92138
   R24        2.89107   0.00023   0.00001   0.00065   0.00066   2.89173
   R25        2.06767   0.00009   0.00002   0.00021   0.00024   2.06791
   R26        2.06141   0.00004   0.00002   0.00009   0.00012   2.06153
   R27        2.06576   0.00009   0.00003   0.00022   0.00025   2.06601
   R28        2.06123   0.00006   0.00003   0.00013   0.00016   2.06138
    A1        2.09522   0.00020  -0.00044   0.00089   0.00045   2.09567
    A2        2.16907  -0.00056   0.00075  -0.00232  -0.00157   2.16750
    A3        2.01890   0.00036  -0.00031   0.00143   0.00112   2.02002
    A4        2.08118  -0.00005   0.00015  -0.00027  -0.00012   2.08105
    A5        2.11697  -0.00004   0.00018  -0.00033  -0.00015   2.11682
    A6        2.08504   0.00009  -0.00033   0.00060   0.00027   2.08531
    A7        2.12085  -0.00008   0.00009  -0.00036  -0.00027   2.12058
    A8        2.06580  -0.00001  -0.00006  -0.00008  -0.00014   2.06566
    A9        2.09654   0.00009  -0.00003   0.00044   0.00041   2.09695
   A10        2.06504   0.00012  -0.00012   0.00056   0.00044   2.06548
   A11        2.08056  -0.00002   0.00028  -0.00023   0.00005   2.08060
   A12        2.13758  -0.00010  -0.00015  -0.00033  -0.00048   2.13710
   A13        2.10651  -0.00009   0.00004  -0.00029  -0.00025   2.10626
   A14        2.11583   0.00009   0.00004   0.00038   0.00042   2.11625
   A15        2.06085  -0.00000  -0.00008  -0.00009  -0.00017   2.06068
   A16        2.09756  -0.00011   0.00028  -0.00052  -0.00024   2.09732
   A17        2.07479   0.00005  -0.00025   0.00030   0.00004   2.07483
   A18        2.11083   0.00006  -0.00002   0.00022   0.00020   2.11103
   A19        2.08044  -0.00090   0.00200  -0.00402  -0.00202   2.07842
   A20        1.93080   0.00005   0.00056   0.00001   0.00057   1.93137
   A21        1.93017   0.00007   0.00054   0.00011   0.00065   1.93082
   A22        1.84055   0.00004   0.00049   0.00013   0.00061   1.84116
   A23        1.92746  -0.00012  -0.00030  -0.00070  -0.00100   1.92646
   A24        1.91663  -0.00001  -0.00065   0.00028  -0.00037   1.91626
   A25        1.91644  -0.00002  -0.00062   0.00022  -0.00041   1.91604
   A26        2.19463  -0.00010   0.00001  -0.00037  -0.00035   2.19428
   A27        2.18083  -0.00002   0.00005  -0.00009  -0.00004   2.18079
   A28        1.90734   0.00012  -0.00007   0.00046   0.00040   1.90774
   A29        1.81171  -0.00007  -0.00002  -0.00035  -0.00037   1.81134
   A30        1.95326   0.00003   0.00021   0.00022   0.00043   1.95369
   A31        1.88056   0.00001  -0.00008   0.00002  -0.00006   1.88051
   A32        1.97697   0.00005   0.00003   0.00049   0.00052   1.97750
   A33        1.96260   0.00002   0.00005  -0.00001   0.00004   1.96264
   A34        1.87740  -0.00005  -0.00018  -0.00037  -0.00055   1.87685
   A35        2.00865  -0.00007   0.00008  -0.00029  -0.00020   2.00844
   A36        2.16230   0.00008   0.00009   0.00036   0.00044   2.16274
   A37        2.10985  -0.00001  -0.00017  -0.00003  -0.00020   2.10965
   A38        1.78369   0.00000  -0.00009   0.00002  -0.00007   1.78362
   A39        1.89201  -0.00002   0.00000  -0.00035  -0.00034   1.89167
   A40        1.91171  -0.00001   0.00035  -0.00004   0.00030   1.91201
   A41        1.97589   0.00001  -0.00007   0.00009   0.00002   1.97591
   A42        1.99295   0.00004   0.00004   0.00046   0.00050   1.99345
   A43        1.90171  -0.00003  -0.00020  -0.00021  -0.00041   1.90130
   A44        1.81886   0.00003  -0.00006   0.00006  -0.00000   1.81886
   A45        1.91767  -0.00001  -0.00005  -0.00015  -0.00020   1.91747
   A46        1.96183   0.00001   0.00031   0.00029   0.00060   1.96243
   A47        1.91851  -0.00001  -0.00007  -0.00003  -0.00010   1.91841
   A48        1.95414   0.00001   0.00016   0.00018   0.00034   1.95448
   A49        1.89215  -0.00002  -0.00028  -0.00033  -0.00062   1.89154
    D1       -0.00562   0.00000  -0.00015   0.00028   0.00013  -0.00548
    D2        3.13896  -0.00000  -0.00012   0.00001  -0.00011   3.13885
    D3        3.13618   0.00002  -0.00031   0.00105   0.00074   3.13692
    D4       -0.00243   0.00001  -0.00028   0.00078   0.00050  -0.00194
    D5        0.00237  -0.00000   0.00006  -0.00010  -0.00004   0.00233
    D6       -3.13870   0.00000   0.00000   0.00003   0.00003  -3.13867
    D7       -3.13940  -0.00002   0.00022  -0.00082  -0.00060  -3.14000
    D8        0.00271  -0.00001   0.00016  -0.00068  -0.00053   0.00218
    D9       -0.00296  -0.00001  -0.00014  -0.00044  -0.00058  -0.00355
   D10        3.13882   0.00000  -0.00030   0.00030  -0.00000   3.13882
   D11        0.00333  -0.00000   0.00013  -0.00012   0.00000   0.00333
   D12       -3.14133  -0.00000   0.00000  -0.00005  -0.00005  -3.14138
   D13       -3.14119   0.00000   0.00010   0.00014   0.00024  -3.14095
   D14       -0.00267   0.00000  -0.00003   0.00022   0.00019  -0.00248
   D15        0.00216  -0.00000  -0.00002  -0.00020  -0.00022   0.00193
   D16        3.13939  -0.00000  -0.00008  -0.00013  -0.00022   3.13917
   D17       -3.13632  -0.00001   0.00011  -0.00028  -0.00017  -3.13649
   D18        0.00092  -0.00000   0.00005  -0.00021  -0.00017   0.00075
   D19       -0.00547   0.00001  -0.00006   0.00038   0.00031  -0.00515
   D20        3.13586   0.00000   0.00009   0.00008   0.00017   3.13603
   D21        3.14064   0.00001  -0.00000   0.00031   0.00031   3.14095
   D22       -0.00122   0.00000   0.00015   0.00002   0.00017  -0.00106
   D23       -0.01007   0.00002   0.00074   0.00106   0.00180  -0.00827
   D24       -3.11875   0.00002   0.00089   0.00084   0.00173  -3.11702
   D25        3.12697   0.00002   0.00068   0.00113   0.00181   3.12878
   D26        0.01830   0.00002   0.00083   0.00091   0.00174   0.02003
   D27        0.00325  -0.00001   0.00004  -0.00023  -0.00019   0.00306
   D28       -3.13888  -0.00001   0.00011  -0.00036  -0.00026  -3.13914
   D29       -3.13809   0.00000  -0.00010   0.00005  -0.00005  -3.13814
   D30        0.00298  -0.00000  -0.00004  -0.00008  -0.00012   0.00285
   D31        1.06964  -0.00004   0.00044  -0.00056  -0.00012   1.06952
   D32       -1.07151   0.00004   0.00007   0.00024   0.00031  -1.07120
   D33        3.14093  -0.00000   0.00025  -0.00015   0.00010   3.14103
   D34        2.93617   0.00001  -0.00002  -0.00058  -0.00060   2.93556
   D35        0.79806  -0.00003  -0.00016  -0.00108  -0.00123   0.79683
   D36       -1.26242  -0.00000  -0.00001  -0.00076  -0.00077  -1.26318
   D37       -0.23401   0.00001  -0.00015  -0.00040  -0.00054  -0.23455
   D38       -2.37211  -0.00003  -0.00028  -0.00089  -0.00118  -2.37329
   D39        1.85060  -0.00000  -0.00013  -0.00058  -0.00071   1.84988
   D40        3.09148   0.00001  -0.00019   0.00053   0.00034   3.09182
   D41        0.02376  -0.00001  -0.00017  -0.00013  -0.00030   0.02346
   D42       -0.02181   0.00001  -0.00006   0.00036   0.00029  -0.02152
   D43       -3.08953  -0.00000  -0.00005  -0.00031  -0.00036  -3.08988
   D44        0.38063  -0.00003   0.00028   0.00025   0.00054   0.38117
   D45       -1.67418  -0.00002   0.00042   0.00033   0.00075  -1.67343
   D46        2.50034   0.00000   0.00060   0.00067   0.00127   2.50161
   D47        2.50298  -0.00000   0.00054   0.00057   0.00111   2.50408
   D48        0.44817   0.00000   0.00068   0.00065   0.00132   0.44949
   D49       -1.66050   0.00003   0.00086   0.00098   0.00185  -1.65865
   D50       -1.64704  -0.00001   0.00036   0.00044   0.00080  -1.64624
   D51        2.58134  -0.00001   0.00050   0.00052   0.00102   2.58235
   D52        0.47267   0.00002   0.00069   0.00085   0.00154   0.47421
   D53        0.26732  -0.00002   0.00024  -0.00016   0.00009   0.26741
   D54       -1.82346  -0.00002   0.00036  -0.00011   0.00025  -1.82321
   D55        2.38670   0.00002   0.00041   0.00037   0.00078   2.38748
   D56       -2.94572  -0.00000   0.00024   0.00050   0.00074  -2.94498
   D57        1.24667  -0.00001   0.00036   0.00055   0.00091   1.24758
   D58       -0.82635   0.00004   0.00040   0.00103   0.00143  -0.82491
   D59       -0.38415   0.00001  -0.00029  -0.00017  -0.00046  -0.38461
   D60        1.67007   0.00001  -0.00041  -0.00033  -0.00074   1.66933
   D61       -2.50896  -0.00002  -0.00071  -0.00065  -0.00136  -2.51032
   D62        1.64687  -0.00000  -0.00037  -0.00053  -0.00089   1.64598
   D63       -2.58209  -0.00001  -0.00049  -0.00069  -0.00118  -2.58327
   D64       -0.47794  -0.00004  -0.00079  -0.00101  -0.00180  -0.47974
   D65       -2.44660  -0.00000  -0.00067  -0.00035  -0.00102  -2.44762
   D66       -0.39238  -0.00000  -0.00079  -0.00052  -0.00130  -0.39368
   D67        1.71178  -0.00003  -0.00109  -0.00084  -0.00193   1.70985
         Item               Value     Threshold  Converged?
 Maximum Force            0.000897     0.000450     NO 
 RMS     Force            0.000144     0.000300     YES
 Maximum Displacement     0.009314     0.001800     NO 
 RMS     Displacement     0.002125     0.001200     NO 
 Predicted change in Energy=-4.177945D-06
 Lowest energy point so far.  Saving SCF results.
 GradGradGradGradGradGradGradGradGradGradGradGradGradGradGradGradGradGrad

 Leave Link  103 at Tue Jul  7 16:45:27 2026, MaxMem=  4026531840 cpu:               0.2 elap:               0.0
 (Enter /opt/packages/gaussian/g16RevC.01/g16/l202.exe)
                          Input orientation:                          
 ---------------------------------------------------------------------
 Center     Atomic      Atomic             Coordinates (Angstroms)
 Number     Number       Type             X           Y           Z
 ---------------------------------------------------------------------
      1          6           0       -2.476333    0.267580   -0.011526
      2          6           0       -1.847642   -0.980184    0.034113
      3          6           0       -0.462598   -1.040611    0.043065
      4          6           0        0.321637    0.121290    0.011366
      5          6           0       -0.333143    1.370558   -0.027988
      6          6           0       -1.707007    1.442955   -0.041070
      7          1           0       -2.215179    2.401328   -0.073596
      8          1           0       -2.421311   -1.898330    0.060002
      9          1           0        0.010085   -2.015852    0.078440
     10          1           0        0.227452    2.299757   -0.048409
     11          8           0       -3.811143    0.441922   -0.029320
     12          6           0       -4.662932   -0.707162   -0.004825
     13          1           0       -4.506207   -1.284314    0.911165
     14          1           0       -4.489734   -1.334110   -0.884424
     15          1           0       -5.679854   -0.316110   -0.025135
     16          6           0        1.762828    0.000681    0.025517
     17          6           0        2.534724   -1.286779    0.082434
     18          7           0        2.593561    1.000045    0.025556
     19          6           0        4.013738    0.629630    0.107652
     20          6           0        3.978764   -0.862228   -0.231117
     21          1           0        2.141873   -2.028885   -0.614722
     22          1           0        2.428695   -1.695822    1.095189
     23          1           0        4.365284    0.833030    1.123777
     24          1           0        4.589904    1.234443   -0.594006
     25          1           0        4.186063   -1.007589   -1.294681
     26          1           0        4.713266   -1.428661    0.342980
     27          1           0        2.307408    1.975649    0.035313
 ---------------------------------------------------------------------
                    Distance matrix (angstroms):
                    1          2          3          4          5
     1  C    0.000000
     2  C    1.397945   0.000000
     3  C    2.401973   1.386391   0.000000
     4  C    2.801885   2.433009   1.402156   0.000000
     5  C    2.410414   2.797062   2.415687   1.411013   0.000000
     6  C    1.405077   2.428381   2.779160   2.421764   1.375832
     7  H    2.150566   3.403132   3.864207   3.411925   2.146305
     8  H    2.167789   1.082939   2.138347   3.406610   3.879925
     9  H    3.377044   2.127374   1.084332   2.160773   3.405423
    10  H    3.382537   3.882118   3.412125   2.181322   1.085400
    11  O    1.346265   2.425231   3.662772   4.145398   3.599840
    12  C    2.394031   2.828766   4.213822   5.052972   4.802555
    13  H    2.716638   2.815969   4.142918   5.108174   5.034364
    14  H    2.716826   2.819508   4.142971   5.105871   5.032491
    15  H    3.256290   3.889776   5.267762   6.017520   5.606441
    16  C    4.247717   3.741345   2.457055   1.446299   2.504500
    17  C    5.247433   4.393343   3.007671   2.624017   3.911304
    18  N    5.122666   4.862681   3.674873   2.435991   2.950550
    19  C    6.501254   6.078872   4.778228   3.728176   4.411661
    20  C    6.556902   5.833632   4.453391   3.794823   4.859952
    21  H    5.192824   4.175762   2.862278   2.885913   4.245724
    22  H    5.398061   4.463751   3.145765   2.986010   4.276910
    23  H    6.958188   6.563198   5.290266   4.253836   4.867311
    24  H    7.155824   6.836747   5.577589   4.452380   4.957348
    25  H    6.903626   6.178352   4.837427   4.232483   5.261494
    26  H    7.395488   6.583467   5.199048   4.668910   5.782689
    27  H    5.079751   5.099156   4.095219   2.717078   2.709733
                    6          7          8          9         10
     6  C    0.000000
     7  H    1.085254   0.000000
     8  H    3.418278   4.306668   0.000000
     9  H    3.863422   4.948373   2.434304   0.000000
    10  H    2.115725   2.444872   4.965041   4.322942   0.000000
    11  O    2.330148   2.527514   2.723305   4.544672   4.445465
    12  C    3.655381   3.957137   2.539281   4.853524   5.741021
    13  H    4.022471   4.450002   2.334156   4.650319   6.014472
    14  H    4.020809   4.447981   2.342788   4.651908   6.012966
    15  H    4.344891   4.403497   3.623364   5.939297   6.460616
    16  C    3.758236   4.647308   4.595047   2.672325   2.765610
    17  C    5.045689   6.015652   4.993674   2.627806   4.266599
    18  N    4.323828   5.009732   5.792297   3.971496   2.700592
    19  C    5.780185   6.478517   6.913950   4.798820   4.141213
    20  C    6.138238   7.002895   6.489932   4.144525   4.909570
    21  H    5.215038   6.237267   4.614644   2.241688   4.766850
    22  H    5.314793   6.302243   4.963384   2.643080   4.702971
    23  H    6.213018   6.869917   7.392552   5.308166   4.543893
    24  H    6.324579   6.923988   7.707083   5.656089   4.523667
    25  H    6.504227   7.354432   6.803379   4.510083   5.306820
    26  H    7.043690   7.927529   7.155617   4.747072   5.846094
    27  H    4.050324   4.543882   6.113028   4.605609   2.106721
                   11         12         13         14         15
    11  O    0.000000
    12  C    1.430573   0.000000
    13  H    2.085071   1.093941   0.000000
    14  H    2.084702   1.093963   1.796355   0.000000
    15  H    2.016609   1.089708   1.786484   1.786361   0.000000
    16  C    5.591677   6.464701   6.460371   6.457879   7.449593
    17  C    6.578064   7.221484   7.089535   7.090844   8.272428
    18  N    6.429210   7.454675   7.510613   7.513283   8.377603
    19  C    7.828330   8.779765   8.769167   8.783481   9.740523
    20  C    7.900897   8.646049   8.571913   8.506759   9.676237
    21  H    6.471938   6.958757   6.861464   6.673354   8.028737
    22  H    6.691042   7.244215   6.949537   7.205162   8.301042
    23  H    8.266593   9.227927   9.123141   9.334919  10.175722
    24  H    8.457219   9.472695   9.557663   9.440426  10.401719
    25  H    8.225419   8.947553   8.972061   8.691627   9.971269
    26  H    8.735172   9.410347   9.238092   9.284970  10.458978
    27  H    6.308182   7.468918   7.603935   7.615876   8.309764
                   16         17         18         19         20
    16  C    0.000000
    17  C    1.502204   0.000000
    18  N    1.299556   2.288288   0.000000
    19  C    2.338572   2.420897   1.469983   0.000000
    20  C    2.391828   1.537469   2.335108   1.530238   0.000000
    21  H    2.161647   1.091366   3.128641   3.330676   2.209617
    22  H    2.113220   1.097374   2.904994   2.982502   2.203788
    23  H    2.944785   2.988133   2.091169   1.094289   2.204322
    24  H    3.146162   3.322333   2.103375   1.090912   2.213867
    25  H    2.937958   2.168251   2.882652   2.162572   1.093284
    26  H    3.293764   2.198650   3.239216   2.186614   1.090838
    27  H    2.048698   3.270678   1.016751   2.174526   3.304234
                   21         22         23         24         25
    21  H    0.000000
    22  H    1.765502   0.000000
    23  H    4.019514   3.185324   0.000000
    24  H    4.079533   4.013808   1.778304   0.000000
    25  H    2.384135   3.045240   3.044493   2.383430   0.000000
    26  H    2.808830   2.420012   2.417847   2.825824   1.771208
    27  H    4.060325   3.823316   2.593296   2.480971   3.768015
                   26         27
    26  H    0.000000
    27  H    4.179969   0.000000
 Stoichiometry    C11H14NO(1+)
 Framework group  C1[X(C11H14NO)]
 Deg. of freedom    75
 Full point group                 C1      NOp   1
 RotChk:  IX=0 Diff= 3.09D-04
 Largest Abelian subgroup         C1      NOp   1
 Largest concise Abelian subgroup C1      NOp   1
                         Standard orientation:                         
 ---------------------------------------------------------------------
 Center     Atomic      Atomic             Coordinates (Angstroms)
 Number     Number       Type             X           Y           Z
 ---------------------------------------------------------------------
      1          6           0       -2.477007    0.266741   -0.010895
      2          6           0       -1.847909   -0.980853    0.033785
      3          6           0       -0.462845   -1.040840    0.042554
      4          6           0        0.321012    0.121336    0.011611
      5          6           0       -0.334175    1.370422   -0.026780
      6          6           0       -1.708063    1.442384   -0.039672
      7          1           0       -2.216548    2.400617   -0.071459
      8          1           0       -2.421280   -1.899202    0.059072
      9          1           0        0.010156   -2.015953    0.077182
     10          1           0        0.226119    2.299816   -0.046591
     11          8           0       -3.811875    0.440666   -0.028430
     12          6           0       -4.663291   -0.708711   -0.004674
     13          1           0       -4.506288   -1.286470    0.910886
     14          1           0       -4.489980   -1.334972   -0.884740
     15          1           0       -5.680341   -0.317972   -0.024601
     16          6           0        1.762244    0.001183    0.025530
     17          6           0        2.534560   -1.286069    0.081446
     18          7           0        2.592654    1.000814    0.026204
     19          6           0        4.012959    0.630798    0.107890
     20          6           0        3.978432   -0.860827   -0.231946
     21          1           0        2.141878   -2.027801   -0.616204
     22          1           0        2.428765   -1.695873    1.093917
     23          1           0        4.364542    0.833582    1.124126
     24          1           0        4.588859    1.236300   -0.593391
     25          1           0        4.185670   -1.005358   -1.295635
     26          1           0        4.713174   -1.427436    0.341670
     27          1           0        2.306188    1.976318    0.036690
 ---------------------------------------------------------------------
 Rotational constants (GHZ):           2.8720760           0.3539317           0.3181287
 Leave Link  202 at Tue Jul  7 16:45:27 2026, MaxMem=  4026531840 cpu:               0.0 elap:               0.0
 (Enter /opt/packages/gaussian/g16RevC.01/g16/l301.exe)
 Standard basis: 6-31+G(d) (6D, 7F)
 Ernie: Thresh=  0.10000D-02 Tol=  0.10000D-05 Strict=F.
 There are   275 symmetry adapted cartesian basis functions of A   symmetry.
 There are   275 symmetry adapted basis functions of A   symmetry.
   275 basis functions,   472 primitive gaussians,   275 cartesian basis functions
    47 alpha electrons       47 beta electrons
       nuclear repulsion energy       757.8233082168 Hartrees.
 IExCor=20419 DFT=T Ex+Corr=CAM-B3LYP ExCW=0 ScaHFX=  1.000000
 ScaDFX=  1.000000  1.000000  1.000000  0.810000 ScalE2=  1.000000  1.000000
 IRadAn=      5 IRanWt=     -1 IRanGd=            0 ICorTp=0 IEmpDi=  4
 HFx  wShort=  0.000000 wLong=  0.330000 cFull=  0.190000 cShort=  0.000000 cLong=  0.460000
 DFx  wShort=  0.000000 wLong=  0.330000 cFull=  0.190000 cShort=  0.000000 cLong=  0.460000
 NAtoms=   27 NActive=   27 NUniq=   27 SFac= 1.00D+00 NAtFMM=   60 NAOKFM=F Big=F
 Integral buffers will be    131072 words long.
 Raffenetti 2 integral format.
 Two-electron integral symmetry is turned on.
 ------------------------------------------------------------------------------
 Polarizable Continuum Model (PCM)
 =================================
 Model                : PCM.
 Atomic radii         : SMD-Coulomb.
 Polarization charges : Total charges.
 Charge compensation  : None.
 Solution method      : On-the-fly selection.
 Cavity type          : VdW (van der Waals Surface) (Alpha=1.000).
 Cavity algorithm     : GePol (No added spheres)
                        Default sphere list used, NSphG=   27.
                        Lebedev-Laikov grids with approx.  5.0 points / Ang**2.
                        Smoothing algorithm: York/Karplus (Gamma=1.0000).
                        Polarization charges: spherical gaussians, with
                                              point-specific exponents (IZeta= 3).
                        Self-potential: point-specific (ISelfS= 7).
                        Self-field    : sphere-specific E.n sum rule (ISelfD= 2).
 1st derivatives      : Analytical E(r).r(x)/FMM algorithm (CHGder, D1EAlg=3).
                        Cavity 1st derivative terms included.
 Solvent              : Methanol, Eps=  32.613000 Eps(inf)=   1.765709
 ------------------------------------------------------------------------------
 GePol: Number of generator spheres                  =      27
 GePol: Total number of spheres                      =      27
 GePol: Number of exposed spheres                    =      27 (100.00%)
 GePol: Number of points                             =    1974
 GePol: Average weight of points                     =       0.11
 GePol: Minimum weight of points                     =   0.83D-09
 GePol: Maximum weight of points                     =    0.21991
 GePol: Number of points with low weight             =     110
 GePol: Fraction of low-weight points (<1% of avg)   =       5.57%
 GePol: Cavity surface area                          =    215.064 Ang**2
 GePol: Cavity volume                                =    191.272 Ang**3
 ------------------------------------------------------------------------------
 Atomic radii for non-electrostatic terms: SMD-CDS.
 ------------------------------------------------------------------------------
 PCM non-electrostatic energy =        -0.0004855264 Hartrees.
 Nuclear repulsion after PCM non-electrostatic terms =      757.8228226904 Hartrees.
 Leave Link  301 at Tue Jul  7 16:45:27 2026, MaxMem=  4026531840 cpu:               0.3 elap:               0.1
 (Enter /opt/packages/gaussian/g16RevC.01/g16/l302.exe)
 NPDir=0 NMtPBC=     1 NCelOv=     1 NCel=       1 NClECP=     1 NCelD=      1
         NCelK=      1 NCelE2=     1 NClLst=     1 CellRange=     0.0.
 One-electron integrals computed using PRISM.
 One-electron integral symmetry used in STVInt
 NBasis=   275 RedAO= T EigKep=  2.07D-06  NBF=   275
 NBsUse=   273 1.00D-06 EigRej=  8.57D-07 NBFU=   273
 Precomputing XC quadrature grid using
 IXCGrd= 4 IRadAn=           5 IRanWt=          -1 IRanGd=           0 AccXCQ= 0.00D+00.
 Generated NRdTot=       0 NPtTot=           0 NUsed=           0 NTot=          32
 NSgBfM=   274   274   274   274   274 MxSgAt=    27 MxSgA2=    27.
 Leave Link  302 at Tue Jul  7 16:45:27 2026, MaxMem=  4026531840 cpu:               1.4 elap:               0.2
 (Enter /opt/packages/gaussian/g16RevC.01/g16/l303.exe)
 DipDrv:  MaxL=1.
 Leave Link  303 at Tue Jul  7 16:45:27 2026, MaxMem=  4026531840 cpu:               0.1 elap:               0.0
 (Enter /opt/packages/gaussian/g16RevC.01/g16/l401.exe)
 Initial guess from the checkpoint file:  "iminium_ground_cam.chk"
 B after Tr=    -0.000000    0.000000    0.000000
         Rot=    1.000000   -0.000053   -0.000001   -0.000003 Ang=  -0.01 deg.
 Guess basis will be translated and rotated to current coordinates.
 JPrj=2 DoOrth=T DoCkMO=T.
 Leave Link  401 at Tue Jul  7 16:45:27 2026, MaxMem=  4026531840 cpu:               0.5 elap:               0.1
 (Enter /opt/packages/gaussian/g16RevC.01/g16/l502.exe)
 Integral symmetry usage will be decided dynamically.
 Closed shell SCF:
 Using DIIS extrapolation, IDIIS=  1040.
 NGot=  4026531840 LenX=  4026374748 LenY=  4026298682
 Requested convergence on RMS density matrix=1.00D-08 within 128 cycles.
 Requested convergence on MAX density matrix=1.00D-06.
 Requested convergence on             energy=1.00D-06.
 No special actions if energy rises.
 Fock matrices will be formed incrementally for  20 cycles.

 Cycle   1  Pass 1  IDiag  1:
 FoFJK:  IHMeth= 1 ICntrl=       0 DoSepK=T KAlg= 0 I1Cent=           0 FoldK=F
 IRaf=         1 NMat=       1 IRICut=       1 DoRegI=T DoRafI=F ISym2E= 0 IDoP0=0 IntGTp=1.
 FoFCou: FMM=F IPFlag=           0 FMFlag=      100000 FMFlg1=           0
         NFxFlg=           0 DoJE=T BraDBF=F KetDBF=F FulRan=T
         wScrn=  0.000000 ICntrl=       500 IOpCl=  0 I1Cent=           0 NGrid=           0
         NMat0=    1 NMatS0=      1 NMatT0=    0 NMatD0=    1 NMtDS0=    0 NMtDT0=    0
 Symmetry not used in FoFCou.
 Inv3:  Mode=1 IEnd=    11690028.
 Iteration    1 A*A^-1 deviation from unit magnitude is 3.00D-15 for    968.
 Iteration    1 A*A^-1 deviation from orthogonality  is 2.20D-15 for    973    236.
 Iteration    1 A^-1*A deviation from unit magnitude is 3.22D-15 for   1803.
 Iteration    1 A^-1*A deviation from orthogonality  is 1.04D-13 for   1310   1217.
 E= -557.156465575096    
 DIIS: error= 1.22D-04 at cycle   1 NSaved=   1.
 NSaved= 1 IEnMin= 1 EnMin= -557.156465575096     IErMin= 1 ErrMin= 1.22D-04
 ErrMax= 1.22D-04  0.00D+00 EMaxC= 1.00D-01 BMatC= 8.71D-06 BMatP= 8.71D-06
 IDIUse=3 WtCom= 9.99D-01 WtEn= 1.22D-03
 Coeff-Com:  0.100D+01
 Coeff-En:   0.100D+01
 Coeff:      0.100D+01
 Gap=     0.516 Goal=   None    Shift=    0.000
 RMSDP=1.65D-04 MaxDP=1.85D-02              OVMax= 6.76D-04

 Cycle   2  Pass 1  IDiag  1:
 RMSU=  1.19D-04    CP:  9.98D-01
 E= -557.156477693840     Delta-E=       -0.000012118744 Rises=F Damp=F
 DIIS: error= 3.07D-05 at cycle   2 NSaved=   2.
 NSaved= 2 IEnMin= 2 EnMin= -557.156477693840     IErMin= 2 ErrMin= 3.07D-05
 ErrMax= 3.07D-05  0.00D+00 EMaxC= 1.00D-01 BMatC= 3.33D-07 BMatP= 8.71D-06
 IDIUse=1 WtCom= 1.00D+00 WtEn= 0.00D+00
 Coeff-Com: -0.606D-01 0.106D+01
 Coeff:     -0.606D-01 0.106D+01
 Gap=     0.255 Goal=   None    Shift=    0.000
 RMSDP=2.62D-05 MaxDP=1.80D-03 DE=-1.21D-05 OVMax= 2.51D-04

 Cycle   3  Pass 1  IDiag  1:
 RMSU=  2.02D-05    CP:  9.97D-01  1.11D+00
 E= -557.156478039358     Delta-E=       -0.000000345519 Rises=F Damp=F
 DIIS: error= 2.83D-05 at cycle   3 NSaved=   3.
 NSaved= 3 IEnMin= 3 EnMin= -557.156478039358     IErMin= 3 ErrMin= 2.83D-05
 ErrMax= 2.83D-05  0.00D+00 EMaxC= 1.00D-01 BMatC= 3.02D-07 BMatP= 3.33D-07
 IDIUse=1 WtCom= 1.00D+00 WtEn= 0.00D+00
 Coeff-Com: -0.629D-01 0.545D+00 0.518D+00
 Coeff:     -0.629D-01 0.545D+00 0.518D+00
 Gap=     0.255 Goal=   None    Shift=    0.000
 RMSDP=7.62D-06 MaxDP=3.65D-04 DE=-3.46D-07 OVMax= 1.87D-04

 Cycle   4  Pass 1  IDiag  1:
 RMSU=  5.73D-06    CP:  9.97D-01  1.10D+00  7.73D-01
 E= -557.156478287324     Delta-E=       -0.000000247965 Rises=F Damp=F
 DIIS: error= 6.36D-06 at cycle   4 NSaved=   4.
 NSaved= 4 IEnMin= 4 EnMin= -557.156478287324     IErMin= 4 ErrMin= 6.36D-06
 ErrMax= 6.36D-06  0.00D+00 EMaxC= 1.00D-01 BMatC= 1.09D-08 BMatP= 3.02D-07
 IDIUse=1 WtCom= 1.00D+00 WtEn= 0.00D+00
 Coeff-Com: -0.596D-02-0.169D-01 0.135D+00 0.887D+00
 Coeff:     -0.596D-02-0.169D-01 0.135D+00 0.887D+00
 Gap=     0.255 Goal=   None    Shift=    0.000
 RMSDP=2.04D-06 MaxDP=7.36D-05 DE=-2.48D-07 OVMax= 3.00D-05

 Cycle   5  Pass 1  IDiag  1:
 RMSU=  1.75D-06    CP:  9.97D-01  1.10D+00  7.98D-01  1.15D+00
 E= -557.156478298765     Delta-E=       -0.000000011442 Rises=F Damp=F
 DIIS: error= 1.22D-06 at cycle   5 NSaved=   5.
 NSaved= 5 IEnMin= 5 EnMin= -557.156478298765     IErMin= 5 ErrMin= 1.22D-06
 ErrMax= 1.22D-06  0.00D+00 EMaxC= 1.00D-01 BMatC= 1.37D-09 BMatP= 1.09D-08
 IDIUse=1 WtCom= 1.00D+00 WtEn= 0.00D+00
 Coeff-Com:  0.209D-02-0.477D-01 0.227D-01 0.365D+00 0.658D+00
 Coeff:      0.209D-02-0.477D-01 0.227D-01 0.365D+00 0.658D+00
 Gap=     0.255 Goal=   None    Shift=    0.000
 RMSDP=1.19D-06 MaxDP=4.33D-05 DE=-1.14D-08 OVMax= 7.78D-06

 Cycle   6  Pass 1  IDiag  1:
 RMSU=  6.07D-07    CP:  9.97D-01  1.10D+00  8.44D-01  1.12D+00  7.69D-01
 E= -557.156478300285     Delta-E=       -0.000000001520 Rises=F Damp=F
 DIIS: error= 3.49D-07 at cycle   6 NSaved=   6.
 NSaved= 6 IEnMin= 6 EnMin= -557.156478300285     IErMin= 6 ErrMin= 3.49D-07
 ErrMax= 3.49D-07  0.00D+00 EMaxC= 1.00D-01 BMatC= 7.17D-11 BMatP= 1.37D-09
 IDIUse=1 WtCom= 1.00D+00 WtEn= 0.00D+00
 Coeff-Com:  0.115D-02-0.131D-01-0.452D-02 0.253D-01 0.173D+00 0.818D+00
 Coeff:      0.115D-02-0.131D-01-0.452D-02 0.253D-01 0.173D+00 0.818D+00
 Gap=     0.255 Goal=   None    Shift=    0.000
 RMSDP=2.22D-07 MaxDP=1.09D-05 DE=-1.52D-09 OVMax= 9.01D-06

 Cycle   7  Pass 1  IDiag  1:
 RMSU=  1.60D-07    CP:  9.97D-01  1.10D+00  8.44D-01  1.14D+00  7.93D-01
                    CP:  1.08D+00
 E= -557.156478300413     Delta-E=       -0.000000000128 Rises=F Damp=F
 DIIS: error= 3.07D-07 at cycle   7 NSaved=   7.
 NSaved= 7 IEnMin= 7 EnMin= -557.156478300413     IErMin= 7 ErrMin= 3.07D-07
 ErrMax= 3.07D-07  0.00D+00 EMaxC= 1.00D-01 BMatC= 1.80D-11 BMatP= 7.17D-11
 IDIUse=1 WtCom= 1.00D+00 WtEn= 0.00D+00
 Coeff-Com:  0.139D-03 0.149D-02-0.369D-02-0.381D-01-0.368D-01 0.310D+00
 Coeff-Com:  0.767D+00
 Coeff:      0.139D-03 0.149D-02-0.369D-02-0.381D-01-0.368D-01 0.310D+00
 Coeff:      0.767D+00
 Gap=     0.255 Goal=   None    Shift=    0.000
 RMSDP=1.32D-07 MaxDP=3.98D-06 DE=-1.28D-10 OVMax= 2.47D-06

 Cycle   8  Pass 1  IDiag  1:
 RMSU=  9.39D-08    CP:  9.97D-01  1.10D+00  8.47D-01  1.15D+00  7.90D-01
                    CP:  1.19D+00  1.05D+00
 E= -557.156478300457     Delta-E=       -0.000000000044 Rises=F Damp=F
 DIIS: error= 4.58D-08 at cycle   8 NSaved=   8.
 NSaved= 8 IEnMin= 8 EnMin= -557.156478300457     IErMin= 8 ErrMin= 4.58D-08
 ErrMax= 4.58D-08  0.00D+00 EMaxC= 1.00D-01 BMatC= 1.69D-12 BMatP= 1.80D-11
 IDIUse=1 WtCom= 1.00D+00 WtEn= 0.00D+00
 Coeff-Com: -0.138D-03 0.253D-02 0.113D-03-0.159D-01-0.433D-01-0.125D-01
 Coeff-Com:  0.205D+00 0.864D+00
 Coeff:     -0.138D-03 0.253D-02 0.113D-03-0.159D-01-0.433D-01-0.125D-01
 Coeff:      0.205D+00 0.864D+00
 Gap=     0.255 Goal=   None    Shift=    0.000
 RMSDP=4.98D-08 MaxDP=1.82D-06 DE=-4.43D-11 OVMax= 1.78D-06

 Cycle   9  Pass 1  IDiag  1:
 RMSU=  2.88D-08    CP:  9.97D-01  1.10D+00  8.48D-01  1.14D+00  7.81D-01
                    CP:  1.22D+00  1.12D+00  1.07D+00
 E= -557.156478300460     Delta-E=       -0.000000000003 Rises=F Damp=F
 DIIS: error= 4.06D-08 at cycle   9 NSaved=   9.
 NSaved= 9 IEnMin= 9 EnMin= -557.156478300460     IErMin= 9 ErrMin= 4.06D-08
 ErrMax= 4.06D-08  0.00D+00 EMaxC= 1.00D-01 BMatC= 2.42D-13 BMatP= 1.69D-12
 IDIUse=1 WtCom= 1.00D+00 WtEn= 0.00D+00
 Coeff-Com: -0.467D-04 0.468D-03 0.603D-03-0.356D-03-0.887D-02-0.250D-01
 Coeff-Com: -0.341D-01 0.232D+00 0.836D+00
 Coeff:     -0.467D-04 0.468D-03 0.603D-03-0.356D-03-0.887D-02-0.250D-01
 Coeff:     -0.341D-01 0.232D+00 0.836D+00
 Gap=     0.255 Goal=   None    Shift=    0.000
 RMSDP=1.68D-08 MaxDP=7.61D-07 DE=-2.50D-12 OVMax= 6.22D-07

 Cycle  10  Pass 1  IDiag  1:
 RMSU=  8.58D-09    CP:  9.97D-01  1.10D+00  8.49D-01  1.14D+00  7.78D-01
                    CP:  1.23D+00  1.15D+00  1.16D+00  1.17D+00
 E= -557.156478300463     Delta-E=       -0.000000000003 Rises=F Damp=F
 DIIS: error= 1.12D-08 at cycle  10 NSaved=  10.
 NSaved=10 IEnMin=10 EnMin= -557.156478300463     IErMin=10 ErrMin= 1.12D-08
 ErrMax= 1.12D-08  0.00D+00 EMaxC= 1.00D-01 BMatC= 5.10D-14 BMatP= 2.42D-13
 IDIUse=1 WtCom= 1.00D+00 WtEn= 0.00D+00
 Coeff-Com:  0.150D-04-0.410D-03 0.230D-03 0.329D-02 0.573D-02-0.304D-02
 Coeff-Com: -0.624D-01-0.124D+00 0.261D+00 0.919D+00
 Coeff:      0.150D-04-0.410D-03 0.230D-03 0.329D-02 0.573D-02-0.304D-02
 Coeff:     -0.624D-01-0.124D+00 0.261D+00 0.919D+00
 Gap=     0.255 Goal=   None    Shift=    0.000
 RMSDP=1.12D-08 MaxDP=4.22D-07 DE=-2.84D-12 OVMax= 3.36D-07

 Cycle  11  Pass 1  IDiag  1:
 RMSU=  3.11D-09    CP:  9.97D-01  1.10D+00  8.49D-01  1.14D+00  7.76D-01
                    CP:  1.23D+00  1.15D+00  1.22D+00  1.36D+00  1.26D+00
 E= -557.156478300466     Delta-E=       -0.000000000003 Rises=F Damp=F
 DIIS: error= 3.03D-09 at cycle  11 NSaved=  11.
 NSaved=11 IEnMin=11 EnMin= -557.156478300466     IErMin=11 ErrMin= 3.03D-09
 ErrMax= 3.03D-09  0.00D+00 EMaxC= 1.00D-01 BMatC= 2.07D-15 BMatP= 5.10D-14
 IDIUse=1 WtCom= 1.00D+00 WtEn= 0.00D+00
 Coeff-Com:  0.659D-05-0.127D-03 0.255D-04 0.764D-03 0.173D-02 0.177D-02
 Coeff-Com: -0.118D-01-0.415D-01 0.204D-01 0.190D+00 0.838D+00
 Coeff:      0.659D-05-0.127D-03 0.255D-04 0.764D-03 0.173D-02 0.177D-02
 Coeff:     -0.118D-01-0.415D-01 0.204D-01 0.190D+00 0.838D+00
 Gap=     0.255 Goal=   None    Shift=    0.000
 RMSDP=1.49D-09 MaxDP=6.04D-08 DE=-3.07D-12 OVMax= 4.93D-08

 Error on total polarization charges =  0.05312
 SCF Done:  E(RCAM-B3LYP) =  -557.156478300     A.U. after   11 cycles
            NFock= 11  Conv=0.15D-08     -V/T= 2.0094
 KE= 5.519713119350D+02 PE=-2.793339550276D+03 EE= 9.263889373503D+02
 SMD-CDS (non-electrostatic) energy       (kcal/mol) =      -0.30
 (included in total energy above)
 Leave Link  502 at Tue Jul  7 16:45:54 2026, MaxMem=  4026531840 cpu:             214.1 elap:              27.1
 (Enter /opt/packages/gaussian/g16RevC.01/g16/l701.exe)
 ... and contract with generalized density number  0.
 Compute integral first derivatives.
 D1PCM: PCM CHGder 1st derivatives, ID1Alg=3 FixD1E=F DoIter=F DoCFld=F I1PDM=0.
 GePol: Maximum number of non-zero 1st derivatives   =     256
 Leave Link  701 at Tue Jul  7 16:45:55 2026, MaxMem=  4026531840 cpu:               6.4 elap:               0.8
 (Enter /opt/packages/gaussian/g16RevC.01/g16/l702.exe)
 L702 exits ... SP integral derivatives will be done elsewhere.
 Leave Link  702 at Tue Jul  7 16:45:55 2026, MaxMem=  4026531840 cpu:               0.1 elap:               0.0
 (Enter /opt/packages/gaussian/g16RevC.01/g16/l703.exe)
 Integral derivatives from FoFJK, PRISM(SPDF).
 Compute integral first derivatives, UseDBF=F ICtDFT=           0.
 Calling FoFJK, ICntrl=      2127 FMM=F ISym2X=0 I1Cent= 0 IOpClX= 0 NMat=1 NMatS=1 NMatT=0.
 FoFJK:  IHMeth= 1 ICntrl=    2127 DoSepK=T KAlg= 0 I1Cent=           0 FoldK=F
 IRaf=         1 NMat=       1 IRICut=       1 DoRegI=T DoRafI=F ISym2E= 0 IDoP0=0 IntGTp=1.
 FoFCou: FMM=F IPFlag=           0 FMFlag=      100000 FMFlg1=         800
         NFxFlg=           0 DoJE=F BraDBF=F KetDBF=F FulRan=T
         wScrn=  0.000000 ICntrl=      2527 IOpCl=  0 I1Cent=           0 NGrid=           0
         NMat0=    1 NMatS0=      1 NMatT0=    0 NMatD0=    1 NMtDS0=    0 NMtDT0=    0
 Symmetry not used in FoFCou.
 Leave Link  703 at Tue Jul  7 16:46:03 2026, MaxMem=  4026531840 cpu:              64.0 elap:               8.0
 (Enter /opt/packages/gaussian/g16RevC.01/g16/l716.exe)
 Dipole        = 2.85074994D+00-1.59126261D-01 1.42041573D-01
 ***** Axes restored to original set *****
 -------------------------------------------------------------------
 Center     Atomic                   Forces (Hartrees/Bohr)
 Number     Number              X              Y              Z
 -------------------------------------------------------------------
      1        6           0.000184107   -0.000008608    0.000017823
      2        6           0.000006293    0.000035082    0.000004536
      3        6           0.000077635    0.000030766    0.000014337
      4        6          -0.000076842   -0.000034478   -0.000008036
      5        6           0.000023411   -0.000010325   -0.000005805
      6        6          -0.000043075   -0.000036520   -0.000008063
      7        1           0.000013234    0.000001163   -0.000003948
      8        1           0.000020774    0.000009320    0.000003030
      9        1          -0.000005236   -0.000003448    0.000001281
     10        1          -0.000004557   -0.000012108   -0.000000697
     11        8          -0.000170472   -0.000091222    0.000013599
     12        6           0.000137549    0.000225216   -0.000003761
     13        1          -0.000005600   -0.000032610    0.000021202
     14        1          -0.000006338   -0.000036185   -0.000003243
     15        1          -0.000023065   -0.000000989    0.000006827
     16        6          -0.000025355   -0.000013758   -0.000002710
     17        6          -0.000018692    0.000013227   -0.000038895
     18        7          -0.000081578    0.000016401    0.000020611
     19        6           0.000071833   -0.000072143   -0.000024270
     20        6          -0.000013373    0.000013756    0.000022535
     21        1          -0.000021645   -0.000001140    0.000003882
     22        1           0.000007329    0.000002796    0.000016660
     23        1          -0.000006473   -0.000007025    0.000007948
     24        1          -0.000024231    0.000004126   -0.000006673
     25        1          -0.000008248    0.000001765   -0.000026435
     26        1          -0.000002383    0.000002081   -0.000000666
     27        1          -0.000005003    0.000004861   -0.000021069
 -------------------------------------------------------------------
 Cartesian Forces:  Max     0.000225216 RMS     0.000048489
 Leave Link  716 at Tue Jul  7 16:46:03 2026, MaxMem=  4026531840 cpu:               0.1 elap:               0.0
 (Enter /opt/packages/gaussian/g16RevC.01/g16/l103.exe)

 GradGradGradGradGradGradGradGradGradGradGradGradGradGradGradGradGradGrad
 Berny optimization.
 Using GEDIIS/GDIIS optimizer.
 FormGI is forming the generalized inverse of G from B-inverse, IUseBI=4.
 GSVD:  received Info=                   1 from GESDD.
 Internal  Forces:  Max     0.000170918 RMS     0.000029123
 Search for a local minimum.
 Step number   4 out of a maximum of  154
 All quantities printed in internal units (Hartrees-Bohrs-Radians)
 RMS Force = .29123D-04 SwitMx=.10000D-02 MixMth= 2
 Mixed Optimization -- En-DIIS/RFO-DIIS
 Swapping is turned off.
 Update second derivatives using D2CorX and points    1    2    3    4
 DE= -4.27D-06 DEPred=-4.18D-06 R= 1.02D+00
 TightC=F SS=  1.41D+00  RLast= 8.75D-03 DXNew= 5.0454D-01 2.6254D-02
 Trust test= 1.02D+00 RLast= 8.75D-03 DXMaxT set to 3.00D-01
 ITU=  1  1  1  0
     Eigenvalues ---    0.00387   0.01044   0.01167   0.01281   0.01427
     Eigenvalues ---    0.01758   0.01777   0.01921   0.02015   0.02049
     Eigenvalues ---    0.02077   0.02105   0.02120   0.02145   0.02200
     Eigenvalues ---    0.02337   0.03300   0.03552   0.04932   0.05168
     Eigenvalues ---    0.05579   0.05888   0.06880   0.07463   0.08349
     Eigenvalues ---    0.08408   0.09368   0.10105   0.10662   0.10961
     Eigenvalues ---    0.14372   0.15955   0.15994   0.16000   0.16000
     Eigenvalues ---    0.16000   0.16002   0.16071   0.21502   0.21995
     Eigenvalues ---    0.22311   0.22876   0.23745   0.24969   0.24988
     Eigenvalues ---    0.25061   0.27299   0.28017   0.30379   0.31725
     Eigenvalues ---    0.33762   0.33874   0.34131   0.34248   0.34281
     Eigenvalues ---    0.34348   0.34501   0.34543   0.34580   0.34645
     Eigenvalues ---    0.34908   0.35279   0.35300   0.35416   0.36872
     Eigenvalues ---    0.40134   0.41025   0.41447   0.44631   0.44830
     Eigenvalues ---    0.45519   0.46373   0.51951   0.60156   0.60448
 En-DIIS/RFO-DIIS/Sim-DIIS IScMMF=       -3 using points:     4    3    2
 RFO step:  Lambda=-5.33274813D-07.
 NNeg= 0 NGDIIS= 3 SimSw=  2.50D-01 Rises=F DC= -4.27D-06 SmlDif=  1.00D-05
 NRisDI= 0 DoIntr=F SqrtH=F CThrHd= 10.0 CDAdj=  3.0
 RMS Error=  0.4100093360D-03 NUsed= 3 OKEnD=F EnDIS=F
 InvSVX:  RCond= 5.89D-06 Info=           0 Equed=N FErr=  4.00D-15 BErr=  6.07D-17
 DidBck=F Rises=F RFO-DIIS coefs:    1.31873   -0.24538   -0.07335
 Iteration  1 RMS(Cart)=  0.00089954 RMS(Int)=  0.00000033
 Iteration  2 RMS(Cart)=  0.00000047 RMS(Int)=  0.00000011
 ITry= 1 IFail=0 DXMaxC= 4.27D-03 DCOld= 1.00D+10 DXMaxT= 3.00D-01 DXLimC= 3.00D+00 Rises=F
 Variable       Old X    -DE/DX   Delta X   Delta X   Delta X     New X
                                 (Linear)    (Quad)   (Total)
    R1        2.64173  -0.00002   0.00013  -0.00016  -0.00003   2.64170
    R2        2.65521  -0.00008   0.00027  -0.00041  -0.00014   2.65507
    R3        2.54407   0.00007   0.00009   0.00005   0.00015   2.54422
    R4        2.61990  -0.00005   0.00041  -0.00044  -0.00002   2.61988
    R5        2.04646  -0.00002   0.00010  -0.00013  -0.00003   2.04643
    R6        2.64969  -0.00012   0.00011  -0.00039  -0.00028   2.64941
    R7        2.04909   0.00000   0.00004  -0.00002   0.00001   2.04910
    R8        2.66643  -0.00006   0.00019  -0.00030  -0.00011   2.66632
    R9        2.73311  -0.00013   0.00082  -0.00094  -0.00012   2.73299
   R10        2.59995  -0.00006   0.00032  -0.00037  -0.00005   2.59989
   R11        2.05111  -0.00001   0.00005  -0.00008  -0.00003   2.05108
   R12        2.05083  -0.00001   0.00006  -0.00006  -0.00000   2.05083
   R13        2.70339  -0.00017  -0.00074   0.00008  -0.00066   2.70273
   R14        2.06725   0.00003   0.00016  -0.00003   0.00013   2.06738
   R15        2.06729   0.00003   0.00016  -0.00003   0.00013   2.06742
   R16        2.05925   0.00002   0.00010  -0.00002   0.00008   2.05933
   R17        2.83875  -0.00004   0.00019  -0.00031  -0.00012   2.83863
   R18        2.45580  -0.00005  -0.00006  -0.00006  -0.00012   2.45568
   R19        2.90539  -0.00001   0.00016  -0.00019  -0.00003   2.90537
   R20        2.06238   0.00000   0.00005  -0.00003   0.00002   2.06240
   R21        2.07374   0.00001   0.00011  -0.00004   0.00007   2.07380
   R22        2.77787   0.00004   0.00018  -0.00003   0.00015   2.77801
   R23        1.92138   0.00001   0.00005  -0.00002   0.00003   1.92141
   R24        2.89173  -0.00003   0.00021  -0.00027  -0.00006   2.89167
   R25        2.06791   0.00001   0.00008  -0.00004   0.00005   2.06795
   R26        2.06153  -0.00001   0.00005  -0.00006  -0.00002   2.06151
   R27        2.06601   0.00002   0.00009  -0.00001   0.00008   2.06608
   R28        2.06138  -0.00000   0.00006  -0.00005   0.00001   2.06139
    A1        2.09567   0.00004  -0.00001   0.00018   0.00017   2.09583
    A2        2.16750   0.00001  -0.00023   0.00023  -0.00000   2.16750
    A3        2.02002  -0.00005   0.00025  -0.00041  -0.00017   2.01985
    A4        2.08105  -0.00001   0.00001  -0.00002  -0.00001   2.08104
    A5        2.11682   0.00002   0.00001   0.00010   0.00012   2.11693
    A6        2.08531  -0.00001  -0.00003  -0.00008  -0.00011   2.08520
    A7        2.12058  -0.00005  -0.00005  -0.00020  -0.00025   2.12033
    A8        2.06566   0.00002  -0.00007   0.00014   0.00007   2.06573
    A9        2.09695   0.00003   0.00012   0.00006   0.00018   2.09713
   A10        2.06548   0.00008   0.00010   0.00025   0.00035   2.06582
   A11        2.08060  -0.00005   0.00011  -0.00028  -0.00017   2.08044
   A12        2.13710  -0.00003  -0.00021   0.00003  -0.00018   2.13692
   A13        2.10626  -0.00002  -0.00007  -0.00006  -0.00012   2.10613
   A14        2.11625   0.00001   0.00015  -0.00006   0.00009   2.11634
   A15        2.06068   0.00001  -0.00008   0.00012   0.00003   2.06071
   A16        2.09732  -0.00003   0.00002  -0.00015  -0.00013   2.09719
   A17        2.07483   0.00003  -0.00008   0.00018   0.00010   2.07494
   A18        2.11103   0.00001   0.00005  -0.00003   0.00003   2.11106
   A19        2.07842  -0.00001   0.00006  -0.00005   0.00001   2.07843
   A20        1.93137   0.00003   0.00038  -0.00011   0.00027   1.93164
   A21        1.93082   0.00002   0.00040  -0.00014   0.00026   1.93108
   A22        1.84116   0.00002   0.00037  -0.00014   0.00022   1.84138
   A23        1.92646  -0.00004  -0.00042   0.00005  -0.00037   1.92609
   A24        1.91626  -0.00001  -0.00035   0.00017  -0.00017   1.91609
   A25        1.91604  -0.00002  -0.00035   0.00016  -0.00019   1.91585
   A26        2.19428  -0.00002  -0.00011   0.00002  -0.00008   2.19420
   A27        2.18079  -0.00002   0.00000  -0.00006  -0.00006   2.18073
   A28        1.90774   0.00004   0.00010   0.00004   0.00014   1.90788
   A29        1.81134  -0.00001  -0.00013  -0.00004  -0.00017   1.81117
   A30        1.95369  -0.00001   0.00021  -0.00024  -0.00003   1.95366
   A31        1.88051   0.00001  -0.00005   0.00003  -0.00002   1.88049
   A32        1.97750   0.00001   0.00018   0.00005   0.00023   1.97772
   A33        1.96264  -0.00000   0.00003  -0.00006  -0.00003   1.96261
   A34        1.87685  -0.00000  -0.00024   0.00024   0.00000   1.87685
   A35        2.00844  -0.00003  -0.00004  -0.00015  -0.00018   2.00826
   A36        2.16274   0.00001   0.00017  -0.00006   0.00011   2.16285
   A37        2.10965   0.00002  -0.00012   0.00023   0.00011   2.10976
   A38        1.78362   0.00000  -0.00005  -0.00002  -0.00007   1.78355
   A39        1.89167  -0.00000  -0.00011   0.00005  -0.00006   1.89160
   A40        1.91201  -0.00002   0.00022  -0.00039  -0.00017   1.91184
   A41        1.97591  -0.00000  -0.00002   0.00005   0.00003   1.97594
   A42        1.99345   0.00001   0.00017  -0.00001   0.00017   1.99362
   A43        1.90130   0.00001  -0.00020   0.00028   0.00008   1.90138
   A44        1.81886   0.00000  -0.00002  -0.00005  -0.00007   1.81879
   A45        1.91747  -0.00000  -0.00008   0.00006  -0.00001   1.91745
   A46        1.96243   0.00000   0.00030  -0.00020   0.00010   1.96253
   A47        1.91841  -0.00000  -0.00006   0.00001  -0.00005   1.91836
   A48        1.95448  -0.00000   0.00016  -0.00017  -0.00001   1.95448
   A49        1.89154   0.00001  -0.00030   0.00033   0.00004   1.89157
    D1       -0.00548   0.00000  -0.00001   0.00003   0.00002  -0.00547
    D2        3.13885   0.00000  -0.00008   0.00024   0.00017   3.13902
    D3        3.13692  -0.00001   0.00012  -0.00043  -0.00031   3.13661
    D4       -0.00194  -0.00000   0.00006  -0.00022  -0.00016  -0.00209
    D5        0.00233  -0.00000   0.00001  -0.00009  -0.00008   0.00225
    D6       -3.13867  -0.00000   0.00001  -0.00019  -0.00018  -3.13885
    D7       -3.14000   0.00000  -0.00011   0.00034   0.00022  -3.13978
    D8        0.00218   0.00000  -0.00011   0.00023   0.00012   0.00230
    D9       -0.00355  -0.00001  -0.00024  -0.00010  -0.00034  -0.00389
   D10        3.13882  -0.00001  -0.00011  -0.00055  -0.00065   3.13817
   D11        0.00333  -0.00000   0.00005  -0.00006  -0.00002   0.00331
   D12       -3.14138   0.00000  -0.00001   0.00016   0.00015  -3.14123
   D13       -3.14095  -0.00000   0.00011  -0.00028  -0.00017  -3.14112
   D14       -0.00248  -0.00000   0.00005  -0.00005  -0.00000  -0.00248
   D15        0.00193   0.00000  -0.00008   0.00016   0.00008   0.00201
   D16        3.13917   0.00001  -0.00010   0.00037   0.00027   3.13944
   D17       -3.13649  -0.00000  -0.00002  -0.00007  -0.00009  -3.13658
   D18        0.00075   0.00000  -0.00004   0.00014   0.00011   0.00086
   D19       -0.00515  -0.00000   0.00008  -0.00021  -0.00014  -0.00529
   D20        3.13603   0.00000   0.00009  -0.00003   0.00005   3.13608
   D21        3.14095  -0.00001   0.00010  -0.00044  -0.00034   3.14061
   D22       -0.00106  -0.00000   0.00011  -0.00026  -0.00015  -0.00121
   D23       -0.00827   0.00001   0.00084   0.00010   0.00094  -0.00733
   D24       -3.11702   0.00001   0.00086  -0.00017   0.00069  -3.11632
   D25        3.12878   0.00001   0.00081   0.00033   0.00115   3.12993
   D26        0.02003   0.00001   0.00084   0.00006   0.00090   0.02093
   D27        0.00306   0.00000  -0.00004   0.00018   0.00014   0.00320
   D28       -3.13914   0.00001  -0.00005   0.00028   0.00024  -3.13890
   D29       -3.13814  -0.00000  -0.00005   0.00001  -0.00005  -3.13818
   D30        0.00285   0.00000  -0.00005   0.00011   0.00006   0.00291
   D31        1.06952  -0.00000   0.00012   0.00004   0.00016   1.06968
   D32       -1.07120   0.00001   0.00012   0.00015   0.00027  -1.07093
   D33        3.14103   0.00000   0.00012   0.00011   0.00023   3.14126
   D34        2.93556  -0.00000  -0.00020  -0.00064  -0.00084   2.93473
   D35        0.79683  -0.00001  -0.00045  -0.00054  -0.00099   0.79584
   D36       -1.26318  -0.00001  -0.00025  -0.00072  -0.00097  -1.26415
   D37       -0.23455  -0.00000  -0.00022  -0.00040  -0.00063  -0.23518
   D38       -2.37329  -0.00001  -0.00047  -0.00030  -0.00078  -2.37407
   D39        1.84988  -0.00001  -0.00027  -0.00048  -0.00075   1.84913
   D40        3.09182   0.00000   0.00004   0.00040   0.00044   3.09227
   D41        0.02346  -0.00000  -0.00016   0.00006  -0.00010   0.02336
   D42       -0.02152   0.00000   0.00007   0.00016   0.00024  -0.02128
   D43       -3.08988  -0.00000  -0.00013  -0.00018  -0.00031  -3.09019
   D44        0.38117   0.00000   0.00027   0.00049   0.00076   0.38192
   D45       -1.67343   0.00001   0.00039   0.00047   0.00086  -1.67257
   D46        2.50161  -0.00000   0.00062   0.00014   0.00076   2.50237
   D47        2.50408  -0.00000   0.00054   0.00019   0.00074   2.50482
   D48        0.44949  -0.00000   0.00066   0.00018   0.00084   0.45033
   D49       -1.65865  -0.00001   0.00089  -0.00015   0.00074  -1.65792
   D50       -1.64624   0.00000   0.00038   0.00051   0.00089  -1.64535
   D51        2.58235   0.00001   0.00050   0.00049   0.00099   2.58334
   D52        0.47421   0.00000   0.00073   0.00016   0.00089   0.47510
   D53        0.26741   0.00000   0.00011   0.00016   0.00027   0.26768
   D54       -1.82321   0.00000   0.00021   0.00009   0.00030  -1.82291
   D55        2.38748   0.00001   0.00039  -0.00005   0.00034   2.38782
   D56       -2.94498   0.00001   0.00032   0.00048   0.00080  -2.94418
   D57        1.24758   0.00001   0.00042   0.00041   0.00083   1.24841
   D58       -0.82491   0.00001   0.00060   0.00027   0.00087  -0.82404
   D59       -0.38461  -0.00000  -0.00025  -0.00040  -0.00065  -0.38525
   D60        1.66933  -0.00001  -0.00038  -0.00034  -0.00072   1.66861
   D61       -2.51032  -0.00000  -0.00069  -0.00003  -0.00071  -2.51104
   D62        1.64598  -0.00000  -0.00041  -0.00033  -0.00075   1.64523
   D63       -2.58327  -0.00001  -0.00055  -0.00028  -0.00082  -2.58409
   D64       -0.47974  -0.00001  -0.00085   0.00004  -0.00081  -0.48055
   D65       -2.44762   0.00001  -0.00056   0.00009  -0.00047  -2.44810
   D66       -0.39368   0.00001  -0.00069   0.00014  -0.00055  -0.39423
   D67        1.70985   0.00001  -0.00100   0.00046  -0.00054   1.70930
         Item               Value     Threshold  Converged?
 Maximum Force            0.000171     0.000450     YES
 RMS     Force            0.000029     0.000300     YES
 Maximum Displacement     0.004267     0.001800     NO 
 RMS     Displacement     0.000900     0.001200     YES
 Predicted change in Energy=-2.666018D-07
 Lowest energy point so far.  Saving SCF results.
 GradGradGradGradGradGradGradGradGradGradGradGradGradGradGradGradGradGrad

 Leave Link  103 at Tue Jul  7 16:46:03 2026, MaxMem=  4026531840 cpu:               0.2 elap:               0.0
 (Enter /opt/packages/gaussian/g16RevC.01/g16/l202.exe)
                          Input orientation:                          
 ---------------------------------------------------------------------
 Center     Atomic      Atomic             Coordinates (Angstroms)
 Number     Number       Type             X           Y           Z
 ---------------------------------------------------------------------
      1          6           0       -2.475986    0.267507   -0.011280
      2          6           0       -1.847367   -0.980244    0.035167
      3          6           0       -0.462338   -1.040716    0.044350
      4          6           0        0.321572    0.121210    0.012067
      5          6           0       -0.333006    1.370495   -0.028028
      6          6           0       -1.706838    1.442895   -0.041417
      7          1           0       -2.215020    2.401233   -0.074735
      8          1           0       -2.420966   -1.898405    0.061366
      9          1           0        0.010377   -2.015931    0.080215
     10          1           0        0.227626    2.299641   -0.048968
     11          8           0       -3.810858    0.441900   -0.029708
     12          6           0       -4.662494   -0.706871   -0.005497
     13          1           0       -4.506523   -1.284080    0.910668
     14          1           0       -4.488904   -1.334275   -0.884779
     15          1           0       -5.679515   -0.316004   -0.026547
     16          6           0        1.762708    0.000669    0.026143
     17          6           0        2.534526   -1.286791    0.082418
     18          7           0        2.593299    1.000068    0.026406
     19          6           0        4.013552    0.629476    0.107787
     20          6           0        3.978276   -0.862073   -0.232171
     21          1           0        2.140999   -2.028862   -0.614407
     22          1           0        2.429298   -1.695823    1.095299
     23          1           0        4.365351    0.832039    1.124019
     24          1           0        4.589395    1.234948   -0.593553
     25          1           0        4.184509   -1.006505   -1.296110
     26          1           0        4.713376   -1.428956    0.340722
     27          1           0        2.307150    1.975688    0.036327
 ---------------------------------------------------------------------
                    Distance matrix (angstroms):
                    1          2          3          4          5
     1  C    0.000000
     2  C    1.397927   0.000000
     3  C    2.401941   1.386379   0.000000
     4  C    2.801478   2.432700   1.402009   0.000000
     5  C    2.410233   2.797008   2.415761   1.410954   0.000000
     6  C    1.405003   2.428418   2.779291   2.421602   1.375803
     7  H    2.150562   3.403180   3.864335   3.411794   2.146294
     8  H    2.167829   1.082923   2.138257   3.406287   3.879855
     9  H    3.377049   2.127414   1.084338   2.160754   3.405511
    10  H    3.382382   3.882051   3.412146   2.181310   1.085385
    11  O    1.346342   2.425284   3.662816   4.145066   3.599687
    12  C    2.393797   2.828662   4.213698   5.052420   4.802127
    13  H    2.716707   2.816013   4.143087   5.108114   5.034497
    14  H    2.716716   2.819461   4.142788   5.105238   5.032027
    15  H    3.256274   3.889779   5.267748   6.017117   5.606196
    16  C    4.247249   3.740977   2.456754   1.446237   2.504271
    17  C    5.246889   4.392856   3.007190   2.623848   3.911023
    18  N    5.122081   4.862224   3.674512   2.435845   2.950159
    19  C    6.500715   6.078392   4.777777   3.728031   4.411363
    20  C    6.556084   5.832971   4.452800   3.794468   4.859340
    21  H    5.191688   4.174759   2.861426   2.885411   4.245017
    22  H    5.398239   4.463832   3.145666   2.986219   4.277206
    23  H    6.957836   6.562609   5.289563   4.253688   4.867412
    24  H    7.155039   6.836247   5.577237   4.452134   4.956634
    25  H    6.901890   6.177096   4.836444   4.231471   5.259858
    26  H    7.395188   6.583164   5.198709   4.668936   5.782635
    27  H    5.079226   5.098779   4.094975   2.717020   2.709396
                    6          7          8          9         10
     6  C    0.000000
     7  H    1.085252   0.000000
     8  H    3.418308   4.306719   0.000000
     9  H    3.863560   4.948508   2.434255   0.000000
    10  H    2.115708   2.444893   4.964958   4.322967   0.000000
    11  O    2.330028   2.527393   2.723440   4.544761   4.445327
    12  C    3.654954   3.956670   2.539424   4.853525   5.740582
    13  H    4.022573   4.450117   2.334151   4.650553   6.014660
    14  H    4.020426   4.447555   2.343033   4.651817   6.012452
    15  H    4.344665   4.403229   3.623516   5.939362   6.460373
    16  C    3.757968   4.647063   4.594655   2.672127   2.765392
    17  C    5.045362   6.015347   4.993136   2.627351   4.266327
    18  N    4.323410   5.009334   5.791824   3.971225   2.700182
    19  C    5.779859   6.478236   6.913419   4.798369   4.140925
    20  C    6.137572   7.002205   6.489257   4.144056   4.908908
    21  H    5.214141   6.236336   4.613590   2.241031   4.766200
    22  H    5.315194   6.302740   4.963377   2.642734   4.703237
    23  H    6.213120   6.870273   7.391797   5.307189   4.544285
    24  H    6.323815   6.923110   7.706619   5.655933   4.522739
    25  H    6.502444   7.352442   6.802244   4.509611   5.304987
    26  H    7.043628   7.927522   7.155225   4.746641   5.846045
    27  H    4.049940   4.543506   6.112635   4.605444   2.106334
                   11         12         13         14         15
    11  O    0.000000
    12  C    1.430225   0.000000
    13  H    2.085010   1.094009   0.000000
    14  H    2.084632   1.094032   1.796236   0.000000
    15  H    2.016508   1.089749   1.786464   1.786335   0.000000
    16  C    5.591283   6.464119   6.460358   6.457129   7.449144
    17  C    6.577602   7.220881   7.089596   7.089872   8.271926
    18  N    6.428681   7.453938   7.510441   7.512457   8.377010
    19  C    7.827866   8.779091   8.769151   8.782555   9.739996
    20  C    7.900124   8.645137   8.571814   8.505411   9.675402
    21  H    6.470792   6.957439   6.860766   6.671669   8.027447
    22  H    6.691416   7.244535   6.950484   7.205064   8.301523
    23  H    8.266420   9.227461   9.123247   9.334132  10.175517
    24  H    8.456424   9.471743   9.557401   9.439345  10.400839
    25  H    8.223597   8.945665   8.971118   8.689345   9.969331
    26  H    8.734981   9.410006   9.238634   9.284006  10.458763
    27  H    6.307686   7.468187   7.603730   7.615159   8.309189
                   16         17         18         19         20
    16  C    0.000000
    17  C    1.502140   0.000000
    18  N    1.299492   2.288299   0.000000
    19  C    2.338453   2.420794   1.470061   0.000000
    20  C    2.391609   1.537455   2.335079   1.530207   0.000000
    21  H    2.161575   1.091374   3.128839   3.330883   2.209771
    22  H    2.113178   1.097409   2.904695   2.981955   2.203781
    23  H    2.944530   2.987691   2.091209   1.094313   2.204335
    24  H    3.146049   3.322437   2.103311   1.090902   2.213946
    25  H    2.937324   2.168258   2.882244   2.162542   1.093324
    26  H    3.293817   2.198709   3.239394   2.186585   1.090841
    27  H    2.048712   3.270718   1.016767   2.174672   3.304185
                   21         22         23         24         25
    21  H    0.000000
    22  H    1.765538   0.000000
    23  H    4.019281   3.184213   0.000000
    24  H    4.080139   4.013434   1.778365   0.000000
    25  H    2.384505   3.045449   3.044663   2.383617   0.000000
    26  H    2.808786   2.420251   2.418011   2.825708   1.771265
    27  H    4.060478   3.823131   2.593684   2.480743   3.767405
                   26         27
    26  H    0.000000
    27  H    4.180212   0.000000
 Stoichiometry    C11H14NO(1+)
 Framework group  C1[X(C11H14NO)]
 Deg. of freedom    75
 Full point group                 C1      NOp   1
 RotChk:  IX=0 Diff= 1.24D-04
 Largest Abelian subgroup         C1      NOp   1
 Largest concise Abelian subgroup C1      NOp   1
                         Standard orientation:                         
 ---------------------------------------------------------------------
 Center     Atomic      Atomic             Coordinates (Angstroms)
 Number     Number       Type             X           Y           Z
 ---------------------------------------------------------------------
      1          6           0       -2.476696    0.266665   -0.010689
      2          6           0       -1.847662   -0.980917    0.034678
      3          6           0       -0.462612   -1.040942    0.043638
      4          6           0        0.320913    0.121266    0.012187
      5          6           0       -0.334080    1.370368   -0.026823
      6          6           0       -1.707937    1.442328   -0.039980
      7          1           0       -2.216437    2.400527   -0.072465
      8          1           0       -2.420957   -1.899287    0.060213
      9          1           0        0.010427   -2.016030    0.078661
     10          1           0        0.226245    2.299715   -0.047089
     11          8           0       -3.811628    0.440635   -0.028809
     12          6           0       -4.662884   -0.708435   -0.005411
     13          1           0       -4.506608   -1.286327    0.910271
     14          1           0       -4.489200   -1.335076   -0.885219
     15          1           0       -5.680036   -0.317884   -0.026020
     16          6           0        1.762090    0.001187    0.025986
     17          6           0        2.534336   -1.286065    0.081130
     18          7           0        2.592353    1.000857    0.026945
     19          6           0        4.012738    0.630666    0.107849
     20          6           0        3.977908   -0.860622   -0.233300
     21          1           0        2.140965   -2.027706   -0.616240
     22          1           0        2.429371   -1.695944    1.093696
     23          1           0        4.364599    0.832529    1.124199
     24          1           0        4.588294    1.236888   -0.593077
     25          1           0        4.184054   -1.004133   -1.297380
     26          1           0        4.713265   -1.427723    0.339045
     27          1           0        2.305886    1.976375    0.037684
 ---------------------------------------------------------------------
 Rotational constants (GHZ):           2.8720760           0.3539922           0.3181828
 Leave Link  202 at Tue Jul  7 16:46:03 2026, MaxMem=  4026531840 cpu:               0.0 elap:               0.0
 (Enter /opt/packages/gaussian/g16RevC.01/g16/l301.exe)
 Standard basis: 6-31+G(d) (6D, 7F)
 Ernie: Thresh=  0.10000D-02 Tol=  0.10000D-05 Strict=F.
 There are   275 symmetry adapted cartesian basis functions of A   symmetry.
 There are   275 symmetry adapted basis functions of A   symmetry.
   275 basis functions,   472 primitive gaussians,   275 cartesian basis functions
    47 alpha electrons       47 beta electrons
       nuclear repulsion energy       757.8615592470 Hartrees.
 IExCor=20419 DFT=T Ex+Corr=CAM-B3LYP ExCW=0 ScaHFX=  1.000000
 ScaDFX=  1.000000  1.000000  1.000000  0.810000 ScalE2=  1.000000  1.000000
 IRadAn=      5 IRanWt=     -1 IRanGd=            0 ICorTp=0 IEmpDi=  4
 HFx  wShort=  0.000000 wLong=  0.330000 cFull=  0.190000 cShort=  0.000000 cLong=  0.460000
 DFx  wShort=  0.000000 wLong=  0.330000 cFull=  0.190000 cShort=  0.000000 cLong=  0.460000
 NAtoms=   27 NActive=   27 NUniq=   27 SFac= 1.00D+00 NAtFMM=   60 NAOKFM=F Big=F
 Integral buffers will be    131072 words long.
 Raffenetti 2 integral format.
 Two-electron integral symmetry is turned on.
 ------------------------------------------------------------------------------
 Polarizable Continuum Model (PCM)
 =================================
 Model                : PCM.
 Atomic radii         : SMD-Coulomb.
 Polarization charges : Total charges.
 Charge compensation  : None.
 Solution method      : On-the-fly selection.
 Cavity type          : VdW (van der Waals Surface) (Alpha=1.000).
 Cavity algorithm     : GePol (No added spheres)
                        Default sphere list used, NSphG=   27.
                        Lebedev-Laikov grids with approx.  5.0 points / Ang**2.
                        Smoothing algorithm: York/Karplus (Gamma=1.0000).
                        Polarization charges: spherical gaussians, with
                                              point-specific exponents (IZeta= 3).
                        Self-potential: point-specific (ISelfS= 7).
                        Self-field    : sphere-specific E.n sum rule (ISelfD= 2).
 1st derivatives      : Analytical E(r).r(x)/FMM algorithm (CHGder, D1EAlg=3).
                        Cavity 1st derivative terms included.
 Solvent              : Methanol, Eps=  32.613000 Eps(inf)=   1.765709
 ------------------------------------------------------------------------------
 GePol: Number of generator spheres                  =      27
 GePol: Total number of spheres                      =      27
 GePol: Number of exposed spheres                    =      27 (100.00%)
 GePol: Number of points                             =    1972
 GePol: Average weight of points                     =       0.11
 GePol: Minimum weight of points                     =   0.32D-07
 GePol: Maximum weight of points                     =    0.21991
 GePol: Number of points with low weight             =     107
 GePol: Fraction of low-weight points (<1% of avg)   =       5.43%
 GePol: Cavity surface area                          =    215.048 Ang**2
 GePol: Cavity volume                                =    191.261 Ang**3
 ------------------------------------------------------------------------------
 Atomic radii for non-electrostatic terms: SMD-CDS.
 ------------------------------------------------------------------------------
 PCM non-electrostatic energy =        -0.0004867292 Hartrees.
 Nuclear repulsion after PCM non-electrostatic terms =      757.8610725177 Hartrees.
 Leave Link  301 at Tue Jul  7 16:46:04 2026, MaxMem=  4026531840 cpu:               0.4 elap:               0.1
 (Enter /opt/packages/gaussian/g16RevC.01/g16/l302.exe)
 NPDir=0 NMtPBC=     1 NCelOv=     1 NCel=       1 NClECP=     1 NCelD=      1
         NCelK=      1 NCelE2=     1 NClLst=     1 CellRange=     0.0.
 One-electron integrals computed using PRISM.
 One-electron integral symmetry used in STVInt
 NBasis=   275 RedAO= T EigKep=  2.07D-06  NBF=   275
 NBsUse=   273 1.00D-06 EigRej=  8.56D-07 NBFU=   273
 Precomputing XC quadrature grid using
 IXCGrd= 4 IRadAn=           5 IRanWt=          -1 IRanGd=           0 AccXCQ= 0.00D+00.
 Generated NRdTot=       0 NPtTot=           0 NUsed=           0 NTot=          32
 NSgBfM=   274   274   274   274   274 MxSgAt=    27 MxSgA2=    27.
 Leave Link  302 at Tue Jul  7 16:46:04 2026, MaxMem=  4026531840 cpu:               1.4 elap:               0.2
 (Enter /opt/packages/gaussian/g16RevC.01/g16/l303.exe)
 DipDrv:  MaxL=1.
 Leave Link  303 at Tue Jul  7 16:46:04 2026, MaxMem=  4026531840 cpu:               0.1 elap:               0.0
 (Enter /opt/packages/gaussian/g16RevC.01/g16/l401.exe)
 Initial guess from the checkpoint file:  "iminium_ground_cam.chk"
 B after Tr=     0.000000   -0.000000   -0.000000
         Rot=    1.000000   -0.000032   -0.000004   -0.000000 Ang=  -0.00 deg.
 Guess basis will be translated and rotated to current coordinates.
 JPrj=2 DoOrth=T DoCkMO=T.
 Leave Link  401 at Tue Jul  7 16:46:04 2026, MaxMem=  4026531840 cpu:               0.5 elap:               0.1
 (Enter /opt/packages/gaussian/g16RevC.01/g16/l502.exe)
 Integral symmetry usage will be decided dynamically.
 Closed shell SCF:
 Using DIIS extrapolation, IDIIS=  1040.
 NGot=  4026531840 LenX=  4026374748 LenY=  4026298682
 Requested convergence on RMS density matrix=1.00D-08 within 128 cycles.
 Requested convergence on MAX density matrix=1.00D-06.
 Requested convergence on             energy=1.00D-06.
 No special actions if energy rises.
 Fock matrices will be formed incrementally for  20 cycles.

 Cycle   1  Pass 1  IDiag  1:
 FoFJK:  IHMeth= 1 ICntrl=       0 DoSepK=T KAlg= 0 I1Cent=           0 FoldK=F
 IRaf=         1 NMat=       1 IRICut=       1 DoRegI=T DoRafI=F ISym2E= 0 IDoP0=0 IntGTp=1.
 FoFCou: FMM=F IPFlag=           0 FMFlag=      100000 FMFlg1=           0
         NFxFlg=           0 DoJE=T BraDBF=F KetDBF=F FulRan=T
         wScrn=  0.000000 ICntrl=       500 IOpCl=  0 I1Cent=           0 NGrid=           0
         NMat0=    1 NMatS0=      1 NMatT0=    0 NMatD0=    1 NMtDS0=    0 NMtDT0=    0
 Symmetry not used in FoFCou.
 Inv3:  Mode=1 IEnd=    11666352.
 Iteration    1 A*A^-1 deviation from unit magnitude is 3.55D-15 for   1096.
 Iteration    1 A*A^-1 deviation from orthogonality  is 2.44D-15 for   1684   1008.
 Iteration    1 A^-1*A deviation from unit magnitude is 3.55D-15 for   1267.
 Iteration    1 A^-1*A deviation from orthogonality  is 5.55D-14 for   1245   1216.
 E= -557.156475404613    
 DIIS: error= 1.12D-04 at cycle   1 NSaved=   1.
 NSaved= 1 IEnMin= 1 EnMin= -557.156475404613     IErMin= 1 ErrMin= 1.12D-04
 ErrMax= 1.12D-04  0.00D+00 EMaxC= 1.00D-01 BMatC= 2.27D-06 BMatP= 2.27D-06
 IDIUse=3 WtCom= 9.99D-01 WtEn= 1.12D-03
 Coeff-Com:  0.100D+01
 Coeff-En:   0.100D+01
 Coeff:      0.100D+01
 Gap=     0.516 Goal=   None    Shift=    0.000
 RMSDP=5.14D-05 MaxDP=3.88D-03              OVMax= 3.91D-04

 Cycle   2  Pass 1  IDiag  1:
 RMSU=  4.91D-05    CP:  1.00D+00
 E= -557.156478484563     Delta-E=       -0.000003079950 Rises=F Damp=F
 DIIS: error= 1.05D-05 at cycle   2 NSaved=   2.
 NSaved= 2 IEnMin= 2 EnMin= -557.156478484563     IErMin= 2 ErrMin= 1.05D-05
 ErrMax= 1.05D-05  0.00D+00 EMaxC= 1.00D-01 BMatC= 4.33D-08 BMatP= 2.27D-06
 IDIUse=1 WtCom= 1.00D+00 WtEn= 0.00D+00
 Coeff-Com: -0.866D-01 0.109D+01
 Coeff:     -0.866D-01 0.109D+01
 Gap=     0.255 Goal=   None    Shift=    0.000
 RMSDP=8.64D-06 MaxDP=5.70D-04 DE=-3.08D-06 OVMax= 8.39D-05

 Cycle   3  Pass 1  IDiag  1:
 RMSU=  6.22D-06    CP:  1.00D+00  1.12D+00
 E= -557.156478597694     Delta-E=       -0.000000113131 Rises=F Damp=F
 DIIS: error= 3.02D-06 at cycle   3 NSaved=   3.
 NSaved= 3 IEnMin= 3 EnMin= -557.156478597694     IErMin= 3 ErrMin= 3.02D-06
 ErrMax= 3.02D-06  0.00D+00 EMaxC= 1.00D-01 BMatC= 6.30D-09 BMatP= 4.33D-08
 IDIUse=1 WtCom= 1.00D+00 WtEn= 0.00D+00
 Coeff-Com: -0.262D-01 0.200D+00 0.826D+00
 Coeff:     -0.262D-01 0.200D+00 0.826D+00
 Gap=     0.255 Goal=   None    Shift=    0.000
 RMSDP=2.40D-06 MaxDP=1.09D-04 DE=-1.13D-07 OVMax= 3.27D-05

 Cycle   4  Pass 1  IDiag  1:
 RMSU=  1.96D-06    CP:  1.00D+00  1.12D+00  1.21D+00
 E= -557.156478603502     Delta-E=       -0.000000005809 Rises=F Damp=F
 DIIS: error= 2.72D-06 at cycle   4 NSaved=   4.
 NSaved= 4 IEnMin= 4 EnMin= -557.156478603502     IErMin= 4 ErrMin= 2.72D-06
 ErrMax= 2.72D-06  0.00D+00 EMaxC= 1.00D-01 BMatC= 3.51D-09 BMatP= 6.30D-09
 IDIUse=1 WtCom= 1.00D+00 WtEn= 0.00D+00
 Coeff-Com:  0.159D-02-0.898D-01 0.439D+00 0.649D+00
 Coeff:      0.159D-02-0.898D-01 0.439D+00 0.649D+00
 Gap=     0.255 Goal=   None    Shift=    0.000
 RMSDP=8.05D-07 MaxDP=2.57D-05 DE=-5.81D-09 OVMax= 2.41D-05

 Cycle   5  Pass 1  IDiag  1:
 RMSU=  5.28D-07    CP:  1.00D+00  1.12D+00  1.29D+00  8.48D-01
 E= -557.156478607082     Delta-E=       -0.000000003579 Rises=F Damp=F
 DIIS: error= 4.88D-07 at cycle   5 NSaved=   5.
 NSaved= 5 IEnMin= 5 EnMin= -557.156478607082     IErMin= 5 ErrMin= 4.88D-07
 ErrMax= 4.88D-07  0.00D+00 EMaxC= 1.00D-01 BMatC= 1.40D-10 BMatP= 3.51D-09
 IDIUse=1 WtCom= 1.00D+00 WtEn= 0.00D+00
 Coeff-Com:  0.218D-02-0.469D-01 0.112D+00 0.246D+00 0.686D+00
 Coeff:      0.218D-02-0.469D-01 0.112D+00 0.246D+00 0.686D+00
 Gap=     0.255 Goal=   None    Shift=    0.000
 RMSDP=2.05D-07 MaxDP=6.40D-06 DE=-3.58D-09 OVMax= 2.97D-06

 Cycle   6  Pass 1  IDiag  1:
 RMSU=  1.67D-07    CP:  1.00D+00  1.12D+00  1.30D+00  8.71D-01  1.06D+00
 E= -557.156478607215     Delta-E=       -0.000000000134 Rises=F Damp=F
 DIIS: error= 1.60D-07 at cycle   6 NSaved=   6.
 NSaved= 6 IEnMin= 6 EnMin= -557.156478607215     IErMin= 6 ErrMin= 1.60D-07
 ErrMax= 1.60D-07  0.00D+00 EMaxC= 1.00D-01 BMatC= 1.58D-11 BMatP= 1.40D-10
 IDIUse=1 WtCom= 1.00D+00 WtEn= 0.00D+00
 Coeff-Com:  0.493D-03-0.299D-02-0.282D-01-0.489D-02 0.233D+00 0.803D+00
 Coeff:      0.493D-03-0.299D-02-0.282D-01-0.489D-02 0.233D+00 0.803D+00
 Gap=     0.255 Goal=   None    Shift=    0.000
 RMSDP=1.24D-07 MaxDP=4.41D-06 DE=-1.34D-10 OVMax= 1.60D-06

 Cycle   7  Pass 1  IDiag  1:
 RMSU=  6.50D-08    CP:  1.00D+00  1.12D+00  1.30D+00  9.01D-01  1.20D+00
                    CP:  1.20D+00
 E= -557.156478607242     Delta-E=       -0.000000000026 Rises=F Damp=F
 DIIS: error= 4.53D-08 at cycle   7 NSaved=   7.
 NSaved= 7 IEnMin= 7 EnMin= -557.156478607242     IErMin= 7 ErrMin= 4.53D-08
 ErrMax= 4.53D-08  0.00D+00 EMaxC= 1.00D-01 BMatC= 1.63D-12 BMatP= 1.58D-11
 IDIUse=1 WtCom= 1.00D+00 WtEn= 0.00D+00
 Coeff-Com: -0.641D-04 0.399D-02-0.213D-01-0.246D-01 0.225D-02 0.256D+00
 Coeff-Com:  0.784D+00
 Coeff:     -0.641D-04 0.399D-02-0.213D-01-0.246D-01 0.225D-02 0.256D+00
 Coeff:      0.784D+00
 Gap=     0.255 Goal=   None    Shift=    0.000
 RMSDP=3.08D-08 MaxDP=1.79D-06 DE=-2.65D-11 OVMax= 1.14D-06

 Cycle   8  Pass 1  IDiag  1:
 RMSU=  2.12D-08    CP:  1.00D+00  1.12D+00  1.30D+00  9.05D-01  1.23D+00
                    CP:  1.22D+00  8.96D-01
 E= -557.156478607259     Delta-E=       -0.000000000017 Rises=F Damp=F
 DIIS: error= 3.56D-08 at cycle   8 NSaved=   8.
 NSaved= 8 IEnMin= 8 EnMin= -557.156478607259     IErMin= 8 ErrMin= 3.56D-08
 ErrMax= 3.56D-08  0.00D+00 EMaxC= 1.00D-01 BMatC= 3.23D-13 BMatP= 1.63D-12
 IDIUse=1 WtCom= 1.00D+00 WtEn= 0.00D+00
 Coeff-Com: -0.924D-04 0.209D-02-0.533D-02-0.876D-02-0.313D-01-0.771D-02
 Coeff-Com:  0.331D+00 0.720D+00
 Coeff:     -0.924D-04 0.209D-02-0.533D-02-0.876D-02-0.313D-01-0.771D-02
 Coeff:      0.331D+00 0.720D+00
 Gap=     0.255 Goal=   None    Shift=    0.000
 RMSDP=1.51D-08 MaxDP=4.89D-07 DE=-1.68D-11 OVMax= 3.19D-07

 Cycle   9  Pass 1  IDiag  1:
 RMSU=  9.72D-09    CP:  1.00D+00  1.12D+00  1.30D+00  9.08D-01  1.23D+00
                    CP:  1.24D+00  1.01D+00  1.05D+00
 E= -557.156478607252     Delta-E=        0.000000000007 Rises=F Damp=F
 DIIS: error= 6.21D-09 at cycle   9 NSaved=   9.
 NSaved= 9 IEnMin= 8 EnMin= -557.156478607259     IErMin= 9 ErrMin= 6.21D-09
 ErrMax= 6.21D-09  0.00D+00 EMaxC= 1.00D-01 BMatC= 1.88D-14 BMatP= 3.23D-13
 IDIUse=1 WtCom= 1.00D+00 WtEn= 0.00D+00
 Coeff-Com: -0.586D-05-0.165D-03 0.164D-02 0.219D-02-0.567D-02-0.343D-01
 Coeff-Com: -0.300D-01 0.904D-01 0.976D+00
 Coeff:     -0.586D-05-0.165D-03 0.164D-02 0.219D-02-0.567D-02-0.343D-01
 Coeff:     -0.300D-01 0.904D-01 0.976D+00
 Gap=     0.255 Goal=   None    Shift=    0.000
 RMSDP=5.39D-09 MaxDP=1.98D-07 DE= 6.93D-12 OVMax= 2.36D-07

 Error on total polarization charges =  0.05312
 SCF Done:  E(RCAM-B3LYP) =  -557.156478607     A.U. after    9 cycles
            NFock=  9  Conv=0.54D-08     -V/T= 2.0094
 KE= 5.519727211527D+02 PE=-2.793416183142D+03 EE= 9.264259108643D+02
 SMD-CDS (non-electrostatic) energy       (kcal/mol) =      -0.31
 (included in total energy above)
 Leave Link  502 at Tue Jul  7 16:46:27 2026, MaxMem=  4026531840 cpu:             182.1 elap:              23.1
 (Enter /opt/packages/gaussian/g16RevC.01/g16/l701.exe)
 ... and contract with generalized density number  0.
 Compute integral first derivatives.
 D1PCM: PCM CHGder 1st derivatives, ID1Alg=3 FixD1E=F DoIter=F DoCFld=F I1PDM=0.
 GePol: Maximum number of non-zero 1st derivatives   =     256
 Leave Link  701 at Tue Jul  7 16:46:28 2026, MaxMem=  4026531840 cpu:               6.4 elap:               0.8
 (Enter /opt/packages/gaussian/g16RevC.01/g16/l702.exe)
 L702 exits ... SP integral derivatives will be done elsewhere.
 Leave Link  702 at Tue Jul  7 16:46:28 2026, MaxMem=  4026531840 cpu:               0.1 elap:               0.0
 (Enter /opt/packages/gaussian/g16RevC.01/g16/l703.exe)
 Integral derivatives from FoFJK, PRISM(SPDF).
 Compute integral first derivatives, UseDBF=F ICtDFT=           0.
 Calling FoFJK, ICntrl=      2127 FMM=F ISym2X=0 I1Cent= 0 IOpClX= 0 NMat=1 NMatS=1 NMatT=0.
 FoFJK:  IHMeth= 1 ICntrl=    2127 DoSepK=T KAlg= 0 I1Cent=           0 FoldK=F
 IRaf=         1 NMat=       1 IRICut=       1 DoRegI=T DoRafI=F ISym2E= 0 IDoP0=0 IntGTp=1.
 FoFCou: FMM=F IPFlag=           0 FMFlag=      100000 FMFlg1=         800
         NFxFlg=           0 DoJE=F BraDBF=F KetDBF=F FulRan=T
         wScrn=  0.000000 ICntrl=      2527 IOpCl=  0 I1Cent=           0 NGrid=           0
         NMat0=    1 NMatS0=      1 NMatT0=    0 NMatD0=    1 NMtDS0=    0 NMtDT0=    0
 Symmetry not used in FoFCou.
 Leave Link  703 at Tue Jul  7 16:46:36 2026, MaxMem=  4026531840 cpu:              64.2 elap:               8.1
 (Enter /opt/packages/gaussian/g16RevC.01/g16/l716.exe)
 Dipole        = 2.85209758D+00-1.58572744D-01 1.41967614D-01
 ***** Axes restored to original set *****
 -------------------------------------------------------------------
 Center     Atomic                   Forces (Hartrees/Bohr)
 Number     Number              X              Y              Z
 -------------------------------------------------------------------
      1        6           0.000093330   -0.000019813   -0.000014026
      2        6          -0.000013067    0.000016028    0.000011038
      3        6          -0.000019324    0.000000493   -0.000000586
      4        6           0.000040015    0.000010986   -0.000000243
      5        6          -0.000010492   -0.000002937   -0.000008337
      6        6          -0.000015254   -0.000009176    0.000004256
      7        1           0.000006605   -0.000002269   -0.000000435
      8        1          -0.000002635    0.000009978    0.000007122
      9        1          -0.000007389    0.000009035    0.000006339
     10        1           0.000005802   -0.000009209   -0.000001584
     11        8          -0.000050111    0.000008438    0.000018027
     12        6           0.000000936    0.000020890    0.000004285
     13        1          -0.000000608    0.000001783    0.000005349
     14        1          -0.000000044    0.000000045    0.000010743
     15        1           0.000000636    0.000002961    0.000008083
     16        6          -0.000070495   -0.000023414    0.000000916
     17        6           0.000002022    0.000004514   -0.000020300
     18        7           0.000007967    0.000028083    0.000009167
     19        6           0.000030997   -0.000027049   -0.000011262
     20        6           0.000007641    0.000002875    0.000003107
     21        1           0.000004755    0.000002723    0.000002708
     22        1           0.000012479    0.000007924    0.000000360
     23        1          -0.000003236   -0.000012978   -0.000009014
     24        1          -0.000004213   -0.000006576   -0.000007429
     25        1          -0.000011146    0.000000870   -0.000004345
     26        1          -0.000005890   -0.000001507   -0.000002160
     27        1           0.000000717   -0.000012697   -0.000011778
 -------------------------------------------------------------------
 Cartesian Forces:  Max     0.000093330 RMS     0.000018075
 Leave Link  716 at Tue Jul  7 16:46:36 2026, MaxMem=  4026531840 cpu:               0.1 elap:               0.0
 (Enter /opt/packages/gaussian/g16RevC.01/g16/l103.exe)

 GradGradGradGradGradGradGradGradGradGradGradGradGradGradGradGradGradGrad
 Berny optimization.
 Using GEDIIS/GDIIS optimizer.
 FormGI is forming the generalized inverse of G from B-inverse, IUseBI=4.
 GSVD:  received Info=                   1 from GESDD.
 Internal  Forces:  Max     0.000047153 RMS     0.000008765
 Search for a local minimum.
 Step number   5 out of a maximum of  154
 All quantities printed in internal units (Hartrees-Bohrs-Radians)
 RMS Force = .87651D-05 SwitMx=.10000D-02 MixMth= 2
 Mixed Optimization -- En-DIIS/RFO-DIIS
 Swapping is turned off.
 Update second derivatives using D2CorX and points    1    2    3    4    5
 DE= -3.07D-07 DEPred=-2.67D-07 R= 1.15D+00
 Trust test= 1.15D+00 RLast= 4.89D-03 DXMaxT set to 3.00D-01
 ITU=  0  1  1  1  0
     Eigenvalues ---    0.00342   0.01037   0.01144   0.01204   0.01362
     Eigenvalues ---    0.01758   0.01776   0.01919   0.02017   0.02049
     Eigenvalues ---    0.02100   0.02112   0.02120   0.02148   0.02203
     Eigenvalues ---    0.02308   0.03301   0.03555   0.04933   0.05187
     Eigenvalues ---    0.05566   0.05869   0.06881   0.07470   0.08401
     Eigenvalues ---    0.08476   0.09334   0.10073   0.10659   0.10959
     Eigenvalues ---    0.14500   0.15946   0.15979   0.16000   0.16000
     Eigenvalues ---    0.16000   0.16040   0.16130   0.21499   0.22015
     Eigenvalues ---    0.22813   0.23213   0.23698   0.24934   0.24981
     Eigenvalues ---    0.25736   0.27298   0.28312   0.30582   0.32231
     Eigenvalues ---    0.33447   0.33834   0.34153   0.34248   0.34301
     Eigenvalues ---    0.34402   0.34544   0.34554   0.34594   0.34776
     Eigenvalues ---    0.35148   0.35283   0.35302   0.35501   0.37271
     Eigenvalues ---    0.39901   0.41226   0.41517   0.44797   0.45083
     Eigenvalues ---    0.45403   0.46383   0.50592   0.60217   0.62331
 En-DIIS/RFO-DIIS/Sim-DIIS IScMMF=       -3 using points:     5    4    3    2
 RFO step:  Lambda=-9.36559464D-08.
 NNeg= 0 NGDIIS= 4 SimSw=  2.50D-01 Rises=F DC= -3.07D-07 SmlDif=  1.00D-05
 NRisDI= 0 DoIntr=F SqrtH=F CThrHd= 10.0 CDAdj=  3.0
 RMS Error=  0.2773554065D-03 NUsed= 4 OKEnD=F EnDIS=F
 InvSVX:  RCond= 4.97D-07 Info=           0 Equed=N FErr=  1.83D-14 BErr=  3.35D-17
 DidBck=F Rises=F RFO-DIIS coefs:    1.46664   -0.38533   -0.07374   -0.00757
 Iteration  1 RMS(Cart)=  0.00054350 RMS(Int)=  0.00000012
 Iteration  2 RMS(Cart)=  0.00000017 RMS(Int)=  0.00000003
 ITry= 1 IFail=0 DXMaxC= 2.40D-03 DCOld= 1.00D+10 DXMaxT= 3.00D-01 DXLimC= 3.00D+00 Rises=F
 Variable       Old X    -DE/DX   Delta X   Delta X   Delta X     New X
                                 (Linear)    (Quad)   (Total)
    R1        2.64170  -0.00004   0.00000  -0.00009  -0.00009   2.64161
    R2        2.65507  -0.00002  -0.00001  -0.00006  -0.00007   2.65500
    R3        2.54422   0.00005   0.00007   0.00005   0.00011   2.54433
    R4        2.61988  -0.00001   0.00007  -0.00008  -0.00001   2.61987
    R5        2.04643  -0.00001   0.00002  -0.00003  -0.00001   2.04641
    R6        2.64941   0.00001  -0.00010   0.00008  -0.00002   2.64939
    R7        2.04910  -0.00001   0.00001  -0.00004  -0.00003   2.04908
    R8        2.66632  -0.00001  -0.00000  -0.00003  -0.00004   2.66628
    R9        2.73299  -0.00003   0.00010  -0.00015  -0.00004   2.73295
   R10        2.59989  -0.00001   0.00004  -0.00005  -0.00001   2.59988
   R11        2.05108  -0.00001  -0.00000  -0.00002  -0.00002   2.05106
   R12        2.05083  -0.00001   0.00001  -0.00003  -0.00002   2.05081
   R13        2.70273  -0.00001  -0.00048   0.00032  -0.00016   2.70257
   R14        2.06738  -0.00000   0.00010  -0.00007   0.00003   2.06740
   R15        2.06742   0.00000   0.00010  -0.00007   0.00003   2.06745
   R16        2.05933  -0.00000   0.00006  -0.00005   0.00001   2.05934
   R17        2.83863   0.00000  -0.00001   0.00000  -0.00001   2.83862
   R18        2.45568   0.00003  -0.00006   0.00008   0.00002   2.45570
   R19        2.90537  -0.00001   0.00003  -0.00007  -0.00004   2.90533
   R20        2.06240  -0.00001   0.00002  -0.00004  -0.00002   2.06238
   R21        2.07380  -0.00000   0.00006  -0.00005   0.00001   2.07381
   R22        2.77801   0.00002   0.00011  -0.00001   0.00010   2.77811
   R23        1.92141  -0.00001   0.00003  -0.00004  -0.00002   1.92139
   R24        2.89167  -0.00003   0.00003  -0.00013  -0.00011   2.89157
   R25        2.06795  -0.00001   0.00004  -0.00005  -0.00001   2.06795
   R26        2.06151  -0.00000   0.00000  -0.00001  -0.00001   2.06149
   R27        2.06608  -0.00000   0.00006  -0.00005   0.00001   2.06609
   R28        2.06139  -0.00000   0.00002  -0.00002  -0.00001   2.06138
    A1        2.09583   0.00001   0.00010  -0.00002   0.00008   2.09591
    A2        2.16750  -0.00001  -0.00010   0.00005  -0.00005   2.16745
    A3        2.01985  -0.00001   0.00000  -0.00003  -0.00003   2.01982
    A4        2.08104  -0.00001  -0.00001  -0.00002  -0.00003   2.08101
    A5        2.11693  -0.00000   0.00005  -0.00005   0.00000   2.11694
    A6        2.08520   0.00001  -0.00004   0.00007   0.00003   2.08523
    A7        2.12033   0.00000  -0.00013   0.00011  -0.00002   2.12031
    A8        2.06573  -0.00000   0.00002  -0.00003  -0.00001   2.06572
    A9        2.09713  -0.00000   0.00012  -0.00008   0.00003   2.09716
   A10        2.06582  -0.00001   0.00019  -0.00017   0.00002   2.06585
   A11        2.08044   0.00002  -0.00006   0.00011   0.00004   2.08048
   A12        2.13692  -0.00001  -0.00013   0.00006  -0.00007   2.13685
   A13        2.10613   0.00000  -0.00008   0.00007  -0.00001   2.10612
   A14        2.11634  -0.00001   0.00008  -0.00011  -0.00004   2.11630
   A15        2.06071   0.00001  -0.00000   0.00005   0.00005   2.06076
   A16        2.09719  -0.00000  -0.00007   0.00003  -0.00004   2.09715
   A17        2.07494   0.00000   0.00004  -0.00001   0.00003   2.07497
   A18        2.11106   0.00000   0.00003  -0.00002   0.00001   2.11107
   A19        2.07843  -0.00001  -0.00009   0.00006  -0.00003   2.07840
   A20        1.93164   0.00000   0.00019  -0.00011   0.00009   1.93173
   A21        1.93108  -0.00000   0.00019  -0.00014   0.00005   1.93113
   A22        1.84138   0.00000   0.00017  -0.00008   0.00009   1.84148
   A23        1.92609  -0.00001  -0.00027   0.00013  -0.00014   1.92595
   A24        1.91609  -0.00000  -0.00013   0.00009  -0.00004   1.91605
   A25        1.91585  -0.00000  -0.00014   0.00010  -0.00004   1.91581
   A26        2.19420   0.00002  -0.00007   0.00015   0.00008   2.19428
   A27        2.18073  -0.00000  -0.00003   0.00002  -0.00000   2.18073
   A28        1.90788  -0.00002   0.00010  -0.00018  -0.00008   1.90780
   A29        1.81117   0.00002  -0.00011   0.00011  -0.00000   1.81117
   A30        1.95366  -0.00000   0.00003   0.00002   0.00005   1.95371
   A31        1.88049  -0.00000  -0.00002   0.00001  -0.00000   1.88049
   A32        1.97772  -0.00001   0.00015  -0.00014   0.00001   1.97774
   A33        1.96261  -0.00001  -0.00001  -0.00011  -0.00012   1.96249
   A34        1.87685   0.00001  -0.00005   0.00011   0.00006   1.87691
   A35        2.00826  -0.00000  -0.00010   0.00007  -0.00003   2.00823
   A36        2.16285  -0.00000   0.00009  -0.00009   0.00000   2.16285
   A37        2.10976   0.00000   0.00003   0.00002   0.00004   2.10980
   A38        1.78355   0.00000  -0.00004  -0.00000  -0.00004   1.78351
   A39        1.89160  -0.00000  -0.00006   0.00005  -0.00001   1.89160
   A40        1.91184  -0.00000  -0.00004   0.00001  -0.00003   1.91180
   A41        1.97594  -0.00001   0.00001  -0.00006  -0.00005   1.97590
   A42        1.99362   0.00000   0.00012  -0.00007   0.00005   1.99367
   A43        1.90138   0.00000  -0.00000   0.00007   0.00007   1.90145
   A44        1.81879   0.00000  -0.00004  -0.00003  -0.00007   1.81872
   A45        1.91745  -0.00000  -0.00002   0.00000  -0.00002   1.91743
   A46        1.96253  -0.00000   0.00011  -0.00009   0.00002   1.96255
   A47        1.91836  -0.00000  -0.00003   0.00001  -0.00003   1.91834
   A48        1.95448  -0.00000   0.00003  -0.00002   0.00001   1.95448
   A49        1.89157   0.00000  -0.00004   0.00012   0.00008   1.89165
    D1       -0.00547  -0.00000   0.00001  -0.00014  -0.00013  -0.00560
    D2        3.13902  -0.00000   0.00007  -0.00019  -0.00012   3.13890
    D3        3.13661   0.00000  -0.00010   0.00014   0.00004   3.13665
    D4       -0.00209   0.00000  -0.00004   0.00010   0.00005  -0.00204
    D5        0.00225   0.00000  -0.00004   0.00012   0.00008   0.00234
    D6       -3.13885   0.00000  -0.00008   0.00012   0.00004  -3.13880
    D7       -3.13978  -0.00000   0.00006  -0.00014  -0.00008  -3.13986
    D8        0.00230  -0.00000   0.00002  -0.00014  -0.00012   0.00219
    D9       -0.00389  -0.00001  -0.00021  -0.00021  -0.00042  -0.00431
   D10        3.13817  -0.00000  -0.00032   0.00006  -0.00026   3.13791
   D11        0.00331   0.00000  -0.00000   0.00010   0.00010   0.00341
   D12       -3.14123  -0.00000   0.00006  -0.00010  -0.00003  -3.14127
   D13       -3.14112   0.00000  -0.00005   0.00014   0.00009  -3.14103
   D14       -0.00248  -0.00000   0.00001  -0.00006  -0.00004  -0.00252
   D15        0.00201  -0.00000   0.00002  -0.00003  -0.00002   0.00199
   D16        3.13944  -0.00000   0.00011  -0.00007   0.00004   3.13948
   D17       -3.13658   0.00000  -0.00005   0.00017   0.00012  -3.13646
   D18        0.00086   0.00000   0.00004   0.00013   0.00017   0.00102
   D19       -0.00529  -0.00000  -0.00004   0.00000  -0.00004  -0.00533
   D20        3.13608  -0.00000   0.00004  -0.00006  -0.00002   3.13606
   D21        3.14061  -0.00000  -0.00013   0.00004  -0.00009   3.14051
   D22       -0.00121  -0.00000  -0.00005  -0.00002  -0.00007  -0.00128
   D23       -0.00733   0.00001   0.00061   0.00015   0.00076  -0.00657
   D24       -3.11632   0.00001   0.00050   0.00015   0.00065  -3.11568
   D25        3.12993   0.00001   0.00071   0.00011   0.00082   3.13074
   D26        0.02093   0.00001   0.00059   0.00011   0.00070   0.02163
   D27        0.00320  -0.00000   0.00005  -0.00005   0.00000   0.00320
   D28       -3.13890   0.00000   0.00009  -0.00005   0.00004  -3.13885
   D29       -3.13818  -0.00000  -0.00003   0.00002  -0.00001  -3.13820
   D30        0.00291   0.00000   0.00001   0.00001   0.00003   0.00294
   D31        1.06968  -0.00000   0.00008   0.00007   0.00015   1.06983
   D32       -1.07093   0.00000   0.00015   0.00007   0.00023  -1.07070
   D33        3.14126   0.00000   0.00012   0.00007   0.00020   3.14145
   D34        2.93473  -0.00000  -0.00044  -0.00002  -0.00046   2.93427
   D35        0.79584  -0.00000  -0.00057   0.00007  -0.00050   0.79534
   D36       -1.26415  -0.00001  -0.00051  -0.00008  -0.00060  -1.26475
   D37       -0.23518   0.00000  -0.00034  -0.00002  -0.00036  -0.23554
   D38       -2.37407   0.00000  -0.00047   0.00007  -0.00040  -2.37447
   D39        1.84913  -0.00001  -0.00041  -0.00008  -0.00049   1.84863
   D40        3.09227   0.00000   0.00023  -0.00003   0.00020   3.09247
   D41        0.02336   0.00000  -0.00008   0.00004  -0.00004   0.02332
   D42       -0.02128   0.00000   0.00013  -0.00004   0.00009  -0.02119
   D43       -3.09019  -0.00000  -0.00018   0.00003  -0.00015  -3.09034
   D44        0.38192   0.00000   0.00041   0.00008   0.00048   0.38241
   D45       -1.67257   0.00000   0.00048   0.00008   0.00056  -1.67201
   D46        2.50237   0.00000   0.00048  -0.00002   0.00046   2.50283
   D47        2.50482   0.00000   0.00045   0.00009   0.00055   2.50537
   D48        0.45033   0.00001   0.00052   0.00010   0.00062   0.45095
   D49       -1.65792   0.00000   0.00053  -0.00000   0.00052  -1.65739
   D50       -1.64535   0.00000   0.00049   0.00005   0.00054  -1.64481
   D51        2.58334   0.00000   0.00056   0.00006   0.00062   2.58396
   D52        0.47510  -0.00000   0.00057  -0.00005   0.00052   0.47562
   D53        0.26768  -0.00000   0.00014   0.00008   0.00022   0.26790
   D54       -1.82291   0.00000   0.00017   0.00012   0.00030  -1.82262
   D55        2.38782   0.00000   0.00024   0.00000   0.00024   2.38806
   D56       -2.94418   0.00000   0.00044   0.00001   0.00045  -2.94373
   D57        1.24841   0.00001   0.00047   0.00005   0.00052   1.24893
   D58       -0.82404   0.00000   0.00054  -0.00007   0.00047  -0.82358
   D59       -0.38525   0.00000  -0.00035  -0.00006  -0.00041  -0.38567
   D60        1.66861  -0.00000  -0.00041  -0.00007  -0.00049   1.66812
   D61       -2.51104   0.00000  -0.00047   0.00007  -0.00040  -2.51144
   D62        1.64523  -0.00000  -0.00043  -0.00003  -0.00047   1.64476
   D63       -2.58409  -0.00000  -0.00050  -0.00004  -0.00054  -2.58463
   D64       -0.48055   0.00000  -0.00056   0.00010  -0.00045  -0.48100
   D65       -2.44810   0.00000  -0.00033  -0.00004  -0.00037  -2.44847
   D66       -0.39423  -0.00000  -0.00039  -0.00005  -0.00044  -0.39468
   D67        1.70930   0.00000  -0.00045   0.00009  -0.00036   1.70895
         Item               Value     Threshold  Converged?
 Maximum Force            0.000047     0.000450     YES
 RMS     Force            0.000009     0.000300     YES
 Maximum Displacement     0.002401     0.001800     NO 
 RMS     Displacement     0.000544     0.001200     YES
 Predicted change in Energy=-4.646181D-08
 Lowest energy point so far.  Saving SCF results.
 GradGradGradGradGradGradGradGradGradGradGradGradGradGradGradGradGradGrad

 Leave Link  103 at Tue Jul  7 16:46:36 2026, MaxMem=  4026531840 cpu:               0.2 elap:               0.0
 (Enter /opt/packages/gaussian/g16RevC.01/g16/l202.exe)
                          Input orientation:                          
 ---------------------------------------------------------------------
 Center     Atomic      Atomic             Coordinates (Angstroms)
 Number     Number       Type             X           Y           Z
 ---------------------------------------------------------------------
      1          6           0       -2.475913    0.267504   -0.011386
      2          6           0       -1.847416   -0.980231    0.035685
      3          6           0       -0.462394   -1.040764    0.044953
      4          6           0        0.321543    0.121119    0.012260
      5          6           0       -0.332963    1.370403   -0.028360
      6          6           0       -1.706784    1.442851   -0.041899
      7          1           0       -2.214930    2.401183   -0.075660
      8          1           0       -2.421083   -1.898329    0.062291
      9          1           0        0.010255   -2.015976    0.081336
     10          1           0        0.227744    2.299485   -0.049612
     11          8           0       -3.810839    0.441942   -0.029905
     12          6           0       -4.662420   -0.706762   -0.005651
     13          1           0       -4.506668   -1.283886    0.910623
     14          1           0       -4.488650   -1.334399   -0.884751
     15          1           0       -5.679481   -0.316000   -0.026994
     16          6           0        1.762657    0.000606    0.026399
     17          6           0        2.534605   -1.286789    0.082218
     18          7           0        2.593231    1.000033    0.026997
     19          6           0        4.013538    0.629386    0.108110
     20          6           0        3.978196   -0.861895   -0.232764
     21          1           0        2.140936   -2.028822   -0.614549
     22          1           0        2.429854   -1.695921    1.095112
     23          1           0        4.365337    0.831250    1.124478
     24          1           0        4.589327    1.235322   -0.592864
     25          1           0        4.183898   -1.005610   -1.296906
     26          1           0        4.713563   -1.429107    0.339451
     27          1           0        2.307061    1.975637    0.037137
 ---------------------------------------------------------------------
                    Distance matrix (angstroms):
                    1          2          3          4          5
     1  C    0.000000
     2  C    1.397880   0.000000
     3  C    2.401874   1.386375   0.000000
     4  C    2.801383   2.432674   1.401998   0.000000
     5  C    2.410168   2.796990   2.415751   1.410935   0.000000
     6  C    1.404966   2.428399   2.779279   2.421573   1.375797
     7  H    2.150541   3.403149   3.864315   3.411762   2.146287
     8  H    2.167780   1.082916   2.138266   3.406269   3.879829
     9  H    3.376968   2.127391   1.084324   2.160751   3.405495
    10  H    3.382332   3.882023   3.412111   2.181263   1.085374
    11  O    1.346402   2.425264   3.662800   4.145031   3.599676
    12  C    2.393750   2.828558   4.213589   5.052286   4.802014
    13  H    2.716777   2.815909   4.143023   5.108102   5.034556
    14  H    2.716610   2.819354   4.142621   5.105009   5.031809
    15  H    3.256312   3.889711   5.267680   6.017051   5.606177
    16  C    4.247133   3.740956   2.456756   1.446213   2.504189
    17  C    5.246892   4.392977   3.007311   2.623879   3.910989
    18  N    5.121942   4.862187   3.674509   2.435831   2.950058
    19  C    6.500632   6.078396   4.777799   3.728050   4.411326
    20  C    6.555919   5.832995   4.452860   3.794399   4.859117
    21  H    5.191553   4.174842   2.861561   2.885365   4.244823
    22  H    5.398697   4.464262   3.145975   2.986499   4.277579
    23  H    6.957780   6.562411   5.289310   4.253656   4.867622
    24  H    7.154887   6.836330   5.577389   4.452146   4.956394
    25  H    6.901193   6.176827   4.836305   4.230983   5.258961
    26  H    7.395279   6.583329   5.198853   4.669058   5.782730
    27  H    5.079066   5.098709   4.094950   2.717009   2.709303
                    6          7          8          9         10
     6  C    0.000000
     7  H    1.085243   0.000000
     8  H    3.418269   4.306662   0.000000
     9  H    3.863534   4.948474   2.434258   0.000000
    10  H    2.115722   2.444929   4.964922   4.322922   0.000000
    11  O    2.330024   2.527379   2.723378   4.544722   4.445336
    12  C    3.654851   3.956568   2.539299   4.853401   5.740484
    13  H    4.022653   4.450230   2.333853   4.650405   6.014753
    14  H    4.020236   4.447359   2.343019   4.651669   6.012233
    15  H    4.344664   4.403245   3.623381   5.939255   6.460386
    16  C    3.757892   4.646976   4.594663   2.672178   2.765245
    17  C    5.045366   6.015326   4.993318   2.627557   4.266186
    18  N    4.323304   5.009209   5.791813   3.971275   2.699995
    19  C    5.779820   6.478183   6.913451   4.798431   4.140815
    20  C    6.137367   7.001941   6.489378   4.144287   4.908539
    21  H    5.213961   6.236098   4.613801   2.241478   4.765890
    22  H    5.315680   6.303252   4.963797   2.642846   4.703504
    23  H    6.213304   6.870585   7.391505   5.306749   4.544654
    24  H    6.323578   6.922763   7.706805   5.656269   4.522275
    25  H    6.501548   7.351373   6.802216   4.509954   5.303824
    26  H    7.043751   7.927639   7.155430   4.746804   5.846054
    27  H    4.049822   4.543371   6.112577   4.605458   2.106173
                   11         12         13         14         15
    11  O    0.000000
    12  C    1.430140   0.000000
    13  H    2.085007   1.094023   0.000000
    14  H    2.084605   1.094048   1.796174   0.000000
    15  H    2.016509   1.089754   1.786454   1.786326   0.000000
    16  C    5.591226   6.463978   6.460356   6.456878   7.449061
    17  C    6.577670   7.220894   7.089836   7.089669   8.271975
    18  N    6.428593   7.453770   7.510369   7.512250   8.376910
    19  C    7.827839   8.778980   8.769182   8.782337   9.739951
    20  C    7.900013   8.644992   8.571950   8.505048   9.675281
    21  H    6.470712   6.957317   6.860883   6.671330   8.027323
    22  H    6.691963   7.245030   6.951197   7.205293   8.302085
    23  H    8.266439   9.227300   9.123158   9.333816  10.175483
    24  H    8.456309   9.471607   9.557405   9.439191  10.400732
    25  H    8.222926   8.945054   8.970872   8.688559   9.968675
    26  H    8.735141   9.410098   9.239047   9.283770  10.458904
    27  H    6.307568   7.467983   7.603576   7.614979   8.309066
                   16         17         18         19         20
    16  C    0.000000
    17  C    1.502134   0.000000
    18  N    1.299503   2.288240   0.000000
    19  C    2.338484   2.420670   1.470113   0.000000
    20  C    2.391587   1.537434   2.335033   1.530151   0.000000
    21  H    2.161594   1.091363   3.128916   3.330908   2.209752
    22  H    2.113174   1.097412   2.904433   2.981490   2.203682
    23  H    2.944434   2.987302   2.091247   1.094310   2.204251
    24  H    3.146120   3.322448   2.103328   1.090896   2.213926
    25  H    2.937008   2.168228   2.881934   2.162476   1.093328
    26  H    3.293924   2.198701   3.239470   2.186538   1.090837
    27  H    2.048716   3.270662   1.016758   2.174739   3.304107
                   21         22         23         24         25
    21  H    0.000000
    22  H    1.765570   0.000000
    23  H    4.018978   3.183323   0.000000
    24  H    4.080407   4.013074   1.778400   0.000000
    25  H    2.384590   3.045480   3.044679   2.383657   0.000000
    26  H    2.808591   2.420236   2.418003   2.825567   1.771316
    27  H    4.060540   3.822920   2.593922   2.480666   3.766964
                   26         27
    26  H    0.000000
    27  H    4.180302   0.000000
 Stoichiometry    C11H14NO(1+)
 Framework group  C1[X(C11H14NO)]
 Deg. of freedom    75
 Full point group                 C1      NOp   1
 RotChk:  IX=0 Diff= 1.18D-04
 Largest Abelian subgroup         C1      NOp   1
 Largest concise Abelian subgroup C1      NOp   1
                         Standard orientation:                         
 ---------------------------------------------------------------------
 Center     Atomic      Atomic             Coordinates (Angstroms)
 Number     Number       Type             X           Y           Z
 ---------------------------------------------------------------------
      1          6           0       -2.476624    0.266662   -0.010751
      2          6           0       -1.847708   -0.980906    0.035127
      3          6           0       -0.462664   -1.040990    0.044140
      4          6           0        0.320884    0.121181    0.012361
      5          6           0       -0.334040    1.370284   -0.027061
      6          6           0       -1.707887    1.442289   -0.040337
      7          1           0       -2.216355    2.400483   -0.073178
      8          1           0       -2.421068   -1.899217    0.061005
      9          1           0        0.010312   -2.016077    0.079594
     10          1           0        0.226357    2.299570   -0.047574
     11          8           0       -3.811610    0.440675   -0.028923
     12          6           0       -4.662808   -0.708331   -0.005559
     13          1           0       -4.506732   -1.286212    0.910181
     14          1           0       -4.488958   -1.335134   -0.885239
     15          1           0       -5.680001   -0.317886   -0.026410
     16          6           0        1.762040    0.001132    0.026184
     17          6           0        2.534421   -1.286057    0.080754
     18          7           0        2.592283    1.000832    0.027544
     19          6           0        4.012725    0.630583    0.108124
     20          6           0        3.977826   -0.860408   -0.234062
     21          1           0        2.140896   -2.027605   -0.616611
     22          1           0        2.429952   -1.696118    1.093301
     23          1           0        4.364605    0.831665    1.124619
     24          1           0        4.588212    1.237328   -0.592398
     25          1           0        4.183421   -1.003115   -1.298360
     26          1           0        4.713464   -1.427882    0.337546
     27          1           0        2.305793    1.976332    0.038588
 ---------------------------------------------------------------------
 Rotational constants (GHZ):           2.8721775           0.3539975           0.3181915
 Leave Link  202 at Tue Jul  7 16:46:37 2026, MaxMem=  4026531840 cpu:               0.0 elap:               0.0
 (Enter /opt/packages/gaussian/g16RevC.01/g16/l301.exe)
 Standard basis: 6-31+G(d) (6D, 7F)
 Ernie: Thresh=  0.10000D-02 Tol=  0.10000D-05 Strict=F.
 There are   275 symmetry adapted cartesian basis functions of A   symmetry.
 There are   275 symmetry adapted basis functions of A   symmetry.
   275 basis functions,   472 primitive gaussians,   275 cartesian basis functions
    47 alpha electrons       47 beta electrons
       nuclear repulsion energy       757.8692576606 Hartrees.
 IExCor=20419 DFT=T Ex+Corr=CAM-B3LYP ExCW=0 ScaHFX=  1.000000
 ScaDFX=  1.000000  1.000000  1.000000  0.810000 ScalE2=  1.000000  1.000000
 IRadAn=      5 IRanWt=     -1 IRanGd=            0 ICorTp=0 IEmpDi=  4
 HFx  wShort=  0.000000 wLong=  0.330000 cFull=  0.190000 cShort=  0.000000 cLong=  0.460000
 DFx  wShort=  0.000000 wLong=  0.330000 cFull=  0.190000 cShort=  0.000000 cLong=  0.460000
 NAtoms=   27 NActive=   27 NUniq=   27 SFac= 1.00D+00 NAtFMM=   60 NAOKFM=F Big=F
 Integral buffers will be    131072 words long.
 Raffenetti 2 integral format.
 Two-electron integral symmetry is turned on.
 ------------------------------------------------------------------------------
 Polarizable Continuum Model (PCM)
 =================================
 Model                : PCM.
 Atomic radii         : SMD-Coulomb.
 Polarization charges : Total charges.
 Charge compensation  : None.
 Solution method      : On-the-fly selection.
 Cavity type          : VdW (van der Waals Surface) (Alpha=1.000).
 Cavity algorithm     : GePol (No added spheres)
                        Default sphere list used, NSphG=   27.
                        Lebedev-Laikov grids with approx.  5.0 points / Ang**2.
                        Smoothing algorithm: York/Karplus (Gamma=1.0000).
                        Polarization charges: spherical gaussians, with
                                              point-specific exponents (IZeta= 3).
                        Self-potential: point-specific (ISelfS= 7).
                        Self-field    : sphere-specific E.n sum rule (ISelfD= 2).
 1st derivatives      : Analytical E(r).r(x)/FMM algorithm (CHGder, D1EAlg=3).
                        Cavity 1st derivative terms included.
 Solvent              : Methanol, Eps=  32.613000 Eps(inf)=   1.765709
 ------------------------------------------------------------------------------
 GePol: Number of generator spheres                  =      27
 GePol: Total number of spheres                      =      27
 GePol: Number of exposed spheres                    =      27 (100.00%)
 GePol: Number of points                             =    1973
 GePol: Average weight of points                     =       0.11
 GePol: Minimum weight of points                     =   0.91D-10
 GePol: Maximum weight of points                     =    0.21991
 GePol: Number of points with low weight             =     108
 GePol: Fraction of low-weight points (<1% of avg)   =       5.47%
 GePol: Cavity surface area                          =    215.043 Ang**2
 GePol: Cavity volume                                =    191.256 Ang**3
 ------------------------------------------------------------------------------
 Atomic radii for non-electrostatic terms: SMD-CDS.
 ------------------------------------------------------------------------------
 PCM non-electrostatic energy =        -0.0004871995 Hartrees.
 Nuclear repulsion after PCM non-electrostatic terms =      757.8687704611 Hartrees.
 Leave Link  301 at Tue Jul  7 16:46:37 2026, MaxMem=  4026531840 cpu:               0.4 elap:               0.1
 (Enter /opt/packages/gaussian/g16RevC.01/g16/l302.exe)
 NPDir=0 NMtPBC=     1 NCelOv=     1 NCel=       1 NClECP=     1 NCelD=      1
         NCelK=      1 NCelE2=     1 NClLst=     1 CellRange=     0.0.
 One-electron integrals computed using PRISM.
 One-electron integral symmetry used in STVInt
 NBasis=   275 RedAO= T EigKep=  2.07D-06  NBF=   275
 NBsUse=   273 1.00D-06 EigRej=  8.56D-07 NBFU=   273
 Precomputing XC quadrature grid using
 IXCGrd= 4 IRadAn=           5 IRanWt=          -1 IRanGd=           0 AccXCQ= 0.00D+00.
 Generated NRdTot=       0 NPtTot=           0 NUsed=           0 NTot=          32
 NSgBfM=   274   274   274   274   274 MxSgAt=    27 MxSgA2=    27.
 Leave Link  302 at Tue Jul  7 16:46:37 2026, MaxMem=  4026531840 cpu:               1.4 elap:               0.2
 (Enter /opt/packages/gaussian/g16RevC.01/g16/l303.exe)
 DipDrv:  MaxL=1.
 Leave Link  303 at Tue Jul  7 16:46:37 2026, MaxMem=  4026531840 cpu:               0.1 elap:               0.0
 (Enter /opt/packages/gaussian/g16RevC.01/g16/l401.exe)
 Initial guess from the checkpoint file:  "iminium_ground_cam.chk"
 B after Tr=     0.000000   -0.000000   -0.000000
         Rot=    1.000000   -0.000028   -0.000002    0.000000 Ang=  -0.00 deg.
 Guess basis will be translated and rotated to current coordinates.
 JPrj=2 DoOrth=T DoCkMO=T.
 Leave Link  401 at Tue Jul  7 16:46:37 2026, MaxMem=  4026531840 cpu:               0.5 elap:               0.1
 (Enter /opt/packages/gaussian/g16RevC.01/g16/l502.exe)
 Integral symmetry usage will be decided dynamically.
 Closed shell SCF:
 Using DIIS extrapolation, IDIIS=  1040.
 NGot=  4026531840 LenX=  4026374748 LenY=  4026298682
 Requested convergence on RMS density matrix=1.00D-08 within 128 cycles.
 Requested convergence on MAX density matrix=1.00D-06.
 Requested convergence on             energy=1.00D-06.
 No special actions if energy rises.
 Fock matrices will be formed incrementally for  20 cycles.

 Cycle   1  Pass 1  IDiag  1:
 FoFJK:  IHMeth= 1 ICntrl=       0 DoSepK=T KAlg= 0 I1Cent=           0 FoldK=F
 IRaf=         1 NMat=       1 IRICut=       1 DoRegI=T DoRafI=F ISym2E= 0 IDoP0=0 IntGTp=1.
 FoFCou: FMM=F IPFlag=           0 FMFlag=      100000 FMFlg1=           0
         NFxFlg=           0 DoJE=T BraDBF=F KetDBF=F FulRan=T
         wScrn=  0.000000 ICntrl=       500 IOpCl=  0 I1Cent=           0 NGrid=           0
         NMat0=    1 NMatS0=      1 NMatT0=    0 NMatD0=    1 NMtDS0=    0 NMtDT0=    0
 Symmetry not used in FoFCou.
 Inv3:  Mode=1 IEnd=    11678187.
 Iteration    1 A*A^-1 deviation from unit magnitude is 3.11D-15 for    741.
 Iteration    1 A*A^-1 deviation from orthogonality  is 2.95D-15 for   1081    210.
 Iteration    1 A^-1*A deviation from unit magnitude is 3.33D-15 for    741.
 Iteration    1 A^-1*A deviation from orthogonality  is 9.22D-14 for   1283   1217.
 E= -557.156477387360    
 DIIS: error= 7.34D-05 at cycle   1 NSaved=   1.
 NSaved= 1 IEnMin= 1 EnMin= -557.156477387360     IErMin= 1 ErrMin= 7.34D-05
 ErrMax= 7.34D-05  0.00D+00 EMaxC= 1.00D-01 BMatC= 8.99D-07 BMatP= 8.99D-07
 IDIUse=1 WtCom= 1.00D+00 WtEn= 0.00D+00
 Coeff-Com:  0.100D+01
 Coeff:      0.100D+01
 Gap=     0.516 Goal=   None    Shift=    0.000
 RMSDP=2.84D-05 MaxDP=1.85D-03              OVMax= 2.48D-04

 Cycle   2  Pass 1  IDiag  1:
 RMSU=  2.79D-05    CP:  1.00D+00
 E= -557.156478613162     Delta-E=       -0.000001225802 Rises=F Damp=F
 DIIS: error= 7.13D-06 at cycle   2 NSaved=   2.
 NSaved= 2 IEnMin= 2 EnMin= -557.156478613162     IErMin= 2 ErrMin= 7.13D-06
 ErrMax= 7.13D-06  0.00D+00 EMaxC= 1.00D-01 BMatC= 1.73D-08 BMatP= 8.99D-07
 IDIUse=1 WtCom= 1.00D+00 WtEn= 0.00D+00
 Coeff-Com: -0.860D-01 0.109D+01
 Coeff:     -0.860D-01 0.109D+01
 Gap=     0.255 Goal=   None    Shift=    0.000
 RMSDP=5.06D-06 MaxDP=2.82D-04 DE=-1.23D-06 OVMax= 5.74D-05

 Cycle   3  Pass 1  IDiag  1:
 RMSU=  3.73D-06    CP:  1.00D+00  1.12D+00
 E= -557.156478659715     Delta-E=       -0.000000046553 Rises=F Damp=F
 DIIS: error= 2.07D-06 at cycle   3 NSaved=   3.
 NSaved= 3 IEnMin= 3 EnMin= -557.156478659715     IErMin= 3 ErrMin= 2.07D-06
 ErrMax= 2.07D-06  0.00D+00 EMaxC= 1.00D-01 BMatC= 2.00D-09 BMatP= 1.73D-08
 IDIUse=1 WtCom= 1.00D+00 WtEn= 0.00D+00
 Coeff-Com: -0.219D-01 0.144D+00 0.878D+00
 Coeff:     -0.219D-01 0.144D+00 0.878D+00
 Gap=     0.255 Goal=   None    Shift=    0.000
 RMSDP=1.22D-06 MaxDP=8.89D-05 DE=-4.66D-08 OVMax= 1.61D-05

 Cycle   4  Pass 1  IDiag  1:
 RMSU=  1.07D-06    CP:  1.00D+00  1.12D+00  1.15D+00
 E= -557.156478661870     Delta-E=       -0.000000002155 Rises=F Damp=F
 DIIS: error= 1.31D-06 at cycle   4 NSaved=   4.
 NSaved= 4 IEnMin= 4 EnMin= -557.156478661870     IErMin= 4 ErrMin= 1.31D-06
 ErrMax= 1.31D-06  0.00D+00 EMaxC= 1.00D-01 BMatC= 1.27D-09 BMatP= 2.00D-09
 IDIUse=1 WtCom= 1.00D+00 WtEn= 0.00D+00
 Coeff-Com:  0.192D-02-0.943D-01 0.462D+00 0.631D+00
 Coeff:      0.192D-02-0.943D-01 0.462D+00 0.631D+00
 Gap=     0.255 Goal=   None    Shift=    0.000
 RMSDP=6.09D-07 MaxDP=2.47D-05 DE=-2.16D-09 OVMax= 6.70D-06

 Cycle   5  Pass 1  IDiag  1:
 RMSU=  3.42D-07    CP:  1.00D+00  1.12D+00  1.26D+00  7.41D-01
 E= -557.156478663095     Delta-E=       -0.000000001225 Rises=F Damp=F
 DIIS: error= 2.56D-07 at cycle   5 NSaved=   5.
 NSaved= 5 IEnMin= 5 EnMin= -557.156478663095     IErMin= 5 ErrMin= 2.56D-07
 ErrMax= 2.56D-07  0.00D+00 EMaxC= 1.00D-01 BMatC= 4.66D-11 BMatP= 1.27D-09
 IDIUse=1 WtCom= 1.00D+00 WtEn= 0.00D+00
 Coeff-Com:  0.206D-02-0.436D-01 0.104D+00 0.220D+00 0.718D+00
 Coeff:      0.206D-02-0.436D-01 0.104D+00 0.220D+00 0.718D+00
 Gap=     0.255 Goal=   None    Shift=    0.000
 RMSDP=1.31D-07 MaxDP=4.58D-06 DE=-1.23D-09 OVMax= 2.10D-06

 Cycle   6  Pass 1  IDiag  1:
 RMSU=  1.10D-07    CP:  1.00D+00  1.12D+00  1.28D+00  7.50D-01  9.78D-01
 E= -557.156478663133     Delta-E=       -0.000000000038 Rises=F Damp=F
 DIIS: error= 9.83D-08 at cycle   6 NSaved=   6.
 NSaved= 6 IEnMin= 6 EnMin= -557.156478663133     IErMin= 6 ErrMin= 9.83D-08
 ErrMax= 9.83D-08  0.00D+00 EMaxC= 1.00D-01 BMatC= 7.36D-12 BMatP= 4.66D-11
 IDIUse=1 WtCom= 1.00D+00 WtEn= 0.00D+00
 Coeff-Com:  0.490D-03-0.264D-02-0.301D-01-0.960D-02 0.282D+00 0.759D+00
 Coeff:      0.490D-03-0.264D-02-0.301D-01-0.960D-02 0.282D+00 0.759D+00
 Gap=     0.255 Goal=   None    Shift=    0.000
 RMSDP=6.70D-08 MaxDP=3.51D-06 DE=-3.76D-11 OVMax= 1.06D-06

 Cycle   7  Pass 1  IDiag  1:
 RMSU=  4.74D-08    CP:  1.00D+00  1.12D+00  1.28D+00  7.73D-01  1.07D+00
                    CP:  9.61D-01
 E= -557.156478663141     Delta-E=       -0.000000000008 Rises=F Damp=F
 DIIS: error= 2.77D-08 at cycle   7 NSaved=   7.
 NSaved= 7 IEnMin= 7 EnMin= -557.156478663141     IErMin= 7 ErrMin= 2.77D-08
 ErrMax= 2.77D-08  0.00D+00 EMaxC= 1.00D-01 BMatC= 4.85D-13 BMatP= 7.36D-12
 IDIUse=1 WtCom= 1.00D+00 WtEn= 0.00D+00
 Coeff-Com: -0.728D-04 0.388D-02-0.194D-01-0.256D-01 0.426D-02 0.212D+00
 Coeff-Com:  0.825D+00
 Coeff:     -0.728D-04 0.388D-02-0.194D-01-0.256D-01 0.426D-02 0.212D+00
 Coeff:      0.825D+00
 Gap=     0.255 Goal=   None    Shift=    0.000
 RMSDP=2.35D-08 MaxDP=8.57D-07 DE=-8.19D-12 OVMax= 3.84D-07

 Cycle   8  Pass 1  IDiag  1:
 RMSU=  1.22D-08    CP:  1.00D+00  1.12D+00  1.28D+00  7.69D-01  1.11D+00
                    CP:  1.02D+00  7.98D-01
 E= -557.156478663150     Delta-E=       -0.000000000009 Rises=F Damp=F
 DIIS: error= 9.97D-09 at cycle   8 NSaved=   8.
 NSaved= 8 IEnMin= 8 EnMin= -557.156478663150     IErMin= 8 ErrMin= 9.97D-09
 ErrMax= 9.97D-09  0.00D+00 EMaxC= 1.00D-01 BMatC= 8.19D-14 BMatP= 4.85D-13
 IDIUse=1 WtCom= 1.00D+00 WtEn= 0.00D+00
 Coeff-Com: -0.788D-04 0.199D-02-0.556D-02-0.104D-01-0.245D-01 0.219D-01
 Coeff-Com:  0.351D+00 0.665D+00
 Coeff:     -0.788D-04 0.199D-02-0.556D-02-0.104D-01-0.245D-01 0.219D-01
 Coeff:      0.351D+00 0.665D+00
 Gap=     0.255 Goal=   None    Shift=    0.000
 RMSDP=5.69D-09 MaxDP=2.44D-07 DE=-9.09D-12 OVMax= 1.81D-07

 Error on total polarization charges =  0.05312
 SCF Done:  E(RCAM-B3LYP) =  -557.156478663     A.U. after    8 cycles
            NFock=  8  Conv=0.57D-08     -V/T= 2.0094
 KE= 5.519731713927D+02 PE=-2.793431584428D+03 EE= 9.264331639108D+02
 SMD-CDS (non-electrostatic) energy       (kcal/mol) =      -0.31
 (included in total energy above)
 Leave Link  502 at Tue Jul  7 16:47:00 2026, MaxMem=  4026531840 cpu:             181.4 elap:              23.3
 (Enter /opt/packages/gaussian/g16RevC.01/g16/l701.exe)
 ... and contract with generalized density number  0.
 Compute integral first derivatives.
 D1PCM: PCM CHGder 1st derivatives, ID1Alg=3 FixD1E=F DoIter=F DoCFld=F I1PDM=0.
 GePol: Maximum number of non-zero 1st derivatives   =     256
 Leave Link  701 at Tue Jul  7 16:47:02 2026, MaxMem=  4026531840 cpu:               6.5 elap:               0.8
 (Enter /opt/packages/gaussian/g16RevC.01/g16/l702.exe)
 L702 exits ... SP integral derivatives will be done elsewhere.
 Leave Link  702 at Tue Jul  7 16:47:02 2026, MaxMem=  4026531840 cpu:               0.1 elap:               0.0
 (Enter /opt/packages/gaussian/g16RevC.01/g16/l703.exe)
 Integral derivatives from FoFJK, PRISM(SPDF).
 Compute integral first derivatives, UseDBF=F ICtDFT=           0.
 Calling FoFJK, ICntrl=      2127 FMM=F ISym2X=0 I1Cent= 0 IOpClX= 0 NMat=1 NMatS=1 NMatT=0.
 FoFJK:  IHMeth= 1 ICntrl=    2127 DoSepK=T KAlg= 0 I1Cent=           0 FoldK=F
 IRaf=         1 NMat=       1 IRICut=       1 DoRegI=T DoRafI=F ISym2E= 0 IDoP0=0 IntGTp=1.
 FoFCou: FMM=F IPFlag=           0 FMFlag=      100000 FMFlg1=         800
         NFxFlg=           0 DoJE=F BraDBF=F KetDBF=F FulRan=T
         wScrn=  0.000000 ICntrl=      2527 IOpCl=  0 I1Cent=           0 NGrid=           0
         NMat0=    1 NMatS0=      1 NMatT0=    0 NMatD0=    1 NMtDS0=    0 NMtDT0=    0
 Symmetry not used in FoFCou.
 Leave Link  703 at Tue Jul  7 16:47:10 2026, MaxMem=  4026531840 cpu:              64.2 elap:               8.1
 (Enter /opt/packages/gaussian/g16RevC.01/g16/l716.exe)
 Dipole        = 2.85261217D+00-1.58591007D-01 1.42330884D-01
 ***** Axes restored to original set *****
 -------------------------------------------------------------------
 Center     Atomic                   Forces (Hartrees/Bohr)
 Number     Number              X              Y              Z
 -------------------------------------------------------------------
      1        6           0.000018175   -0.000001967    0.000003718
      2        6           0.000003011   -0.000002749    0.000004889
      3        6          -0.000021614   -0.000002506    0.000003119
      4        6           0.000040085    0.000007705   -0.000000555
      5        6          -0.000013204    0.000001996   -0.000005030
      6        6          -0.000000135    0.000004601   -0.000001142
      7        1           0.000003101    0.000001800    0.000000034
      8        1          -0.000002296    0.000005264    0.000006087
      9        1           0.000002235    0.000000860    0.000003360
     10        1           0.000006370   -0.000001031   -0.000003085
     11        8           0.000002147    0.000032444    0.000010351
     12        6          -0.000027458   -0.000034653    0.000004121
     13        1           0.000000256    0.000012437    0.000005447
     14        1          -0.000000721    0.000009301    0.000011373
     15        1           0.000005248    0.000008421    0.000008395
     16        6          -0.000034111   -0.000015561   -0.000000627
     17        6          -0.000000404   -0.000011279   -0.000010314
     18        7           0.000019618    0.000017506    0.000002860
     19        6           0.000002492   -0.000003550   -0.000010881
     20        6           0.000004307   -0.000001613   -0.000003210
     21        1          -0.000001615   -0.000003155    0.000001198
     22        1           0.000005219    0.000004336   -0.000000308
     23        1          -0.000001498   -0.000006755   -0.000008072
     24        1           0.000000559   -0.000005139   -0.000006515
     25        1          -0.000006997   -0.000004192   -0.000002815
     26        1          -0.000003842   -0.000005688   -0.000005073
     27        1           0.000001070   -0.000006832   -0.000007326
 -------------------------------------------------------------------
 Cartesian Forces:  Max     0.000040085 RMS     0.000010898
 Leave Link  716 at Tue Jul  7 16:47:10 2026, MaxMem=  4026531840 cpu:               0.1 elap:               0.0
 (Enter /opt/packages/gaussian/g16RevC.01/g16/l103.exe)

 GradGradGradGradGradGradGradGradGradGradGradGradGradGradGradGradGradGrad
 Berny optimization.
 Using GEDIIS/GDIIS optimizer.
 FormGI is forming the generalized inverse of G from B-inverse, IUseBI=4.
 GSVD:  received Info=                   1 from GESDD.
 Internal  Forces:  Max     0.000032045 RMS     0.000004572
 Search for a local minimum.
 Step number   6 out of a maximum of  154
 All quantities printed in internal units (Hartrees-Bohrs-Radians)
 RMS Force = .45719D-05 SwitMx=.10000D-02 MixMth= 2
 Mixed Optimization -- En-DIIS/RFO-DIIS
 Swapping is turned off.
 Update second derivatives using D2CorX and points    1    2    3    4    5
                                                      6
 DE= -5.59D-08 DEPred=-4.65D-08 R= 1.20D+00
 Trust test= 1.20D+00 RLast= 3.09D-03 DXMaxT set to 3.00D-01
 ITU=  0  0  1  1  1  0
     Eigenvalues ---    0.00257   0.00985   0.01079   0.01198   0.01346
     Eigenvalues ---    0.01760   0.01776   0.01920   0.02022   0.02047
     Eigenvalues ---    0.02105   0.02119   0.02135   0.02170   0.02213
     Eigenvalues ---    0.02275   0.03302   0.03546   0.04931   0.05187
     Eigenvalues ---    0.05565   0.05838   0.06893   0.07470   0.08376
     Eigenvalues ---    0.08433   0.09344   0.10137   0.10660   0.10967
     Eigenvalues ---    0.15408   0.15859   0.15967   0.16000   0.16000
     Eigenvalues ---    0.16030   0.16104   0.16130   0.21503   0.22025
     Eigenvalues ---    0.22867   0.23026   0.24314   0.24868   0.25176
     Eigenvalues ---    0.25957   0.27319   0.28560   0.30808   0.32315
     Eigenvalues ---    0.33825   0.34144   0.34219   0.34248   0.34306
     Eigenvalues ---    0.34429   0.34544   0.34574   0.34627   0.34827
     Eigenvalues ---    0.35149   0.35283   0.35348   0.35903   0.36844
     Eigenvalues ---    0.41011   0.41326   0.41600   0.44824   0.45389
     Eigenvalues ---    0.45945   0.46606   0.51580   0.59919   0.61014
 En-DIIS/RFO-DIIS/Sim-DIIS IScMMF=       -3 using points:     6    5    4    3    2
 RFO step:  Lambda=-3.09588093D-08.
 NNeg= 0 NGDIIS= 5 SimSw=  2.50D-01 Rises=F DC= -5.59D-08 SmlDif=  1.00D-05
 NRisDI= 0 DoIntr=F SqrtH=F CThrHd= 10.0 CDAdj=  3.0
 RMS Error=  0.2138992011D-03 NUsed= 5 OKEnD=F EnDIS=F
 InvSVX:  RCond= 4.10D-08 Info=           0 Equed=N FErr=  1.24D-13 BErr=  6.84D-17
 DIIS inversion failure, remove point   5.
 InvSVX:  RCond= 5.12D-08 Info=           0 Equed=N FErr=  1.06D-13 BErr=  8.93D-17
 DIIS inversion failure, remove point   4.
 InvSVX:  RCond= 7.06D-08 Info=           0 Equed=N FErr=  7.92D-14 BErr=  3.64D-17
 DIIS inversion failure, remove point   3.
 InvSVX:  RCond= 2.39D-06 Info=           0 Equed=N FErr=  3.83D-15 BErr=  5.48D-17
 RFO-DIIS uses    2 points instead of    5
 DidBck=F Rises=F RFO-DIIS coefs:    1.80947   -0.80947    0.00000    0.00000    0.00000
 Iteration  1 RMS(Cart)=  0.00043897 RMS(Int)=  0.00000008
 Iteration  2 RMS(Cart)=  0.00000011 RMS(Int)=  0.00000001
 ITry= 1 IFail=0 DXMaxC= 2.08D-03 DCOld= 1.00D+10 DXMaxT= 3.00D-01 DXLimC= 3.00D+00 Rises=F
 Variable       Old X    -DE/DX   Delta X   Delta X   Delta X     New X
                                 (Linear)    (Quad)   (Total)
    R1        2.64161  -0.00000  -0.00007   0.00005  -0.00002   2.64159
    R2        2.65500   0.00000  -0.00006   0.00004  -0.00002   2.65498
    R3        2.54433   0.00002   0.00009  -0.00002   0.00007   2.54440
    R4        2.61987  -0.00000  -0.00001  -0.00000  -0.00001   2.61986
    R5        2.04641  -0.00000  -0.00001   0.00000  -0.00001   2.04641
    R6        2.64939   0.00001  -0.00002   0.00004   0.00002   2.64941
    R7        2.04908   0.00000  -0.00002   0.00002   0.00000   2.04908
    R8        2.66628   0.00001  -0.00003   0.00004   0.00001   2.66629
    R9        2.73295  -0.00001  -0.00004  -0.00003  -0.00007   2.73288
   R10        2.59988   0.00000  -0.00001   0.00001  -0.00000   2.59988
   R11        2.05106   0.00000  -0.00002   0.00001  -0.00000   2.05106
   R12        2.05081  -0.00000  -0.00001   0.00001  -0.00001   2.05081
   R13        2.70257   0.00003  -0.00013   0.00016   0.00003   2.70260
   R14        2.06740  -0.00001   0.00002  -0.00003  -0.00001   2.06740
   R15        2.06745  -0.00001   0.00002  -0.00003  -0.00000   2.06745
   R16        2.05934  -0.00000   0.00001  -0.00002  -0.00001   2.05933
   R17        2.83862   0.00001  -0.00001   0.00003   0.00002   2.83864
   R18        2.45570   0.00002   0.00002   0.00003   0.00005   2.45575
   R19        2.90533  -0.00000  -0.00003   0.00001  -0.00002   2.90531
   R20        2.06238  -0.00000  -0.00002   0.00001  -0.00001   2.06237
   R21        2.07381  -0.00000   0.00000  -0.00000   0.00000   2.07381
   R22        2.77811  -0.00000   0.00008  -0.00005   0.00003   2.77814
   R23        1.92139  -0.00000  -0.00001   0.00000  -0.00001   1.92138
   R24        2.89157  -0.00000  -0.00009   0.00005  -0.00003   2.89153
   R25        2.06795  -0.00000  -0.00000  -0.00000  -0.00001   2.06794
   R26        2.06149  -0.00000  -0.00001   0.00000  -0.00001   2.06149
   R27        2.06609  -0.00000   0.00001  -0.00001  -0.00000   2.06609
   R28        2.06138  -0.00000  -0.00001   0.00000  -0.00001   2.06138
    A1        2.09591   0.00000   0.00006  -0.00003   0.00003   2.09594
    A2        2.16745   0.00000  -0.00004   0.00003  -0.00001   2.16744
    A3        2.01982  -0.00000  -0.00003   0.00000  -0.00002   2.01980
    A4        2.08101  -0.00000  -0.00003   0.00001  -0.00002   2.08100
    A5        2.11694  -0.00000   0.00000  -0.00001  -0.00001   2.11693
    A6        2.08523   0.00000   0.00002  -0.00000   0.00002   2.08525
    A7        2.12031   0.00001  -0.00002   0.00002   0.00001   2.12032
    A8        2.06572   0.00000  -0.00001   0.00003   0.00002   2.06574
    A9        2.09716  -0.00001   0.00003  -0.00005  -0.00003   2.09713
   A10        2.06585  -0.00001   0.00002  -0.00003  -0.00002   2.06583
   A11        2.08048   0.00000   0.00003  -0.00004  -0.00000   2.08048
   A12        2.13685   0.00001  -0.00005   0.00007   0.00002   2.13687
   A13        2.10612   0.00000  -0.00001   0.00002   0.00001   2.10613
   A14        2.11630  -0.00001  -0.00003  -0.00001  -0.00004   2.11626
   A15        2.06076   0.00000   0.00004  -0.00000   0.00003   2.06079
   A16        2.09715   0.00000  -0.00003   0.00001  -0.00002   2.09713
   A17        2.07497   0.00000   0.00002  -0.00001   0.00002   2.07499
   A18        2.11107  -0.00000   0.00001  -0.00000   0.00000   2.11107
   A19        2.07840   0.00000  -0.00003   0.00001  -0.00002   2.07838
   A20        1.93173  -0.00000   0.00007  -0.00006   0.00001   1.93173
   A21        1.93113  -0.00000   0.00004  -0.00004  -0.00000   1.93113
   A22        1.84148  -0.00001   0.00008  -0.00009  -0.00002   1.84146
   A23        1.92595   0.00000  -0.00011   0.00010  -0.00001   1.92594
   A24        1.91605   0.00000  -0.00003   0.00004   0.00001   1.91605
   A25        1.91581   0.00000  -0.00003   0.00005   0.00001   1.91582
   A26        2.19428   0.00001   0.00007  -0.00003   0.00004   2.19432
   A27        2.18073   0.00000  -0.00000   0.00000  -0.00000   2.18073
   A28        1.90780  -0.00001  -0.00006   0.00003  -0.00004   1.90777
   A29        1.81117   0.00000  -0.00000  -0.00004  -0.00004   1.81113
   A30        1.95371   0.00000   0.00004   0.00001   0.00005   1.95375
   A31        1.88049   0.00000  -0.00000  -0.00001  -0.00001   1.88047
   A32        1.97774  -0.00000   0.00001   0.00003   0.00004   1.97777
   A33        1.96249  -0.00000  -0.00009   0.00001  -0.00009   1.96240
   A34        1.87691   0.00000   0.00005   0.00000   0.00005   1.87696
   A35        2.00823  -0.00000  -0.00003  -0.00001  -0.00003   2.00820
   A36        2.16285  -0.00000   0.00000  -0.00000  -0.00000   2.16285
   A37        2.10980   0.00000   0.00004   0.00001   0.00005   2.10985
   A38        1.78351   0.00000  -0.00004   0.00000  -0.00003   1.78347
   A39        1.89160  -0.00000  -0.00001  -0.00002  -0.00003   1.89157
   A40        1.91180  -0.00000  -0.00003   0.00002  -0.00001   1.91180
   A41        1.97590  -0.00000  -0.00004   0.00000  -0.00003   1.97586
   A42        1.99367   0.00000   0.00004   0.00001   0.00005   1.99372
   A43        1.90145   0.00000   0.00005  -0.00001   0.00005   1.90149
   A44        1.81872   0.00000  -0.00005   0.00001  -0.00005   1.81867
   A45        1.91743  -0.00000  -0.00002  -0.00000  -0.00002   1.91741
   A46        1.96255  -0.00000   0.00002  -0.00003  -0.00002   1.96253
   A47        1.91834  -0.00000  -0.00002   0.00002   0.00000   1.91834
   A48        1.95448   0.00000   0.00001   0.00002   0.00003   1.95451
   A49        1.89165   0.00000   0.00006  -0.00001   0.00005   1.89171
    D1       -0.00560   0.00000  -0.00011   0.00009  -0.00001  -0.00561
    D2        3.13890   0.00000  -0.00010   0.00011   0.00001   3.13891
    D3        3.13665  -0.00000   0.00003  -0.00012  -0.00009   3.13656
    D4       -0.00204  -0.00000   0.00004  -0.00011  -0.00007  -0.00211
    D5        0.00234  -0.00000   0.00007  -0.00007  -0.00000   0.00233
    D6       -3.13880  -0.00000   0.00003  -0.00008  -0.00004  -3.13885
    D7       -3.13986   0.00000  -0.00006   0.00013   0.00007  -3.13979
    D8        0.00219   0.00000  -0.00009   0.00012   0.00003   0.00221
    D9       -0.00431  -0.00000  -0.00034   0.00006  -0.00028  -0.00459
   D10        3.13791  -0.00000  -0.00021  -0.00015  -0.00035   3.13756
   D11        0.00341   0.00000   0.00008  -0.00006   0.00002   0.00343
   D12       -3.14127  -0.00000  -0.00003   0.00002  -0.00000  -3.14127
   D13       -3.14103  -0.00000   0.00007  -0.00007  -0.00000  -3.14103
   D14       -0.00252  -0.00000  -0.00003   0.00001  -0.00003  -0.00255
   D15        0.00199  -0.00000  -0.00001   0.00000  -0.00001   0.00198
   D16        3.13948   0.00000   0.00003   0.00004   0.00007   3.13955
   D17       -3.13646   0.00000   0.00009  -0.00008   0.00001  -3.13645
   D18        0.00102   0.00000   0.00014  -0.00004   0.00010   0.00112
   D19       -0.00533   0.00000  -0.00003   0.00002  -0.00000  -0.00533
   D20        3.13606   0.00000  -0.00002   0.00005   0.00003   3.13609
   D21        3.14051  -0.00000  -0.00007  -0.00002  -0.00009   3.14042
   D22       -0.00128  -0.00000  -0.00006   0.00000  -0.00006  -0.00134
   D23       -0.00657   0.00000   0.00062  -0.00009   0.00052  -0.00605
   D24       -3.11568   0.00000   0.00052  -0.00007   0.00045  -3.11523
   D25        3.13074   0.00000   0.00066  -0.00005   0.00061   3.13135
   D26        0.02163   0.00000   0.00057  -0.00003   0.00054   0.02217
   D27        0.00320   0.00000   0.00000   0.00001   0.00001   0.00321
   D28       -3.13885   0.00000   0.00003   0.00002   0.00005  -3.13880
   D29       -3.13820  -0.00000  -0.00001  -0.00001  -0.00002  -3.13822
   D30        0.00294   0.00000   0.00002  -0.00000   0.00002   0.00295
   D31        1.06983   0.00000   0.00012   0.00010   0.00022   1.07005
   D32       -1.07070   0.00000   0.00018   0.00004   0.00023  -1.07048
   D33        3.14145   0.00000   0.00016   0.00006   0.00022  -3.14151
   D34        2.93427  -0.00000  -0.00037  -0.00001  -0.00038   2.93388
   D35        0.79534  -0.00000  -0.00040  -0.00003  -0.00043   0.79491
   D36       -1.26475  -0.00000  -0.00048  -0.00003  -0.00051  -1.26526
   D37       -0.23554   0.00000  -0.00029  -0.00003  -0.00032  -0.23586
   D38       -2.37447  -0.00000  -0.00032  -0.00005  -0.00037  -2.37483
   D39        1.84863  -0.00000  -0.00040  -0.00005  -0.00045   1.84819
   D40        3.09247   0.00000   0.00016  -0.00000   0.00016   3.09262
   D41        0.02332   0.00000  -0.00003   0.00005   0.00002   0.02333
   D42       -0.02119   0.00000   0.00008   0.00002   0.00009  -0.02109
   D43       -3.09034  -0.00000  -0.00012   0.00007  -0.00005  -3.09038
   D44        0.38241   0.00000   0.00039   0.00003   0.00042   0.38283
   D45       -1.67201  -0.00000   0.00045  -0.00000   0.00045  -1.67155
   D46        2.50283   0.00000   0.00037   0.00004   0.00041   2.50325
   D47        2.50537   0.00000   0.00044   0.00003   0.00047   2.50584
   D48        0.45095   0.00000   0.00050   0.00000   0.00051   0.45146
   D49       -1.65739   0.00000   0.00042   0.00004   0.00047  -1.65693
   D50       -1.64481   0.00000   0.00044   0.00006   0.00050  -1.64431
   D51        2.58396   0.00000   0.00050   0.00003   0.00053   2.58450
   D52        0.47562   0.00000   0.00042   0.00007   0.00049   0.47611
   D53        0.26790  -0.00000   0.00018   0.00000   0.00018   0.26808
   D54       -1.82262   0.00000   0.00024   0.00001   0.00025  -1.82237
   D55        2.38806   0.00000   0.00019   0.00002   0.00021   2.38827
   D56       -2.94373  -0.00000   0.00036  -0.00005   0.00031  -2.94342
   D57        1.24893   0.00000   0.00042  -0.00004   0.00038   1.24932
   D58       -0.82358   0.00000   0.00038  -0.00003   0.00035  -0.82323
   D59       -0.38567  -0.00000  -0.00033  -0.00003  -0.00036  -0.38603
   D60        1.66812  -0.00000  -0.00039  -0.00002  -0.00041   1.66771
   D61       -2.51144   0.00000  -0.00032  -0.00000  -0.00033  -2.51176
   D62        1.64476  -0.00000  -0.00038  -0.00005  -0.00043   1.64433
   D63       -2.58463  -0.00000  -0.00044  -0.00005  -0.00048  -2.58511
   D64       -0.48100  -0.00000  -0.00037  -0.00003  -0.00040  -0.48140
   D65       -2.44847  -0.00000  -0.00030  -0.00006  -0.00036  -2.44883
   D66       -0.39468  -0.00000  -0.00036  -0.00005  -0.00041  -0.39508
   D67        1.70895   0.00000  -0.00029  -0.00003  -0.00032   1.70863
         Item               Value     Threshold  Converged?
 Maximum Force            0.000032     0.000450     YES
 RMS     Force            0.000005     0.000300     YES
 Maximum Displacement     0.002077     0.001800     NO 
 RMS     Displacement     0.000439     0.001200     YES
 Predicted change in Energy=-1.547881D-08
 Lowest energy point so far.  Saving SCF results.
 GradGradGradGradGradGradGradGradGradGradGradGradGradGradGradGradGradGrad

 Leave Link  103 at Tue Jul  7 16:47:10 2026, MaxMem=  4026531840 cpu:               0.2 elap:               0.0
 (Enter /opt/packages/gaussian/g16RevC.01/g16/l202.exe)
                          Input orientation:                          
 ---------------------------------------------------------------------
 Center     Atomic      Atomic             Coordinates (Angstroms)
 Number     Number       Type             X           Y           Z
 ---------------------------------------------------------------------
      1          6           0       -2.475875    0.267505   -0.011308
      2          6           0       -1.847408   -0.980217    0.036184
      3          6           0       -0.462392   -1.040750    0.045514
      4          6           0        0.321564    0.121124    0.012498
      5          6           0       -0.332949    1.370397   -0.028534
      6          6           0       -1.706769    1.442847   -0.042159
      7          1           0       -2.214910    2.401166   -0.076284
      8          1           0       -2.421096   -1.898290    0.063044
      9          1           0        0.010274   -2.015942    0.082229
     10          1           0        0.227793    2.299451   -0.050075
     11          8           0       -3.810836    0.441948   -0.030024
     12          6           0       -4.662412   -0.706781   -0.005891
     13          1           0       -4.506952   -1.283782    0.910506
     14          1           0       -4.488339   -1.334534   -0.884846
     15          1           0       -5.679464   -0.316027   -0.027619
     16          6           0        1.762641    0.000599    0.026627
     17          6           0        2.534633   -1.286795    0.082123
     18          7           0        2.593240    1.000037    0.027422
     19          6           0        4.013555    0.629302    0.108272
     20          6           0        3.978090   -0.861800   -0.233291
     21          1           0        2.140767   -2.028839   -0.614516
     22          1           0        2.430309   -1.695914    1.095066
     23          1           0        4.365378    0.830627    1.124734
     24          1           0        4.589316    1.235569   -0.592433
     25          1           0        4.183290   -1.005004   -1.297598
     26          1           0        4.713673   -1.429304    0.338352
     27          1           0        2.307078    1.975633    0.037756
 ---------------------------------------------------------------------
                    Distance matrix (angstroms):
                    1          2          3          4          5
     1  C    0.000000
     2  C    1.397869   0.000000
     3  C    2.401849   1.386370   0.000000
     4  C    2.801368   2.432685   1.402009   0.000000
     5  C    2.410146   2.796992   2.415755   1.410941   0.000000
     6  C    1.404957   2.428406   2.779283   2.421585   1.375796
     7  H    2.150542   3.403154   3.864316   3.411770   2.146285
     8  H    2.167763   1.082912   2.138271   3.406284   3.879828
     9  H    3.376954   2.127400   1.084325   2.160744   3.405491
    10  H    3.382326   3.882025   3.412101   2.181242   1.085373
    11  O    1.346440   2.425281   3.662810   4.145054   3.599683
    12  C    2.393784   2.828566   4.213591   5.052305   4.802024
    13  H    2.716892   2.815983   4.143156   5.108301   5.034755
    14  H    2.716543   2.819282   4.142478   5.104834   5.031619
    15  H    3.256340   3.889713   5.267676   6.017063   5.606179
    16  C    4.247082   3.740929   2.456733   1.446177   2.504174
    17  C    5.246882   4.392993   3.007331   2.623882   3.911003
    18  N    5.121917   4.862184   3.674510   2.435820   2.950064
    19  C    6.500608   6.078374   4.777772   3.728031   4.411353
    20  C    6.555782   5.832929   4.452823   3.794302   4.858980
    21  H    5.191381   4.174752   2.861537   2.885305   4.244697
    22  H    5.399048   4.464562   3.146190   2.986701   4.277889
    23  H    6.957761   6.562226   5.289057   4.253574   4.867818
    24  H    7.154843   6.836394   5.577486   4.452149   4.956294
    25  H    6.900602   6.176480   4.836071   4.230536   5.258276
    26  H    7.395338   6.583371   5.198882   4.669114   5.782847
    27  H    5.079051   5.098707   4.094947   2.717004   2.709326
                    6          7          8          9         10
     6  C    0.000000
     7  H    1.085240   0.000000
     8  H    3.418264   4.306651   0.000000
     9  H    3.863538   4.948475   2.434290   0.000000
    10  H    2.115741   2.444960   4.964921   4.322897   0.000000
    11  O    2.330031   2.527381   2.723372   4.544745   4.445362
    12  C    3.654865   3.956583   2.539280   4.853417   5.740512
    13  H    4.022822   4.450398   2.333797   4.650530   6.014988
    14  H    4.020087   4.447213   2.343034   4.651566   6.012036
    15  H    4.344669   4.403252   3.623360   5.939267   6.460411
    16  C    3.757874   4.646959   4.594645   2.672138   2.765206
    17  C    5.045382   6.015339   4.993350   2.627555   4.266163
    18  N    4.323308   5.009214   5.791816   3.971252   2.699967
    19  C    5.779843   6.478220   6.913429   4.798359   4.140829
    20  C    6.137226   7.001774   6.489353   4.144293   4.908340
    21  H    5.213801   6.235908   4.613754   2.241566   4.765727
    22  H    5.316061   6.303664   4.964086   2.642882   4.703760
    23  H    6.213486   6.870897   7.391238   5.306289   4.545022
    24  H    6.323483   6.922609   7.706919   5.656423   4.522043
    25  H    6.500838   7.350548   6.802001   4.509987   5.302989
    26  H    7.043870   7.927779   7.155464   4.746758   5.846162
    27  H    4.049841   4.543397   6.112573   4.605428   2.106181
                   11         12         13         14         15
    11  O    0.000000
    12  C    1.430154   0.000000
    13  H    2.085022   1.094020   0.000000
    14  H    2.084614   1.094046   1.796165   0.000000
    15  H    2.016507   1.089750   1.786452   1.786330   0.000000
    16  C    5.591212   6.463958   6.460547   6.456633   7.449035
    17  C    6.577698   7.220916   7.090144   7.089389   8.271990
    18  N    6.428604   7.453779   7.510551   7.512071   8.376913
    19  C    7.827855   8.778983   8.769407   8.782091   9.739955
    20  C    7.899901   8.644883   8.572180   8.504611   9.675149
    21  H    6.470548   6.957119   6.860974   6.670845   8.027090
    22  H    6.692397   7.245493   6.951942   7.205437   8.302585
    23  H    8.266499   9.227292   9.123313   9.333522  10.175538
    24  H    8.456281   9.471600   9.557616   9.439001  10.400687
    25  H    8.222315   8.944489   8.970715   8.687698   9.968021
    26  H    8.735247   9.410181   9.239505   9.283438  10.458997
    27  H    6.307587   7.468001   7.603715   7.614860   8.309081
                   16         17         18         19         20
    16  C    0.000000
    17  C    1.502143   0.000000
    18  N    1.299527   2.288236   0.000000
    19  C    2.338492   2.420603   1.470128   0.000000
    20  C    2.391548   1.537424   2.334998   1.530133   0.000000
    21  H    2.161634   1.091360   3.129042   3.330986   2.209766
    22  H    2.113172   1.097413   2.904232   2.981117   2.203612
    23  H    2.944320   2.986995   2.091236   1.094306   2.204208
    24  H    3.146184   3.322509   2.103334   1.090893   2.213941
    25  H    2.936724   2.168203   2.881687   2.162460   1.093326
    26  H    3.293992   2.198676   3.239538   2.186541   1.090834
    27  H    2.048731   3.270655   1.016752   2.174774   3.304054
                   21         22         23         24         25
    21  H    0.000000
    22  H    1.765600   0.000000
    23  H    4.018760   3.182574   0.000000
    24  H    4.080716   4.012799   1.778423   0.000000
    25  H    2.384689   3.045511   3.044731   2.383754   0.000000
    26  H    2.808424   2.420217   2.418056   2.825486   1.771346
    27  H    4.060655   3.822741   2.594062   2.480613   3.766635
                   26         27
    26  H    0.000000
    27  H    4.180389   0.000000
 Stoichiometry    C11H14NO(1+)
 Framework group  C1[X(C11H14NO)]
 Deg. of freedom    75
 Full point group                 C1      NOp   1
 RotChk:  IX=0 Diff= 7.31D-05
 Largest Abelian subgroup         C1      NOp   1
 Largest concise Abelian subgroup C1      NOp   1
                         Standard orientation:                         
 ---------------------------------------------------------------------
 Center     Atomic      Atomic             Coordinates (Angstroms)
 Number     Number       Type             X           Y           Z
 ---------------------------------------------------------------------
      1          6           0       -2.476588    0.266668   -0.010680
      2          6           0       -1.847704   -0.980891    0.035549
      3          6           0       -0.462666   -1.040978    0.044610
      4          6           0        0.320903    0.121184    0.012558
      5          6           0       -0.334026    1.370280   -0.027206
      6          6           0       -1.707872    1.442291   -0.040551
      7          1           0       -2.216333    2.400474   -0.073703
      8          1           0       -2.421086   -1.899178    0.061641
      9          1           0        0.010325   -2.016049    0.080341
     10          1           0        0.226407    2.299537   -0.047965
     11          8           0       -3.811609    0.440690   -0.029028
     12          6           0       -4.662803   -0.708341   -0.005837
     13          1           0       -4.507012   -1.286146    0.909997
     14          1           0       -4.488660   -1.335215   -0.885405
     15          1           0       -5.679987   -0.317900   -0.027043
     16          6           0        1.762022    0.001118    0.026354
     17          6           0        2.534445   -1.286073    0.080528
     18          7           0        2.592293    1.000828    0.027954
     19          6           0        4.012742    0.630485    0.108239
     20          6           0        3.977714   -0.860309   -0.234711
     21          1           0        2.140715   -2.027595   -0.616743
     22          1           0        2.430411   -1.696172    1.093105
     23          1           0        4.364655    0.830975    1.124835
     24          1           0        4.588195    1.237595   -0.591987
     25          1           0        4.182797   -1.002451   -1.299182
     26          1           0        4.713571   -1.428105    0.336288
     27          1           0        2.305812    1.976320    0.039244
 ---------------------------------------------------------------------
 Rotational constants (GHZ):           2.8721501           0.3539993           0.3181953
 Leave Link  202 at Tue Jul  7 16:47:10 2026, MaxMem=  4026531840 cpu:               0.0 elap:               0.0
 (Enter /opt/packages/gaussian/g16RevC.01/g16/l301.exe)
 Standard basis: 6-31+G(d) (6D, 7F)
 Ernie: Thresh=  0.10000D-02 Tol=  0.10000D-05 Strict=F.
 There are   275 symmetry adapted cartesian basis functions of A   symmetry.
 There are   275 symmetry adapted basis functions of A   symmetry.
   275 basis functions,   472 primitive gaussians,   275 cartesian basis functions
    47 alpha electrons       47 beta electrons
       nuclear repulsion energy       757.8703381729 Hartrees.
 IExCor=20419 DFT=T Ex+Corr=CAM-B3LYP ExCW=0 ScaHFX=  1.000000
 ScaDFX=  1.000000  1.000000  1.000000  0.810000 ScalE2=  1.000000  1.000000
 IRadAn=      5 IRanWt=     -1 IRanGd=            0 ICorTp=0 IEmpDi=  4
 HFx  wShort=  0.000000 wLong=  0.330000 cFull=  0.190000 cShort=  0.000000 cLong=  0.460000
 DFx  wShort=  0.000000 wLong=  0.330000 cFull=  0.190000 cShort=  0.000000 cLong=  0.460000
 NAtoms=   27 NActive=   27 NUniq=   27 SFac= 1.00D+00 NAtFMM=   60 NAOKFM=F Big=F
 Integral buffers will be    131072 words long.
 Raffenetti 2 integral format.
 Two-electron integral symmetry is turned on.
 ------------------------------------------------------------------------------
 Polarizable Continuum Model (PCM)
 =================================
 Model                : PCM.
 Atomic radii         : SMD-Coulomb.
 Polarization charges : Total charges.
 Charge compensation  : None.
 Solution method      : On-the-fly selection.
 Cavity type          : VdW (van der Waals Surface) (Alpha=1.000).
 Cavity algorithm     : GePol (No added spheres)
                        Default sphere list used, NSphG=   27.
                        Lebedev-Laikov grids with approx.  5.0 points / Ang**2.
                        Smoothing algorithm: York/Karplus (Gamma=1.0000).
                        Polarization charges: spherical gaussians, with
                                              point-specific exponents (IZeta= 3).
                        Self-potential: point-specific (ISelfS= 7).
                        Self-field    : sphere-specific E.n sum rule (ISelfD= 2).
 1st derivatives      : Analytical E(r).r(x)/FMM algorithm (CHGder, D1EAlg=3).
                        Cavity 1st derivative terms included.
 Solvent              : Methanol, Eps=  32.613000 Eps(inf)=   1.765709
 ------------------------------------------------------------------------------
 GePol: Number of generator spheres                  =      27
 GePol: Total number of spheres                      =      27
 GePol: Number of exposed spheres                    =      27 (100.00%)
 GePol: Number of points                             =    1974
 GePol: Average weight of points                     =       0.11
 GePol: Minimum weight of points                     =   0.50D-10
 GePol: Maximum weight of points                     =    0.21991
 GePol: Number of points with low weight             =     108
 GePol: Fraction of low-weight points (<1% of avg)   =       5.47%
 GePol: Cavity surface area                          =    215.041 Ang**2
 GePol: Cavity volume                                =    191.254 Ang**3
 ------------------------------------------------------------------------------
 Atomic radii for non-electrostatic terms: SMD-CDS.
 ------------------------------------------------------------------------------
 PCM non-electrostatic energy =        -0.0004872853 Hartrees.
 Nuclear repulsion after PCM non-electrostatic terms =      757.8698508876 Hartrees.
 Leave Link  301 at Tue Jul  7 16:47:10 2026, MaxMem=  4026531840 cpu:               0.4 elap:               0.1
 (Enter /opt/packages/gaussian/g16RevC.01/g16/l302.exe)
 NPDir=0 NMtPBC=     1 NCelOv=     1 NCel=       1 NClECP=     1 NCelD=      1
         NCelK=      1 NCelE2=     1 NClLst=     1 CellRange=     0.0.
 One-electron integrals computed using PRISM.
 One-electron integral symmetry used in STVInt
 NBasis=   275 RedAO= T EigKep=  2.07D-06  NBF=   275
 NBsUse=   273 1.00D-06 EigRej=  8.55D-07 NBFU=   273
 Precomputing XC quadrature grid using
 IXCGrd= 4 IRadAn=           5 IRanWt=          -1 IRanGd=           0 AccXCQ= 0.00D+00.
 Generated NRdTot=       0 NPtTot=           0 NUsed=           0 NTot=          32
 NSgBfM=   274   274   274   274   274 MxSgAt=    27 MxSgA2=    27.
 Leave Link  302 at Tue Jul  7 16:47:11 2026, MaxMem=  4026531840 cpu:               1.4 elap:               0.2
 (Enter /opt/packages/gaussian/g16RevC.01/g16/l303.exe)
 DipDrv:  MaxL=1.
 Leave Link  303 at Tue Jul  7 16:47:11 2026, MaxMem=  4026531840 cpu:               0.1 elap:               0.0
 (Enter /opt/packages/gaussian/g16RevC.01/g16/l401.exe)
 Initial guess from the checkpoint file:  "iminium_ground_cam.chk"
 B after Tr=    -0.000000   -0.000000    0.000000
         Rot=    1.000000   -0.000018   -0.000001    0.000001 Ang=  -0.00 deg.
 Guess basis will be translated and rotated to current coordinates.
 JPrj=2 DoOrth=T DoCkMO=T.
 Leave Link  401 at Tue Jul  7 16:47:11 2026, MaxMem=  4026531840 cpu:               0.5 elap:               0.1
 (Enter /opt/packages/gaussian/g16RevC.01/g16/l502.exe)
 Integral symmetry usage will be decided dynamically.
 Closed shell SCF:
 Using DIIS extrapolation, IDIIS=  1040.
 NGot=  4026531840 LenX=  4026374748 LenY=  4026298682
 Requested convergence on RMS density matrix=1.00D-08 within 128 cycles.
 Requested convergence on MAX density matrix=1.00D-06.
 Requested convergence on             energy=1.00D-06.
 No special actions if energy rises.
 Fock matrices will be formed incrementally for  20 cycles.

 Cycle   1  Pass 1  IDiag  1:
 FoFJK:  IHMeth= 1 ICntrl=       0 DoSepK=T KAlg= 0 I1Cent=           0 FoldK=F
 IRaf=         1 NMat=       1 IRICut=       1 DoRegI=T DoRafI=F ISym2E= 0 IDoP0=0 IntGTp=1.
 FoFCou: FMM=F IPFlag=           0 FMFlag=      100000 FMFlg1=           0
         NFxFlg=           0 DoJE=T BraDBF=F KetDBF=F FulRan=T
         wScrn=  0.000000 ICntrl=       500 IOpCl=  0 I1Cent=           0 NGrid=           0
         NMat0=    1 NMatS0=      1 NMatT0=    0 NMatD0=    1 NMtDS0=    0 NMtDT0=    0
 Symmetry not used in FoFCou.
 Inv3:  Mode=1 IEnd=    11690028.
 Iteration    1 A*A^-1 deviation from unit magnitude is 3.66D-15 for    544.
 Iteration    1 A*A^-1 deviation from orthogonality  is 2.89D-15 for   1596    368.
 Iteration    1 A^-1*A deviation from unit magnitude is 3.33D-15 for    366.
 Iteration    1 A^-1*A deviation from orthogonality  is 6.08D-14 for   1257   1218.
 E= -557.156477867765    
 DIIS: error= 5.74D-05 at cycle   1 NSaved=   1.
 NSaved= 1 IEnMin= 1 EnMin= -557.156477867765     IErMin= 1 ErrMin= 5.74D-05
 ErrMax= 5.74D-05  0.00D+00 EMaxC= 1.00D-01 BMatC= 5.72D-07 BMatP= 5.72D-07
 IDIUse=1 WtCom= 1.00D+00 WtEn= 0.00D+00
 Coeff-Com:  0.100D+01
 Coeff:      0.100D+01
 Gap=     0.516 Goal=   None    Shift=    0.000
 RMSDP=2.43D-05 MaxDP=1.44D-03              OVMax= 2.03D-04

 Cycle   2  Pass 1  IDiag  1:
 RMSU=  2.40D-05    CP:  1.00D+00
 E= -557.156478652080     Delta-E=       -0.000000784315 Rises=F Damp=F
 DIIS: error= 5.42D-06 at cycle   2 NSaved=   2.
 NSaved= 2 IEnMin= 2 EnMin= -557.156478652080     IErMin= 2 ErrMin= 5.42D-06
 ErrMax= 5.42D-06  0.00D+00 EMaxC= 1.00D-01 BMatC= 1.09D-08 BMatP= 5.72D-07
 IDIUse=1 WtCom= 1.00D+00 WtEn= 0.00D+00
 Coeff-Com: -0.872D-01 0.109D+01
 Coeff:     -0.872D-01 0.109D+01
 Gap=     0.255 Goal=   None    Shift=    0.000
 RMSDP=4.10D-06 MaxDP=2.71D-04 DE=-7.84D-07 OVMax= 4.37D-05

 Cycle   3  Pass 1  IDiag  1:
 RMSU=  3.04D-06    CP:  1.00D+00  1.11D+00
 E= -557.156478681458     Delta-E=       -0.000000029378 Rises=F Damp=F
 DIIS: error= 1.60D-06 at cycle   3 NSaved=   3.
 NSaved= 3 IEnMin= 3 EnMin= -557.156478681458     IErMin= 3 ErrMin= 1.60D-06
 ErrMax= 1.60D-06  0.00D+00 EMaxC= 1.00D-01 BMatC= 1.26D-09 BMatP= 1.09D-08
 IDIUse=1 WtCom= 1.00D+00 WtEn= 0.00D+00
 Coeff-Com: -0.215D-01 0.142D+00 0.879D+00
 Coeff:     -0.215D-01 0.142D+00 0.879D+00
 Gap=     0.255 Goal=   None    Shift=    0.000
 RMSDP=8.60D-07 MaxDP=6.43D-05 DE=-2.94D-08 OVMax= 1.19D-05

 Cycle   4  Pass 1  IDiag  1:
 RMSU=  6.27D-07    CP:  1.00D+00  1.11D+00  1.19D+00
 E= -557.156478682643     Delta-E=       -0.000000001185 Rises=F Damp=F
 DIIS: error= 1.53D-06 at cycle   4 NSaved=   4.
 NSaved= 4 IEnMin= 4 EnMin= -557.156478682643     IErMin= 4 ErrMin= 1.53D-06
 ErrMax= 1.53D-06  0.00D+00 EMaxC= 1.00D-01 BMatC= 9.66D-10 BMatP= 1.26D-09
 IDIUse=1 WtCom= 1.00D+00 WtEn= 0.00D+00
 Coeff-Com:  0.208D-02-0.974D-01 0.494D+00 0.601D+00
 Coeff:      0.208D-02-0.974D-01 0.494D+00 0.601D+00
 Gap=     0.255 Goal=   None    Shift=    0.000
 RMSDP=3.48D-07 MaxDP=9.77D-06 DE=-1.19D-09 OVMax= 5.63D-06

 Cycle   5  Pass 1  IDiag  1:
 RMSU=  2.06D-07    CP:  1.00D+00  1.10D+00  1.28D+00  8.43D-01
 E= -557.156478683446     Delta-E=       -0.000000000803 Rises=F Damp=F
 DIIS: error= 1.92D-07 at cycle   5 NSaved=   5.
 NSaved= 5 IEnMin= 5 EnMin= -557.156478683446     IErMin= 5 ErrMin= 1.92D-07
 ErrMax= 1.92D-07  0.00D+00 EMaxC= 1.00D-01 BMatC= 2.22D-11 BMatP= 9.66D-10
 IDIUse=1 WtCom= 1.00D+00 WtEn= 0.00D+00
 Coeff-Com:  0.192D-02-0.387D-01 0.878D-01 0.177D+00 0.772D+00
 Coeff:      0.192D-02-0.387D-01 0.878D-01 0.177D+00 0.772D+00
 Gap=     0.255 Goal=   None    Shift=    0.000
 RMSDP=9.17D-08 MaxDP=3.63D-06 DE=-8.03D-10 OVMax= 1.70D-06

 Cycle   6  Pass 1  IDiag  1:
 RMSU=  7.29D-08    CP:  1.00D+00  1.10D+00  1.29D+00  8.81D-01  1.11D+00
 E= -557.156478683474     Delta-E=       -0.000000000028 Rises=F Damp=F
 DIIS: error= 7.29D-08 at cycle   6 NSaved=   6.
 NSaved= 6 IEnMin= 6 EnMin= -557.156478683474     IErMin= 6 ErrMin= 7.29D-08
 ErrMax= 7.29D-08  0.00D+00 EMaxC= 1.00D-01 BMatC= 3.59D-12 BMatP= 2.22D-11
 IDIUse=1 WtCom= 1.00D+00 WtEn= 0.00D+00
 Coeff-Com:  0.421D-03-0.155D-02-0.324D-01-0.126D-01 0.285D+00 0.761D+00
 Coeff:      0.421D-03-0.155D-02-0.324D-01-0.126D-01 0.285D+00 0.761D+00
 Gap=     0.255 Goal=   None    Shift=    0.000
 RMSDP=4.61D-08 MaxDP=1.77D-06 DE=-2.83D-11 OVMax= 7.54D-07

 Cycle   7  Pass 1  IDiag  1:
 RMSU=  2.81D-08    CP:  1.00D+00  1.10D+00  1.29D+00  9.16D-01  1.21D+00
                    CP:  1.04D+00
 E= -557.156478683478     Delta-E=       -0.000000000004 Rises=F Damp=F
 DIIS: error= 2.14D-08 at cycle   7 NSaved=   7.
 NSaved= 7 IEnMin= 7 EnMin= -557.156478683478     IErMin= 7 ErrMin= 2.14D-08
 ErrMax= 2.14D-08  0.00D+00 EMaxC= 1.00D-01 BMatC= 1.52D-13 BMatP= 3.59D-12
 IDIUse=1 WtCom= 1.00D+00 WtEn= 0.00D+00
 Coeff-Com: -0.123D-03 0.396D-02-0.156D-01-0.212D-01-0.264D-01 0.136D+00
 Coeff-Com:  0.923D+00
 Coeff:     -0.123D-03 0.396D-02-0.156D-01-0.212D-01-0.264D-01 0.136D+00
 Coeff:      0.923D+00
 Gap=     0.255 Goal=   None    Shift=    0.000
 RMSDP=1.16D-08 MaxDP=3.35D-07 DE=-3.87D-12 OVMax= 3.06D-07

 Cycle   8  Pass 1  IDiag  1:
 RMSU=  6.41D-09    CP:  1.00D+00  1.10D+00  1.29D+00  9.19D-01  1.24D+00
                    CP:  1.09D+00  8.83D-01
 E= -557.156478683480     Delta-E=       -0.000000000002 Rises=F Damp=F
 DIIS: error= 8.17D-09 at cycle   8 NSaved=   8.
 NSaved= 8 IEnMin= 8 EnMin= -557.156478683480     IErMin= 8 ErrMin= 8.17D-09
 ErrMax= 8.17D-09  0.00D+00 EMaxC= 1.00D-01 BMatC= 2.40D-14 BMatP= 1.52D-13
 IDIUse=1 WtCom= 1.00D+00 WtEn= 0.00D+00
 Coeff-Com: -0.701D-04 0.170D-02-0.481D-02-0.810D-02-0.239D-01 0.186D-01
 Coeff-Com:  0.371D+00 0.646D+00
 Coeff:     -0.701D-04 0.170D-02-0.481D-02-0.810D-02-0.239D-01 0.186D-01
 Coeff:      0.371D+00 0.646D+00
 Gap=     0.255 Goal=   None    Shift=    0.000
 RMSDP=4.52D-09 MaxDP=2.04D-07 DE=-1.59D-12 OVMax= 5.74D-08

 Error on total polarization charges =  0.05312
 SCF Done:  E(RCAM-B3LYP) =  -557.156478683     A.U. after    8 cycles
            NFock=  8  Conv=0.45D-08     -V/T= 2.0094
 KE= 5.519731565245D+02 PE=-2.793433691553D+03 EE= 9.264342054572D+02
 SMD-CDS (non-electrostatic) energy       (kcal/mol) =      -0.31
 (included in total energy above)
 Leave Link  502 at Tue Jul  7 16:47:31 2026, MaxMem=  4026531840 cpu:             159.4 elap:              20.2
 (Enter /opt/packages/gaussian/g16RevC.01/g16/l701.exe)
 ... and contract with generalized density number  0.
 Compute integral first derivatives.
 D1PCM: PCM CHGder 1st derivatives, ID1Alg=3 FixD1E=F DoIter=F DoCFld=F I1PDM=0.
 GePol: Maximum number of non-zero 1st derivatives   =     257
 Leave Link  701 at Tue Jul  7 16:47:32 2026, MaxMem=  4026531840 cpu:               6.5 elap:               0.8
 (Enter /opt/packages/gaussian/g16RevC.01/g16/l702.exe)
 L702 exits ... SP integral derivatives will be done elsewhere.
 Leave Link  702 at Tue Jul  7 16:47:32 2026, MaxMem=  4026531840 cpu:               0.1 elap:               0.0
 (Enter /opt/packages/gaussian/g16RevC.01/g16/l703.exe)
 Integral derivatives from FoFJK, PRISM(SPDF).
 Compute integral first derivatives, UseDBF=F ICtDFT=           0.
 Calling FoFJK, ICntrl=      2127 FMM=F ISym2X=0 I1Cent= 0 IOpClX= 0 NMat=1 NMatS=1 NMatT=0.
 FoFJK:  IHMeth= 1 ICntrl=    2127 DoSepK=T KAlg= 0 I1Cent=           0 FoldK=F
 IRaf=         1 NMat=       1 IRICut=       1 DoRegI=T DoRafI=F ISym2E= 0 IDoP0=0 IntGTp=1.
 FoFCou: FMM=F IPFlag=           0 FMFlag=      100000 FMFlg1=         800
         NFxFlg=           0 DoJE=F BraDBF=F KetDBF=F FulRan=T
         wScrn=  0.000000 ICntrl=      2527 IOpCl=  0 I1Cent=           0 NGrid=           0
         NMat0=    1 NMatS0=      1 NMatT0=    0 NMatD0=    1 NMtDS0=    0 NMtDT0=    0
 Symmetry not used in FoFCou.
 Leave Link  703 at Tue Jul  7 16:47:40 2026, MaxMem=  4026531840 cpu:              64.7 elap:               8.1
 (Enter /opt/packages/gaussian/g16RevC.01/g16/l716.exe)
 Dipole        = 2.85262752D+00-1.58709027D-01 1.42474566D-01
 ***** Axes restored to original set *****
 -------------------------------------------------------------------
 Center     Atomic                   Forces (Hartrees/Bohr)
 Number     Number              X              Y              Z
 -------------------------------------------------------------------
      1        6          -0.000020744    0.000005738   -0.000004062
      2        6           0.000005209   -0.000002860    0.000006136
      3        6          -0.000011218   -0.000001079    0.000002477
      4        6           0.000008968    0.000003815   -0.000001687
      5        6          -0.000004363    0.000000307   -0.000000565
      6        6           0.000008282    0.000004745    0.000001519
      7        1           0.000001649    0.000002872    0.000000298
      8        1          -0.000002429    0.000002755    0.000006652
      9        1           0.000000387    0.000000117    0.000002927
     10        1           0.000004554    0.000001613   -0.000003644
     11        8           0.000024448    0.000020748    0.000010377
     12        6          -0.000019881   -0.000027475    0.000005954
     13        1           0.000000925    0.000011908    0.000007394
     14        1          -0.000001041    0.000009765    0.000009712
     15        1           0.000002281    0.000008134    0.000008426
     16        6           0.000000472    0.000000954    0.000000390
     17        6          -0.000000884   -0.000006801   -0.000008207
     18        7           0.000008304   -0.000006337   -0.000004486
     19        6          -0.000009655    0.000000660   -0.000010383
     20        6           0.000000770   -0.000003215   -0.000000508
     21        1          -0.000001732   -0.000003614    0.000001348
     22        1           0.000000422    0.000001217    0.000000043
     23        1           0.000004069   -0.000004233   -0.000006524
     24        1           0.000003392   -0.000005980   -0.000006566
     25        1          -0.000002995   -0.000005309   -0.000004734
     26        1           0.000000372   -0.000005683   -0.000006862
     27        1           0.000000436   -0.000002763   -0.000005427
 -------------------------------------------------------------------
 Cartesian Forces:  Max     0.000027475 RMS     0.000007604
 Leave Link  716 at Tue Jul  7 16:47:42 2026, MaxMem=  4026531840 cpu:               0.1 elap:               0.7
 (Enter /opt/packages/gaussian/g16RevC.01/g16/l103.exe)

 GradGradGradGradGradGradGradGradGradGradGradGradGradGradGradGradGradGrad
 Berny optimization.
 Using GEDIIS/GDIIS optimizer.
 FormGI is forming the generalized inverse of G from B-inverse, IUseBI=4.
 GSVD:  received Info=                   1 from GESDD.
 Internal  Forces:  Max     0.000023598 RMS     0.000002849
 Search for a local minimum.
 Step number   7 out of a maximum of  154
 All quantities printed in internal units (Hartrees-Bohrs-Radians)
 RMS Force = .28492D-05 SwitMx=.10000D-02 MixMth= 2
 Mixed Optimization -- En-DIIS/RFO-DIIS
 Swapping is turned off.
 Update second derivatives using D2CorX and points    1    2    3    4    5
                                                      6    7
 DE= -2.03D-08 DEPred=-1.55D-08 R= 1.31D+00
 Trust test= 1.31D+00 RLast= 2.57D-03 DXMaxT set to 3.00D-01
 ITU=  0  0  0  1  1  1  0
     Eigenvalues ---    0.00207   0.00974   0.01070   0.01208   0.01343
     Eigenvalues ---    0.01759   0.01778   0.01920   0.02027   0.02045
     Eigenvalues ---    0.02106   0.02120   0.02137   0.02178   0.02238
     Eigenvalues ---    0.02264   0.03306   0.03557   0.04950   0.05199
     Eigenvalues ---    0.05625   0.05861   0.06895   0.07466   0.08375
     Eigenvalues ---    0.08427   0.09351   0.10149   0.10661   0.10968
     Eigenvalues ---    0.14418   0.15880   0.15993   0.16000   0.16005
     Eigenvalues ---    0.16049   0.16063   0.16139   0.21511   0.22039
     Eigenvalues ---    0.22913   0.23061   0.23914   0.24833   0.25193
     Eigenvalues ---    0.26176   0.27372   0.28605   0.30372   0.31461
     Eigenvalues ---    0.33818   0.34151   0.34196   0.34249   0.34326
     Eigenvalues ---    0.34456   0.34557   0.34581   0.34633   0.34669
     Eigenvalues ---    0.35080   0.35290   0.35330   0.35683   0.37035
     Eigenvalues ---    0.41347   0.41432   0.41942   0.44809   0.45309
     Eigenvalues ---    0.46530   0.46991   0.52410   0.60322   0.62875
 En-DIIS/RFO-DIIS/Sim-DIIS IScMMF=       -3 using points:     7    6    5    4    3    2
 RFO step:  Lambda=-3.67758495D-09.
 NNeg= 0 NGDIIS= 6 SimSw=  2.50D-01 Rises=F DC= -2.03D-08 SmlDif=  1.00D-05
 NRisDI= 0 DoIntr=F SqrtH=F CThrHd= 10.0 CDAdj=  3.0
 RMS Error=  0.9892903043D-04 NUsed= 6 OKEnD=F EnDIS=F
 InvSVX:  RCond= 6.58D-09 Info=           0 Equed=N FErr=  3.28D-13 BErr=  2.54D-17
 DIIS inversion failure, remove point   6.
 InvSVX:  RCond= 7.96D-09 Info=           0 Equed=N FErr=  2.83D-13 BErr=  4.73D-17
 DIIS inversion failure, remove point   5.
 InvSVX:  RCond= 1.21D-08 Info=           0 Equed=N FErr=  1.88D-13 BErr=  7.80D-17
 DIIS inversion failure, remove point   4.
 InvSVX:  RCond= 1.76D-08 Info=           0 Equed=N FErr=  9.45D-14 BErr=  2.29D-17
 DIIS inversion failure, remove point   3.
 InvSVX:  RCond= 1.65D-06 Info=           0 Equed=N FErr=  2.10D-15 BErr=  2.43D-17
 RFO-DIIS uses    2 points instead of    6
 DidBck=F Rises=F RFO-DIIS coefs:    1.44937   -0.44937    0.00000    0.00000    0.00000
                  RFO-DIIS coefs:    0.00000
 Iteration  1 RMS(Cart)=  0.00017859 RMS(Int)=  0.00000001
 Iteration  2 RMS(Cart)=  0.00000002 RMS(Int)=  0.00000000
 ITry= 1 IFail=0 DXMaxC= 8.79D-04 DCOld= 1.00D+10 DXMaxT= 3.00D-01 DXLimC= 3.00D+00 Rises=F
 Variable       Old X    -DE/DX   Delta X   Delta X   Delta X     New X
                                 (Linear)    (Quad)   (Total)
    R1        2.64159   0.00001  -0.00001   0.00002   0.00001   2.64160
    R2        2.65498   0.00001  -0.00001   0.00002   0.00001   2.65499
    R3        2.54440  -0.00001   0.00003  -0.00003  -0.00000   2.54440
    R4        2.61986  -0.00000  -0.00000  -0.00000  -0.00001   2.61985
    R5        2.04641   0.00000  -0.00000   0.00000  -0.00000   2.04641
    R6        2.64941   0.00001   0.00001   0.00001   0.00002   2.64943
    R7        2.04908   0.00000   0.00000   0.00000   0.00000   2.04908
    R8        2.66629   0.00000   0.00001   0.00000   0.00001   2.66630
    R9        2.73288   0.00000  -0.00003   0.00001  -0.00002   2.73286
   R10        2.59988   0.00000  -0.00000  -0.00000  -0.00000   2.59988
   R11        2.05106   0.00000  -0.00000   0.00001   0.00001   2.05106
   R12        2.05081   0.00000  -0.00000   0.00000   0.00000   2.05081
   R13        2.70260   0.00002   0.00001   0.00006   0.00007   2.70267
   R14        2.06740  -0.00000  -0.00000  -0.00001  -0.00001   2.06739
   R15        2.06745  -0.00000  -0.00000  -0.00001  -0.00001   2.06744
   R16        2.05933  -0.00000  -0.00000  -0.00000  -0.00001   2.05932
   R17        2.83864   0.00000   0.00001   0.00001   0.00002   2.83866
   R18        2.45575  -0.00000   0.00002  -0.00001   0.00001   2.45576
   R19        2.90531   0.00000  -0.00001   0.00001   0.00000   2.90531
   R20        2.06237  -0.00000  -0.00000  -0.00000  -0.00000   2.06237
   R21        2.07381   0.00000   0.00000   0.00000   0.00000   2.07381
   R22        2.77814  -0.00001   0.00001  -0.00002  -0.00000   2.77813
   R23        1.92138  -0.00000  -0.00001   0.00000  -0.00000   1.92138
   R24        2.89153   0.00000  -0.00002   0.00000  -0.00001   2.89152
   R25        2.06794   0.00000  -0.00000   0.00001   0.00000   2.06794
   R26        2.06149   0.00000  -0.00000   0.00000  -0.00000   2.06149
   R27        2.06609  -0.00000  -0.00000   0.00000   0.00000   2.06609
   R28        2.06138   0.00000  -0.00000   0.00000   0.00000   2.06138
    A1        2.09594  -0.00000   0.00002  -0.00002  -0.00000   2.09594
    A2        2.16744   0.00000  -0.00001   0.00001   0.00000   2.16745
    A3        2.01980   0.00000  -0.00001   0.00001   0.00000   2.01980
    A4        2.08100   0.00000  -0.00001   0.00001  -0.00000   2.08100
    A5        2.11693  -0.00000  -0.00000  -0.00000  -0.00001   2.11693
    A6        2.08525   0.00000   0.00001  -0.00000   0.00001   2.08526
    A7        2.12032   0.00000   0.00000   0.00001   0.00001   2.12033
    A8        2.06574   0.00000   0.00001   0.00000   0.00001   2.06575
    A9        2.09713  -0.00000  -0.00001  -0.00001  -0.00002   2.09711
   A10        2.06583  -0.00000  -0.00001  -0.00001  -0.00002   2.06581
   A11        2.08048   0.00000  -0.00000   0.00001   0.00001   2.08048
   A12        2.13687   0.00000   0.00001   0.00000   0.00001   2.13688
   A13        2.10613   0.00000   0.00000   0.00000   0.00001   2.10614
   A14        2.11626  -0.00000  -0.00002  -0.00000  -0.00002   2.11624
   A15        2.06079  -0.00000   0.00001  -0.00000   0.00001   2.06080
   A16        2.09713   0.00000  -0.00001   0.00001   0.00000   2.09713
   A17        2.07499  -0.00000   0.00001  -0.00001  -0.00000   2.07499
   A18        2.11107  -0.00000   0.00000  -0.00000  -0.00000   2.11107
   A19        2.07838   0.00000  -0.00001  -0.00000  -0.00001   2.07837
   A20        1.93173  -0.00000   0.00000  -0.00003  -0.00003   1.93171
   A21        1.93113  -0.00000  -0.00000  -0.00003  -0.00003   1.93109
   A22        1.84146  -0.00000  -0.00001  -0.00002  -0.00003   1.84143
   A23        1.92594   0.00001  -0.00000   0.00004   0.00004   1.92598
   A24        1.91605   0.00000   0.00000   0.00002   0.00002   1.91607
   A25        1.91582   0.00000   0.00001   0.00002   0.00002   1.91585
   A26        2.19432   0.00000   0.00002   0.00001   0.00003   2.19435
   A27        2.18073  -0.00000  -0.00000  -0.00001  -0.00001   2.18072
   A28        1.90777  -0.00000  -0.00002  -0.00000  -0.00002   1.90774
   A29        1.81113  -0.00000  -0.00002  -0.00000  -0.00002   1.81111
   A30        1.95375   0.00000   0.00002   0.00002   0.00004   1.95379
   A31        1.88047  -0.00000  -0.00001  -0.00002  -0.00002   1.88045
   A32        1.97777   0.00000   0.00002   0.00000   0.00002   1.97779
   A33        1.96240  -0.00000  -0.00004   0.00000  -0.00004   1.96237
   A34        1.87696   0.00000   0.00002  -0.00000   0.00002   1.87698
   A35        2.00820   0.00000  -0.00002   0.00001  -0.00001   2.00819
   A36        2.16285  -0.00000  -0.00000  -0.00002  -0.00002   2.16283
   A37        2.10985   0.00000   0.00002   0.00000   0.00002   2.10987
   A38        1.78347   0.00000  -0.00002   0.00000  -0.00001   1.78346
   A39        1.89157   0.00000  -0.00001   0.00002   0.00001   1.89158
   A40        1.91180   0.00000  -0.00000   0.00002   0.00002   1.91182
   A41        1.97586  -0.00000  -0.00002  -0.00001  -0.00003   1.97583
   A42        1.99372  -0.00000   0.00002  -0.00001   0.00001   1.99373
   A43        1.90149  -0.00000   0.00002  -0.00002   0.00000   1.90149
   A44        1.81867  -0.00000  -0.00002  -0.00001  -0.00003   1.81865
   A45        1.91741   0.00000  -0.00001   0.00000  -0.00001   1.91741
   A46        1.96253   0.00000  -0.00001   0.00002   0.00001   1.96254
   A47        1.91834  -0.00000   0.00000  -0.00001  -0.00001   1.91833
   A48        1.95451   0.00000   0.00001   0.00001   0.00002   1.95454
   A49        1.89171  -0.00000   0.00002  -0.00002   0.00001   1.89171
    D1       -0.00561  -0.00000  -0.00001  -0.00005  -0.00005  -0.00567
    D2        3.13891  -0.00000   0.00000  -0.00006  -0.00005   3.13885
    D3        3.13656   0.00000  -0.00004   0.00006   0.00002   3.13658
    D4       -0.00211   0.00000  -0.00003   0.00005   0.00002  -0.00208
    D5        0.00233   0.00000  -0.00000   0.00004   0.00004   0.00237
    D6       -3.13885   0.00000  -0.00002   0.00004   0.00002  -3.13882
    D7       -3.13979  -0.00000   0.00003  -0.00006  -0.00003  -3.13982
    D8        0.00221  -0.00000   0.00001  -0.00006  -0.00005   0.00217
    D9       -0.00459  -0.00000  -0.00013  -0.00009  -0.00021  -0.00480
   D10        3.13756  -0.00000  -0.00016   0.00002  -0.00014   3.13742
   D11        0.00343   0.00000   0.00001   0.00002   0.00003   0.00346
   D12       -3.14127   0.00000  -0.00000   0.00001   0.00001  -3.14126
   D13       -3.14103   0.00000  -0.00000   0.00003   0.00003  -3.14101
   D14       -0.00255   0.00000  -0.00001   0.00002   0.00001  -0.00254
   D15        0.00198   0.00000  -0.00001   0.00002   0.00002   0.00200
   D16        3.13955   0.00000   0.00003  -0.00001   0.00002   3.13958
   D17       -3.13645   0.00000   0.00001   0.00003   0.00004  -3.13641
   D18        0.00112   0.00000   0.00004   0.00000   0.00004   0.00117
   D19       -0.00533  -0.00000  -0.00000  -0.00003  -0.00003  -0.00536
   D20        3.13609  -0.00000   0.00001  -0.00001   0.00000   3.13609
   D21        3.14042  -0.00000  -0.00004   0.00000  -0.00004   3.14039
   D22       -0.00134   0.00000  -0.00003   0.00002  -0.00001  -0.00135
   D23       -0.00605   0.00000   0.00023  -0.00003   0.00021  -0.00584
   D24       -3.11523   0.00000   0.00020  -0.00002   0.00018  -3.11505
   D25        3.13135   0.00000   0.00027  -0.00006   0.00022   3.13157
   D26        0.02217   0.00000   0.00024  -0.00005   0.00019   0.02236
   D27        0.00321  -0.00000   0.00001  -0.00000   0.00000   0.00321
   D28       -3.13880   0.00000   0.00002  -0.00000   0.00002  -3.13878
   D29       -3.13822  -0.00000  -0.00001  -0.00002  -0.00003  -3.13825
   D30        0.00295  -0.00000   0.00001  -0.00002  -0.00001   0.00294
   D31        1.07005   0.00000   0.00010   0.00003   0.00013   1.07018
   D32       -1.07048  -0.00000   0.00010   0.00002   0.00012  -1.07036
   D33       -3.14151   0.00000   0.00010   0.00002   0.00012  -3.14139
   D34        2.93388   0.00000  -0.00017   0.00002  -0.00015   2.93373
   D35        0.79491  -0.00000  -0.00019   0.00001  -0.00018   0.79472
   D36       -1.26526  -0.00000  -0.00023   0.00002  -0.00021  -1.26547
   D37       -0.23586   0.00000  -0.00014   0.00002  -0.00013  -0.23599
   D38       -2.37483  -0.00000  -0.00017   0.00001  -0.00016  -2.37499
   D39        1.84819  -0.00000  -0.00020   0.00001  -0.00019   1.84800
   D40        3.09262   0.00000   0.00007  -0.00003   0.00004   3.09267
   D41        0.02333   0.00000   0.00001   0.00002   0.00003   0.02336
   D42       -0.02109  -0.00000   0.00004  -0.00002   0.00002  -0.02107
   D43       -3.09038   0.00000  -0.00002   0.00002   0.00000  -3.09038
   D44        0.38283  -0.00000   0.00019  -0.00001   0.00018   0.38301
   D45       -1.67155  -0.00000   0.00020   0.00001   0.00021  -1.67134
   D46        2.50325  -0.00000   0.00019   0.00001   0.00020   2.50344
   D47        2.50584   0.00000   0.00021   0.00001   0.00022   2.50606
   D48        0.45146   0.00000   0.00023   0.00003   0.00025   0.45171
   D49       -1.65693   0.00000   0.00021   0.00003   0.00024  -1.65668
   D50       -1.64431   0.00000   0.00022   0.00002   0.00024  -1.64407
   D51        2.58450   0.00000   0.00024   0.00003   0.00027   2.58477
   D52        0.47611   0.00000   0.00022   0.00004   0.00026   0.47637
   D53        0.26808  -0.00000   0.00008   0.00002   0.00010   0.26818
   D54       -1.82237   0.00000   0.00011   0.00002   0.00013  -1.82224
   D55        2.38827   0.00000   0.00010   0.00002   0.00011   2.38838
   D56       -2.94342  -0.00000   0.00014  -0.00003   0.00011  -2.94331
   D57        1.24932   0.00000   0.00017  -0.00002   0.00015   1.24946
   D58       -0.82323  -0.00000   0.00016  -0.00003   0.00013  -0.82310
   D59       -0.38603   0.00000  -0.00016  -0.00001  -0.00017  -0.38620
   D60        1.66771   0.00000  -0.00019  -0.00001  -0.00020   1.66751
   D61       -2.51176  -0.00000  -0.00015  -0.00003  -0.00018  -2.51194
   D62        1.64433   0.00000  -0.00019   0.00002  -0.00018   1.64415
   D63       -2.58511   0.00000  -0.00022   0.00001  -0.00021  -2.58532
   D64       -0.48140   0.00000  -0.00018  -0.00001  -0.00019  -0.48159
   D65       -2.44883  -0.00000  -0.00016  -0.00003  -0.00019  -2.44902
   D66       -0.39508  -0.00000  -0.00018  -0.00004  -0.00022  -0.39530
   D67        1.70863  -0.00000  -0.00014  -0.00006  -0.00020   1.70843
         Item               Value     Threshold  Converged?
 Maximum Force            0.000024     0.000450     YES
 RMS     Force            0.000003     0.000300     YES
 Maximum Displacement     0.000879     0.001800     YES
 RMS     Displacement     0.000179     0.001200     YES
 Predicted change in Energy=-3.850605D-09
 Optimization completed.
    -- Stationary point found.
                           ----------------------------
                           !   Optimized Parameters   !
                           ! (Angstroms and Degrees)  !
 --------------------------                            --------------------------
 ! Name  Definition              Value          Derivative Info.                !
 --------------------------------------------------------------------------------
 ! R1    R(1,2)                  1.3979         -DE/DX =    0.0                 !
 ! R2    R(1,6)                  1.405          -DE/DX =    0.0                 !
 ! R3    R(1,11)                 1.3464         -DE/DX =    0.0                 !
 ! R4    R(2,3)                  1.3864         -DE/DX =    0.0                 !
 ! R5    R(2,8)                  1.0829         -DE/DX =    0.0                 !
 ! R6    R(3,4)                  1.402          -DE/DX =    0.0                 !
 ! R7    R(3,9)                  1.0843         -DE/DX =    0.0                 !
 ! R8    R(4,5)                  1.4109         -DE/DX =    0.0                 !
 ! R9    R(4,16)                 1.4462         -DE/DX =    0.0                 !
 ! R10   R(5,6)                  1.3758         -DE/DX =    0.0                 !
 ! R11   R(5,10)                 1.0854         -DE/DX =    0.0                 !
 ! R12   R(6,7)                  1.0852         -DE/DX =    0.0                 !
 ! R13   R(11,12)                1.4302         -DE/DX =    0.0                 !
 ! R14   R(12,13)                1.094          -DE/DX =    0.0                 !
 ! R15   R(12,14)                1.094          -DE/DX =    0.0                 !
 ! R16   R(12,15)                1.0898         -DE/DX =    0.0                 !
 ! R17   R(16,17)                1.5021         -DE/DX =    0.0                 !
 ! R18   R(16,18)                1.2995         -DE/DX =    0.0                 !
 ! R19   R(17,20)                1.5374         -DE/DX =    0.0                 !
 ! R20   R(17,21)                1.0914         -DE/DX =    0.0                 !
 ! R21   R(17,22)                1.0974         -DE/DX =    0.0                 !
 ! R22   R(18,19)                1.4701         -DE/DX =    0.0                 !
 ! R23   R(18,27)                1.0168         -DE/DX =    0.0                 !
 ! R24   R(19,20)                1.5301         -DE/DX =    0.0                 !
 ! R25   R(19,23)                1.0943         -DE/DX =    0.0                 !
 ! R26   R(19,24)                1.0909         -DE/DX =    0.0                 !
 ! R27   R(20,25)                1.0933         -DE/DX =    0.0                 !
 ! R28   R(20,26)                1.0908         -DE/DX =    0.0                 !
 ! A1    A(2,1,6)              120.0888         -DE/DX =    0.0                 !
 ! A2    A(2,1,11)             124.1853         -DE/DX =    0.0                 !
 ! A3    A(6,1,11)             115.7259         -DE/DX =    0.0                 !
 ! A4    A(1,2,3)              119.2323         -DE/DX =    0.0                 !
 ! A5    A(1,2,8)              121.2912         -DE/DX =    0.0                 !
 ! A6    A(3,2,8)              119.4763         -DE/DX =    0.0                 !
 ! A7    A(2,3,4)              121.4851         -DE/DX =    0.0                 !
 ! A8    A(2,3,9)              118.3579         -DE/DX =    0.0                 !
 ! A9    A(4,3,9)              120.1567         -DE/DX =    0.0                 !
 ! A10   A(3,4,5)              118.3634         -DE/DX =    0.0                 !
 ! A11   A(3,4,16)             119.2025         -DE/DX =    0.0                 !
 ! A12   A(5,4,16)             122.4337         -DE/DX =    0.0                 !
 ! A13   A(4,5,6)              120.6726         -DE/DX =    0.0                 !
 ! A14   A(4,5,10)             121.2528         -DE/DX =    0.0                 !
 ! A15   A(6,5,10)             118.0746         -DE/DX =    0.0                 !
 ! A16   A(1,6,5)              120.1567         -DE/DX =    0.0                 !
 ! A17   A(1,6,7)              118.888          -DE/DX =    0.0                 !
 ! A18   A(5,6,7)              120.9553         -DE/DX =    0.0                 !
 ! A19   A(1,11,12)            119.0825         -DE/DX =    0.0                 !
 ! A20   A(11,12,13)           110.6802         -DE/DX =    0.0                 !
 ! A21   A(11,12,14)           110.6453         -DE/DX =    0.0                 !
 ! A22   A(11,12,15)           105.5079         -DE/DX =    0.0                 !
 ! A23   A(13,12,14)           110.3483         -DE/DX =    0.0                 !
 ! A24   A(13,12,15)           109.7817         -DE/DX =    0.0                 !
 ! A25   A(14,12,15)           109.7686         -DE/DX =    0.0                 !
 ! A26   A(4,16,17)            125.7254         -DE/DX =    0.0                 !
 ! A27   A(4,16,18)            124.9465         -DE/DX =    0.0                 !
 ! A28   A(17,16,18)           109.3069         -DE/DX =    0.0                 !
 ! A29   A(16,17,20)           103.7699         -DE/DX =    0.0                 !
 ! A30   A(16,17,21)           111.9419         -DE/DX =    0.0                 !
 ! A31   A(16,17,22)           107.7432         -DE/DX =    0.0                 !
 ! A32   A(20,17,21)           113.318          -DE/DX =    0.0                 !
 ! A33   A(20,17,22)           112.4375         -DE/DX =    0.0                 !
 ! A34   A(21,17,22)           107.5418         -DE/DX =    0.0                 !
 ! A35   A(16,18,19)           115.0612         -DE/DX =    0.0                 !
 ! A36   A(16,18,27)           123.9222         -DE/DX =    0.0                 !
 ! A37   A(19,18,27)           120.8854         -DE/DX =    0.0                 !
 ! A38   A(18,19,20)           102.1855         -DE/DX =    0.0                 !
 ! A39   A(18,19,23)           108.3788         -DE/DX =    0.0                 !
 ! A40   A(18,19,24)           109.538          -DE/DX =    0.0                 !
 ! A41   A(20,19,23)           113.2085         -DE/DX =    0.0                 !
 ! A42   A(20,19,24)           114.2317         -DE/DX =    0.0                 !
 ! A43   A(23,19,24)           108.9474         -DE/DX =    0.0                 !
 ! A44   A(17,20,19)           104.2023         -DE/DX =    0.0                 !
 ! A45   A(17,20,25)           109.8597         -DE/DX =    0.0                 !
 ! A46   A(17,20,26)           112.4446         -DE/DX =    0.0                 !
 ! A47   A(19,20,25)           109.9127         -DE/DX =    0.0                 !
 ! A48   A(19,20,26)           111.9853         -DE/DX =    0.0                 !
 ! A49   A(25,20,26)           108.3867         -DE/DX =    0.0                 !
 ! D1    D(6,1,2,3)             -0.3215         -DE/DX =    0.0                 !
 ! D2    D(6,1,2,8)            179.8461         -DE/DX =    0.0                 !
 ! D3    D(11,1,2,3)           179.7117         -DE/DX =    0.0                 !
 ! D4    D(11,1,2,8)            -0.1206         -DE/DX =    0.0                 !
 ! D5    D(2,1,6,5)              0.1336         -DE/DX =    0.0                 !
 ! D6    D(2,1,6,7)           -179.8426         -DE/DX =    0.0                 !
 ! D7    D(11,1,6,5)          -179.8969         -DE/DX =    0.0                 !
 ! D8    D(11,1,6,7)             0.1268         -DE/DX =    0.0                 !
 ! D9    D(2,1,11,12)           -0.263          -DE/DX =    0.0                 !
 ! D10   D(6,1,11,12)          179.7689         -DE/DX =    0.0                 !
 ! D11   D(1,2,3,4)              0.1966         -DE/DX =    0.0                 !
 ! D12   D(1,2,3,9)           -179.9815         -DE/DX =    0.0                 !
 ! D13   D(8,2,3,4)           -179.9679         -DE/DX =    0.0                 !
 ! D14   D(8,2,3,9)             -0.1461         -DE/DX =    0.0                 !
 ! D15   D(2,3,4,5)              0.1135         -DE/DX =    0.0                 !
 ! D16   D(2,3,4,16)           179.883          -DE/DX =    0.0                 !
 ! D17   D(9,3,4,5)           -179.7052         -DE/DX =    0.0                 !
 ! D18   D(9,3,4,16)             0.0643         -DE/DX =    0.0                 !
 ! D19   D(3,4,5,6)             -0.3054         -DE/DX =    0.0                 !
 ! D20   D(3,4,5,10)           179.685          -DE/DX =    0.0                 !
 ! D21   D(16,4,5,6)           179.933          -DE/DX =    0.0                 !
 ! D22   D(16,4,5,10)           -0.0766         -DE/DX =    0.0                 !
 ! D23   D(3,4,16,17)           -0.3464         -DE/DX =    0.0                 !
 ! D24   D(3,4,16,18)         -178.4894         -DE/DX =    0.0                 !
 ! D25   D(5,4,16,17)          179.4133         -DE/DX =    0.0                 !
 ! D26   D(5,4,16,18)            1.2703         -DE/DX =    0.0                 !
 ! D27   D(4,5,6,1)              0.1841         -DE/DX =    0.0                 !
 ! D28   D(4,5,6,7)           -179.8401         -DE/DX =    0.0                 !
 ! D29   D(10,5,6,1)          -179.8066         -DE/DX =    0.0                 !
 ! D30   D(10,5,6,7)             0.1692         -DE/DX =    0.0                 !
 ! D31   D(1,11,12,13)          61.3094         -DE/DX =    0.0                 !
 ! D32   D(1,11,12,14)         -61.3337         -DE/DX =    0.0                 !
 ! D33   D(1,11,12,15)        -179.9953         -DE/DX =    0.0                 !
 ! D34   D(4,16,17,20)         168.0991         -DE/DX =    0.0                 !
 ! D35   D(4,16,17,21)          45.5448         -DE/DX =    0.0                 !
 ! D36   D(4,16,17,22)         -72.4939         -DE/DX =    0.0                 !
 ! D37   D(18,16,17,20)        -13.5137         -DE/DX =    0.0                 !
 ! D38   D(18,16,17,21)       -136.068          -DE/DX =    0.0                 !
 ! D39   D(18,16,17,22)        105.8933         -DE/DX =    0.0                 !
 ! D40   D(4,16,18,19)         177.1942         -DE/DX =    0.0                 !
 ! D41   D(4,16,18,27)           1.3367         -DE/DX =    0.0                 !
 ! D42   D(17,16,18,19)         -1.2085         -DE/DX =    0.0                 !
 ! D43   D(17,16,18,27)       -177.066          -DE/DX =    0.0                 !
 ! D44   D(16,17,20,19)         21.9343         -DE/DX =    0.0                 !
 ! D45   D(16,17,20,25)        -95.773          -DE/DX =    0.0                 !
 ! D46   D(16,17,20,26)        143.4254         -DE/DX =    0.0                 !
 ! D47   D(21,17,20,19)        143.574          -DE/DX =    0.0                 !
 ! D48   D(21,17,20,25)         25.8666         -DE/DX =    0.0                 !
 ! D49   D(21,17,20,26)        -94.935          -DE/DX =    0.0                 !
 ! D50   D(22,17,20,19)        -94.212          -DE/DX =    0.0                 !
 ! D51   D(22,17,20,25)        148.0807         -DE/DX =    0.0                 !
 ! D52   D(22,17,20,26)         27.2791         -DE/DX =    0.0                 !
 ! D53   D(16,18,19,20)         15.3596         -DE/DX =    0.0                 !
 ! D54   D(16,18,19,23)       -104.4142         -DE/DX =    0.0                 !
 ! D55   D(16,18,19,24)        136.8377         -DE/DX =    0.0                 !
 ! D56   D(27,18,19,20)       -168.6455         -DE/DX =    0.0                 !
 ! D57   D(27,18,19,23)         71.5806         -DE/DX =    0.0                 !
 ! D58   D(27,18,19,24)        -47.1675         -DE/DX =    0.0                 !
 ! D59   D(18,19,20,17)        -22.1179         -DE/DX =    0.0                 !
 ! D60   D(18,19,20,25)         95.5529         -DE/DX =    0.0                 !
 ! D61   D(18,19,20,26)       -143.9134         -DE/DX =    0.0                 !
 ! D62   D(23,19,20,17)         94.2133         -DE/DX =    0.0                 !
 ! D63   D(23,19,20,25)       -148.116          -DE/DX =    0.0                 !
 ! D64   D(23,19,20,26)        -27.5822         -DE/DX =    0.0                 !
 ! D65   D(24,19,20,17)       -140.3074         -DE/DX =    0.0                 !
 ! D66   D(24,19,20,25)        -22.6367         -DE/DX =    0.0                 !
 ! D67   D(24,19,20,26)         97.8971         -DE/DX =    0.0                 !
 --------------------------------------------------------------------------------
 Lowest energy point so far.  Saving SCF results.
 Largest change from initial coordinates is atom   14       0.018 Angstoms.
 GradGradGradGradGradGradGradGradGradGradGradGradGradGradGradGradGradGrad

 Leave Link  103 at Tue Jul  7 16:47:45 2026, MaxMem=  4026531840 cpu:               0.2 elap:               0.9
 (Enter /opt/packages/gaussian/g16RevC.01/g16/l202.exe)
                          Input orientation:                          
 ---------------------------------------------------------------------
 Center     Atomic      Atomic             Coordinates (Angstroms)
 Number     Number       Type             X           Y           Z
 ---------------------------------------------------------------------
      1          6           0       -2.475875    0.267505   -0.011308
      2          6           0       -1.847408   -0.980217    0.036184
      3          6           0       -0.462392   -1.040750    0.045514
      4          6           0        0.321564    0.121124    0.012498
      5          6           0       -0.332949    1.370397   -0.028534
      6          6           0       -1.706769    1.442847   -0.042159
      7          1           0       -2.214910    2.401166   -0.076284
      8          1           0       -2.421096   -1.898290    0.063044
      9          1           0        0.010274   -2.015942    0.082229
     10          1           0        0.227793    2.299451   -0.050075
     11          8           0       -3.810836    0.441948   -0.030024
     12          6           0       -4.662412   -0.706781   -0.005891
     13          1           0       -4.506952   -1.283782    0.910506
     14          1           0       -4.488339   -1.334534   -0.884846
     15          1           0       -5.679464   -0.316027   -0.027619
     16          6           0        1.762641    0.000599    0.026627
     17          6           0        2.534633   -1.286795    0.082123
     18          7           0        2.593240    1.000037    0.027422
     19          6           0        4.013555    0.629302    0.108272
     20          6           0        3.978090   -0.861800   -0.233291
     21          1           0        2.140767   -2.028839   -0.614516
     22          1           0        2.430309   -1.695914    1.095066
     23          1           0        4.365378    0.830627    1.124734
     24          1           0        4.589316    1.235569   -0.592433
     25          1           0        4.183290   -1.005004   -1.297598
     26          1           0        4.713673   -1.429304    0.338352
     27          1           0        2.307078    1.975633    0.037756
 ---------------------------------------------------------------------
                    Distance matrix (angstroms):
                    1          2          3          4          5
     1  C    0.000000
     2  C    1.397869   0.000000
     3  C    2.401849   1.386370   0.000000
     4  C    2.801368   2.432685   1.402009   0.000000
     5  C    2.410146   2.796992   2.415755   1.410941   0.000000
     6  C    1.404957   2.428406   2.779283   2.421585   1.375796
     7  H    2.150542   3.403154   3.864316   3.411770   2.146285
     8  H    2.167763   1.082912   2.138271   3.406284   3.879828
     9  H    3.376954   2.127400   1.084325   2.160744   3.405491
    10  H    3.382326   3.882025   3.412101   2.181242   1.085373
    11  O    1.346440   2.425281   3.662810   4.145054   3.599683
    12  C    2.393784   2.828566   4.213591   5.052305   4.802024
    13  H    2.716892   2.815983   4.143156   5.108301   5.034755
    14  H    2.716543   2.819282   4.142478   5.104834   5.031619
    15  H    3.256340   3.889713   5.267676   6.017063   5.606179
    16  C    4.247082   3.740929   2.456733   1.446177   2.504174
    17  C    5.246882   4.392993   3.007331   2.623882   3.911003
    18  N    5.121917   4.862184   3.674510   2.435820   2.950064
    19  C    6.500608   6.078374   4.777772   3.728031   4.411353
    20  C    6.555782   5.832929   4.452823   3.794302   4.858980
    21  H    5.191381   4.174752   2.861537   2.885305   4.244697
    22  H    5.399048   4.464562   3.146190   2.986701   4.277889
    23  H    6.957761   6.562226   5.289057   4.253574   4.867818
    24  H    7.154843   6.836394   5.577486   4.452149   4.956294
    25  H    6.900602   6.176480   4.836071   4.230536   5.258276
    26  H    7.395338   6.583371   5.198882   4.669114   5.782847
    27  H    5.079051   5.098707   4.094947   2.717004   2.709326
                    6          7          8          9         10
     6  C    0.000000
     7  H    1.085240   0.000000
     8  H    3.418264   4.306651   0.000000
     9  H    3.863538   4.948475   2.434290   0.000000
    10  H    2.115741   2.444960   4.964921   4.322897   0.000000
    11  O    2.330031   2.527381   2.723372   4.544745   4.445362
    12  C    3.654865   3.956583   2.539280   4.853417   5.740512
    13  H    4.022822   4.450398   2.333797   4.650530   6.014988
    14  H    4.020087   4.447213   2.343034   4.651566   6.012036
    15  H    4.344669   4.403252   3.623360   5.939267   6.460411
    16  C    3.757874   4.646959   4.594645   2.672138   2.765206
    17  C    5.045382   6.015339   4.993350   2.627555   4.266163
    18  N    4.323308   5.009214   5.791816   3.971252   2.699967
    19  C    5.779843   6.478220   6.913429   4.798359   4.140829
    20  C    6.137226   7.001774   6.489353   4.144293   4.908340
    21  H    5.213801   6.235908   4.613754   2.241566   4.765727
    22  H    5.316061   6.303664   4.964086   2.642882   4.703760
    23  H    6.213486   6.870897   7.391238   5.306289   4.545022
    24  H    6.323483   6.922609   7.706919   5.656423   4.522043
    25  H    6.500838   7.350548   6.802001   4.509987   5.302989
    26  H    7.043870   7.927779   7.155464   4.746758   5.846162
    27  H    4.049841   4.543397   6.112573   4.605428   2.106181
                   11         12         13         14         15
    11  O    0.000000
    12  C    1.430154   0.000000
    13  H    2.085022   1.094020   0.000000
    14  H    2.084614   1.094046   1.796165   0.000000
    15  H    2.016507   1.089750   1.786452   1.786330   0.000000
    16  C    5.591212   6.463958   6.460547   6.456633   7.449035
    17  C    6.577698   7.220916   7.090144   7.089389   8.271990
    18  N    6.428604   7.453779   7.510551   7.512071   8.376913
    19  C    7.827855   8.778983   8.769407   8.782091   9.739955
    20  C    7.899901   8.644883   8.572180   8.504611   9.675149
    21  H    6.470548   6.957119   6.860974   6.670845   8.027090
    22  H    6.692397   7.245493   6.951942   7.205437   8.302585
    23  H    8.266499   9.227292   9.123313   9.333522  10.175538
    24  H    8.456281   9.471600   9.557616   9.439001  10.400687
    25  H    8.222315   8.944489   8.970715   8.687698   9.968021
    26  H    8.735247   9.410181   9.239505   9.283438  10.458997
    27  H    6.307587   7.468001   7.603715   7.614860   8.309081
                   16         17         18         19         20
    16  C    0.000000
    17  C    1.502143   0.000000
    18  N    1.299527   2.288236   0.000000
    19  C    2.338492   2.420603   1.470128   0.000000
    20  C    2.391548   1.537424   2.334998   1.530133   0.000000
    21  H    2.161634   1.091360   3.129042   3.330986   2.209766
    22  H    2.113172   1.097413   2.904232   2.981117   2.203612
    23  H    2.944320   2.986995   2.091236   1.094306   2.204208
    24  H    3.146184   3.322509   2.103334   1.090893   2.213941
    25  H    2.936724   2.168203   2.881687   2.162460   1.093326
    26  H    3.293992   2.198676   3.239538   2.186541   1.090834
    27  H    2.048731   3.270655   1.016752   2.174774   3.304054
                   21         22         23         24         25
    21  H    0.000000
    22  H    1.765600   0.000000
    23  H    4.018760   3.182574   0.000000
    24  H    4.080716   4.012799   1.778423   0.000000
    25  H    2.384689   3.045511   3.044731   2.383754   0.000000
    26  H    2.808424   2.420217   2.418056   2.825486   1.771346
    27  H    4.060655   3.822741   2.594062   2.480613   3.766635
                   26         27
    26  H    0.000000
    27  H    4.180389   0.000000
 Stoichiometry    C11H14NO(1+)
 Framework group  C1[X(C11H14NO)]
 Deg. of freedom    75
 Full point group                 C1      NOp   1
 RotChk:  IX=0 Diff= 4.17D-16
 Largest Abelian subgroup         C1      NOp   1
 Largest concise Abelian subgroup C1      NOp   1
                         Standard orientation:                         
 ---------------------------------------------------------------------
 Center     Atomic      Atomic             Coordinates (Angstroms)
 Number     Number       Type             X           Y           Z
 ---------------------------------------------------------------------
      1          6           0       -2.476588    0.266668   -0.010680
      2          6           0       -1.847704   -0.980891    0.035549
      3          6           0       -0.462666   -1.040978    0.044610
      4          6           0        0.320903    0.121184    0.012558
      5          6           0       -0.334026    1.370280   -0.027206
      6          6           0       -1.707872    1.442291   -0.040551
      7          1           0       -2.216333    2.400474   -0.073703
      8          1           0       -2.421086   -1.899178    0.061641
      9          1           0        0.010325   -2.016049    0.080341
     10          1           0        0.226407    2.299537   -0.047965
     11          8           0       -3.811609    0.440690   -0.029028
     12          6           0       -4.662803   -0.708341   -0.005837
     13          1           0       -4.507012   -1.286146    0.909997
     14          1           0       -4.488660   -1.335215   -0.885405
     15          1           0       -5.679987   -0.317900   -0.027043
     16          6           0        1.762022    0.001118    0.026354
     17          6           0        2.534445   -1.286073    0.080528
     18          7           0        2.592293    1.000828    0.027954
     19          6           0        4.012742    0.630485    0.108239
     20          6           0        3.977714   -0.860309   -0.234711
     21          1           0        2.140715   -2.027595   -0.616743
     22          1           0        2.430411   -1.696172    1.093105
     23          1           0        4.364655    0.830975    1.124835
     24          1           0        4.588195    1.237595   -0.591987
     25          1           0        4.182797   -1.002451   -1.299182
     26          1           0        4.713571   -1.428105    0.336288
     27          1           0        2.305812    1.976320    0.039244
 ---------------------------------------------------------------------
 Rotational constants (GHZ):           2.8721501           0.3539993           0.3181953
 Leave Link  202 at Tue Jul  7 16:47:48 2026, MaxMem=  4026531840 cpu:               0.0 elap:               0.4
 (Enter /opt/packages/gaussian/g16RevC.01/g16/l601.exe)
 Copying SCF densities to generalized density rwf, IOpCl= 0 IROHF=0.

 **********************************************************************

            Population analysis using the SCF Density.

 **********************************************************************

 Orbital symmetries:
       Occupied  (A) (A) (A) (A) (A) (A) (A) (A) (A) (A) (A) (A)
                 (A) (A) (A) (A) (A) (A) (A) (A) (A) (A) (A) (A)
                 (A) (A) (A) (A) (A) (A) (A) (A) (A) (A) (A) (A)
                 (A) (A) (A) (A) (A) (A) (A) (A) (A) (A) (A)
       Virtual   (A) (A) (A) (A) (A) (A) (A) (A) (A) (A) (A) (A)
                 (A) (A) (A) (A) (A) (A) (A) (A) (A) (A) (A) (A)
                 (A) (A) (A) (A) (A) (A) (A) (A) (A) (A) (A) (A)
                 (A) (A) (A) (A) (A) (A) (A) (A) (A) (A) (A) (A)
                 (A) (A) (A) (A) (A) (A) (A) (A) (A) (A) (A) (A)
                 (A) (A) (A) (A) (A) (A) (A) (A) (A) (A) (A) (A)
                 (A) (A) (A) (A) (A) (A) (A) (A) (A) (A) (A) (A)
                 (A) (A) (A) (A) (A) (A) (A) (A) (A) (A) (A) (A)
                 (A) (A) (A) (A) (A) (A) (A) (A) (A) (A) (A) (A)
                 (A) (A) (A) (A) (A) (A) (A) (A) (A) (A) (A) (A)
                 (A) (A) (A) (A) (A) (A) (A) (A) (A) (A) (A) (A)
                 (A) (A) (A) (A) (A) (A) (A) (A) (A) (A) (A) (A)
                 (A) (A) (A) (A) (A) (A) (A) (A) (A) (A) (A) (A)
                 (A) (A) (A) (A) (A) (A) (A) (A) (A) (A) (A) (A)
                 (A) (A) (A) (A) (A) (A) (A) (A) (A) (A) (A) (A)
                 (A) (A) (A) (A) (A) (A) (A) (A) (A) (A) (A) (A)
                 (A) (A) (A) (A) (A) (A) (A) (A) (A) (A) (A) (A)
                 (A) (A) (A) (A) (A) (A) (A) (A) (A) (A) (A) (A)
                 (A) (A) (A) (A) (A) (A) (A) (A) (A) (A)
 The electronic state is 1-A.
 Alpha  occ. eigenvalues --  -19.27799 -14.49563 -10.37580 -10.35388 -10.31032
 Alpha  occ. eigenvalues --  -10.31005 -10.29669 -10.29524 -10.29464 -10.28369
 Alpha  occ. eigenvalues --  -10.27920 -10.27900 -10.27187  -1.17167  -1.10042
 Alpha  occ. eigenvalues --   -0.96709  -0.88857  -0.88540  -0.85469  -0.83115
 Alpha  occ. eigenvalues --   -0.78616  -0.72065  -0.70880  -0.69050  -0.68738
 Alpha  occ. eigenvalues --   -0.64112  -0.60881  -0.58732  -0.57240  -0.55058
 Alpha  occ. eigenvalues --   -0.54574  -0.52882  -0.51184  -0.50467  -0.49835
 Alpha  occ. eigenvalues --   -0.49047  -0.48451  -0.47046  -0.45536  -0.44563
 Alpha  occ. eigenvalues --   -0.43719  -0.43320  -0.40848  -0.40549  -0.38175
 Alpha  occ. eigenvalues --   -0.33318  -0.29821
 Alpha virt. eigenvalues --   -0.04274   0.01871   0.03144   0.04581   0.04882
 Alpha virt. eigenvalues --    0.05673   0.05878   0.06142   0.06717   0.06959
 Alpha virt. eigenvalues --    0.07599   0.08081   0.08278   0.09274   0.09838
 Alpha virt. eigenvalues --    0.10265   0.10560   0.11092   0.12162   0.13024
 Alpha virt. eigenvalues --    0.13892   0.14451   0.14662   0.15061   0.15623
 Alpha virt. eigenvalues --    0.16013   0.16414   0.17140   0.17685   0.17995
 Alpha virt. eigenvalues --    0.18393   0.19196   0.19432   0.20136   0.20691
 Alpha virt. eigenvalues --    0.21331   0.21601   0.21914   0.22528   0.23235
 Alpha virt. eigenvalues --    0.23551   0.24138   0.24462   0.25051   0.25580
 Alpha virt. eigenvalues --    0.26560   0.26822   0.27294   0.27674   0.27823
 Alpha virt. eigenvalues --    0.28523   0.29411   0.29877   0.30384   0.30755
 Alpha virt. eigenvalues --    0.31565   0.31746   0.32132   0.32394   0.32984
 Alpha virt. eigenvalues --    0.33850   0.34421   0.34944   0.35805   0.36546
 Alpha virt. eigenvalues --    0.37004   0.37796   0.38355   0.38926   0.40027
 Alpha virt. eigenvalues --    0.40406   0.41358   0.43625   0.44495   0.44656
 Alpha virt. eigenvalues --    0.47444   0.49070   0.49581   0.50956   0.53135
 Alpha virt. eigenvalues --    0.63567   0.66148   0.68011   0.71042   0.71371
 Alpha virt. eigenvalues --    0.72569   0.73176   0.73856   0.74252   0.74938
 Alpha virt. eigenvalues --    0.75504   0.76647   0.77157   0.77376   0.77954
 Alpha virt. eigenvalues --    0.78763   0.79363   0.80701   0.82121   0.83273
 Alpha virt. eigenvalues --    0.84004   0.85303   0.88187   0.89232   0.90225
 Alpha virt. eigenvalues --    0.93934   0.95384   0.97857   0.98567   0.99714
 Alpha virt. eigenvalues --    1.00466   1.01006   1.01962   1.03031   1.04485
 Alpha virt. eigenvalues --    1.04699   1.05864   1.09390   1.11203   1.11608
 Alpha virt. eigenvalues --    1.13308   1.14580   1.15335   1.15729   1.17944
 Alpha virt. eigenvalues --    1.19104   1.20573   1.21634   1.22469   1.24655
 Alpha virt. eigenvalues --    1.26549   1.26956   1.28554   1.29610   1.30842
 Alpha virt. eigenvalues --    1.33877   1.34631   1.36013   1.38985   1.41987
 Alpha virt. eigenvalues --    1.42800   1.45821   1.47524   1.48490   1.50793
 Alpha virt. eigenvalues --    1.51458   1.52097   1.55454   1.56591   1.59155
 Alpha virt. eigenvalues --    1.60407   1.63954   1.67364   1.70481   1.78264
 Alpha virt. eigenvalues --    1.79671   1.82403   1.87536   1.89217   1.89277
 Alpha virt. eigenvalues --    1.91050   1.92513   1.94622   1.98290   1.99548
 Alpha virt. eigenvalues --    2.01983   2.02500   2.04111   2.06710   2.07672
 Alpha virt. eigenvalues --    2.09290   2.11254   2.13328   2.15248   2.16766
 Alpha virt. eigenvalues --    2.17488   2.18583   2.21762   2.22490   2.24477
 Alpha virt. eigenvalues --    2.26308   2.27047   2.30018   2.31905   2.36376
 Alpha virt. eigenvalues --    2.37232   2.37537   2.39540   2.42152   2.47160
 Alpha virt. eigenvalues --    2.47942   2.50942   2.55483   2.58236   2.60986
 Alpha virt. eigenvalues --    2.63161   2.63981   2.68593   2.70482   2.72910
 Alpha virt. eigenvalues --    2.74215   2.78322   2.81861   2.85350   2.87453
 Alpha virt. eigenvalues --    2.89794   2.93258   2.96048   3.09924   3.12208
 Alpha virt. eigenvalues --    3.20149   3.33363   3.51515   4.16621   4.30604
 Alpha virt. eigenvalues --    4.31575   4.32968   4.36207   4.39282   4.42860
 Alpha virt. eigenvalues --    4.45479   4.49486   4.56816   4.64574   4.70815
 Alpha virt. eigenvalues --    4.87107
          Condensed to atoms (all electrons):
               1          2          3          4          5          6
     1  C    6.864180   0.538937  -0.039437  -0.827327  -0.674752   0.159894
     2  C    0.538937   7.008791   1.379099  -0.873789  -0.147498  -1.816317
     3  C   -0.039437   1.379099   9.986490   2.512056  -4.883053   0.398271
     4  C   -0.827327  -0.873789   2.512056  12.030243  -4.955483   1.213260
     5  C   -0.674752  -0.147498  -4.883053  -4.955483  15.431653  -3.428228
     6  C    0.159894  -1.816317   0.398271   1.213260  -3.428228  11.385844
     7  H   -0.079844  -0.010202   0.002641   0.036814  -0.040912   0.405713
     8  H   -0.051889   0.324932  -0.012352   0.044018  -0.011086   0.020576
     9  H    0.015469  -0.026570   0.308149  -0.050965   0.036116  -0.029657
    10  H    0.019242  -0.004170  -0.000243  -0.066211   0.338657  -0.042397
    11  O    0.403790   0.118798   0.025219  -0.021273   0.000294  -0.539461
    12  C   -0.179581  -0.135120   0.009653  -0.013735   0.003688   0.135597
    13  H   -0.068497   0.039560   0.013869   0.002524  -0.001341  -0.002398
    14  H   -0.056261   0.030853   0.006975   0.000818   0.000625   0.002317
    15  H    0.037327  -0.047372  -0.006562  -0.001161   0.000890   0.024685
    16  C   -0.164430  -0.056504  -1.493653  -1.601605   3.096851  -1.183702
    17  C   -0.026635  -0.047370  -0.988263  -1.358043   0.763509  -0.277950
    18  N   -0.019273  -0.053187  -0.120500   0.124133  -0.004116   0.197446
    19  C   -0.000773  -0.008430  -0.045987  -0.071085  -0.035435  -0.004194
    20  C   -0.000778  -0.002581  -0.129519  -0.030501   0.156646   0.007049
    21  H   -0.000409   0.002827   0.011172  -0.020262  -0.011229   0.003754
    22  H   -0.001708  -0.011025  -0.052581   0.014341   0.024346   0.006023
    23  H   -0.000171  -0.000774  -0.006902  -0.014775   0.010398   0.002078
    24  H    0.000033  -0.000025   0.001401   0.005878  -0.004259  -0.000026
    25  H   -0.000116  -0.001402  -0.011369   0.000565   0.010700   0.001266
    26  H    0.000071   0.000471   0.003470   0.000531  -0.001279  -0.000318
    27  H    0.002854  -0.004096  -0.042561  -0.097463   0.096955   0.035267
               7          8          9         10         11         12
     1  C   -0.079844  -0.051889   0.015469   0.019242   0.403790  -0.179581
     2  C   -0.010202   0.324932  -0.026570  -0.004170   0.118798  -0.135120
     3  C    0.002641  -0.012352   0.308149  -0.000243   0.025219   0.009653
     4  C    0.036814   0.044018  -0.050965  -0.066211  -0.021273  -0.013735
     5  C   -0.040912  -0.011086   0.036116   0.338657   0.000294   0.003688
     6  C    0.405713   0.020576  -0.029657  -0.042397  -0.539461   0.135597
     7  H    0.452514  -0.000099   0.000011  -0.003561  -0.003017  -0.001857
     8  H   -0.000099   0.455496  -0.003540   0.000012  -0.010826  -0.001227
     9  H    0.000011  -0.003540   0.456507  -0.000100  -0.000595   0.000589
    10  H   -0.003561   0.000012  -0.000100   0.463647  -0.000389   0.000477
    11  O   -0.003017  -0.010826  -0.000595  -0.000389   8.526777   0.059652
    12  C   -0.001857  -0.001227   0.000589   0.000477   0.059652   5.328427
    13  H   -0.000000  -0.001106   0.000002   0.000000  -0.032952   0.392812
    14  H   -0.000000  -0.001108   0.000002   0.000000  -0.033482   0.392072
    15  H   -0.000005   0.000167  -0.000000  -0.000000  -0.052837   0.395782
    16  C   -0.004735   0.000290   0.030722   0.028461  -0.001586   0.000112
    17  C    0.000038   0.001745   0.013237   0.016120  -0.000539  -0.000070
    18  N    0.000306   0.000096   0.000097   0.000772   0.000024  -0.000318
    19  C    0.000079   0.000027   0.001715   0.005866  -0.000031   0.000163
    20  C    0.000003  -0.000050  -0.001245  -0.000932   0.000069  -0.000251
    21  H   -0.000000   0.000000   0.000047   0.000001   0.000000  -0.000015
    22  H   -0.000000  -0.000000  -0.001043  -0.000003   0.000000  -0.000009
    23  H    0.000000   0.000000  -0.000000  -0.000004   0.000000  -0.000000
    24  H    0.000000   0.000000   0.000000   0.000003   0.000000   0.000000
    25  H    0.000000   0.000000  -0.000007  -0.000000   0.000000  -0.000001
    26  H    0.000000  -0.000000  -0.000000   0.000000  -0.000000   0.000000
    27  H   -0.000001   0.000000   0.000001   0.004605  -0.000001   0.000003
              13         14         15         16         17         18
     1  C   -0.068497  -0.056261   0.037327  -0.164430  -0.026635  -0.019273
     2  C    0.039560   0.030853  -0.047372  -0.056504  -0.047370  -0.053187
     3  C    0.013869   0.006975  -0.006562  -1.493653  -0.988263  -0.120500
     4  C    0.002524   0.000818  -0.001161  -1.601605  -1.358043   0.124133
     5  C   -0.001341   0.000625   0.000890   3.096851   0.763509  -0.004116
     6  C   -0.002398   0.002317   0.024685  -1.183702  -0.277950   0.197446
     7  H   -0.000000  -0.000000  -0.000005  -0.004735   0.000038   0.000306
     8  H   -0.001106  -0.001108   0.000167   0.000290   0.001745   0.000096
     9  H    0.000002   0.000002  -0.000000   0.030722   0.013237   0.000097
    10  H    0.000000   0.000000  -0.000000   0.028461   0.016120   0.000772
    11  O   -0.032952  -0.033482  -0.052837  -0.001586  -0.000539   0.000024
    12  C    0.392812   0.392072   0.395782   0.000112  -0.000070  -0.000318
    13  H    0.476973  -0.036429  -0.024393   0.000458   0.000023  -0.000000
    14  H   -0.036429   0.476767  -0.024385   0.000044  -0.000042  -0.000000
    15  H   -0.024393  -0.024385   0.458495  -0.000138  -0.000004   0.000000
    16  C    0.000458   0.000044  -0.000138   7.342446  -0.841683   0.303290
    17  C    0.000023  -0.000042  -0.000004  -0.841683   9.087470  -0.317520
    18  N   -0.000000  -0.000000   0.000000   0.303290  -0.317520   7.006646
    19  C    0.000003  -0.000001  -0.000000  -0.559631   0.517542   0.101798
    20  C   -0.000007   0.000004   0.000000   0.370997  -0.943920  -0.057392
    21  H   -0.000000   0.000000   0.000000  -0.089635   0.439875   0.008971
    22  H    0.000000  -0.000000   0.000000  -0.029848   0.363467   0.006904
    23  H   -0.000000   0.000000   0.000000  -0.024600   0.018527  -0.031062
    24  H    0.000000  -0.000000  -0.000000  -0.016683   0.038345  -0.035851
    25  H    0.000000  -0.000000   0.000000   0.029059  -0.116592   0.014346
    26  H   -0.000000   0.000000  -0.000000   0.023065  -0.076140   0.006313
    27  H    0.000000  -0.000000  -0.000000  -0.006694  -0.006363   0.259343
              19         20         21         22         23         24
     1  C   -0.000773  -0.000778  -0.000409  -0.001708  -0.000171   0.000033
     2  C   -0.008430  -0.002581   0.002827  -0.011025  -0.000774  -0.000025
     3  C   -0.045987  -0.129519   0.011172  -0.052581  -0.006902   0.001401
     4  C   -0.071085  -0.030501  -0.020262   0.014341  -0.014775   0.005878
     5  C   -0.035435   0.156646  -0.011229   0.024346   0.010398  -0.004259
     6  C   -0.004194   0.007049   0.003754   0.006023   0.002078  -0.000026
     7  H    0.000079   0.000003  -0.000000  -0.000000   0.000000   0.000000
     8  H    0.000027  -0.000050   0.000000  -0.000000   0.000000   0.000000
     9  H    0.001715  -0.001245   0.000047  -0.001043  -0.000000   0.000000
    10  H    0.005866  -0.000932   0.000001  -0.000003  -0.000004   0.000003
    11  O   -0.000031   0.000069   0.000000   0.000000   0.000000   0.000000
    12  C    0.000163  -0.000251  -0.000015  -0.000009  -0.000000   0.000000
    13  H    0.000003  -0.000007  -0.000000   0.000000  -0.000000   0.000000
    14  H   -0.000001   0.000004   0.000000  -0.000000   0.000000  -0.000000
    15  H   -0.000000   0.000000   0.000000   0.000000   0.000000  -0.000000
    16  C   -0.559631   0.370997  -0.089635  -0.029848  -0.024600  -0.016683
    17  C    0.517542  -0.943920   0.439875   0.363467   0.018527   0.038345
    18  N    0.101798  -0.057392   0.008971   0.006904  -0.031062  -0.035851
    19  C    6.134936  -0.435814   0.024539   0.006154   0.417918   0.438465
    20  C   -0.435814   6.896223  -0.046616  -0.014561  -0.052025  -0.095713
    21  H    0.024539  -0.046616   0.427645  -0.023094  -0.000179  -0.000037
    22  H    0.006154  -0.014561  -0.023094   0.419586   0.001016  -0.000158
    23  H    0.417918  -0.052025  -0.000179   0.001016   0.447063  -0.029826
    24  H    0.438465  -0.095713  -0.000037  -0.000158  -0.029826   0.445102
    25  H   -0.090333   0.488871  -0.005108   0.002743   0.002775  -0.005380
    26  H   -0.066489   0.442184   0.000932  -0.004433  -0.003544   0.001337
    27  H   -0.020230   0.014517  -0.000080  -0.000201   0.000117  -0.000882
              25         26         27
     1  C   -0.000116   0.000071   0.002854
     2  C   -0.001402   0.000471  -0.004096
     3  C   -0.011369   0.003470  -0.042561
     4  C    0.000565   0.000531  -0.097463
     5  C    0.010700  -0.001279   0.096955
     6  C    0.001266  -0.000318   0.035267
     7  H    0.000000   0.000000  -0.000001
     8  H    0.000000  -0.000000   0.000000
     9  H   -0.000007  -0.000000   0.000001
    10  H   -0.000000   0.000000   0.004605
    11  O    0.000000  -0.000000  -0.000001
    12  C   -0.000001   0.000000   0.000003
    13  H    0.000000  -0.000000   0.000000
    14  H   -0.000000   0.000000  -0.000000
    15  H    0.000000  -0.000000  -0.000000
    16  C    0.029059   0.023065  -0.006694
    17  C   -0.116592  -0.076140  -0.006363
    18  N    0.014346   0.006313   0.259343
    19  C   -0.090333  -0.066489  -0.020230
    20  C    0.488871   0.442184   0.014517
    21  H   -0.005108   0.000932  -0.000080
    22  H    0.002743  -0.004433  -0.000201
    23  H    0.002775  -0.003544   0.000117
    24  H   -0.005380   0.001337  -0.000882
    25  H    0.450031  -0.024225  -0.000149
    26  H   -0.024225   0.447304  -0.000066
    27  H   -0.000149  -0.000066   0.265996
 Mulliken charges:
               1
     1  C    0.150084
     2  C   -0.197835
     3  C   -0.825483
     4  C    0.018498
     5  C    0.227344
     6  C   -0.674393
     7  H    0.246116
     8  H    0.245925
     9  H    0.251058
    10  H    0.240148
    11  O   -0.437635
    12  C   -0.386843
    13  H    0.240900
    14  H    0.241231
    15  H    0.239511
    16  C    0.849331
    17  C   -0.258765
    18  N   -0.391267
    19  C   -0.310770
    20  C   -0.564656
    21  H    0.276898
    22  H    0.294084
    23  H    0.263970
    24  H    0.258276
    25  H    0.254327
    26  H    0.250815
    27  H    0.499130
 Sum of Mulliken charges =   1.00000
 Mulliken charges with hydrogens summed into heavy atoms:
               1
     1  C    0.150084
     2  C    0.048090
     3  C   -0.574424
     4  C    0.018498
     5  C    0.467492
     6  C   -0.428278
    11  O   -0.437635
    12  C    0.334799
    16  C    0.849331
    17  C    0.312218
    18  N    0.107863
    19  C    0.211476
    20  C   -0.059514
 Electronic spatial extent (au):  <R**2>=           3367.7346
 Charge=              1.0000 electrons
 Dipole moment (field-independent basis, Debye):
    X=              7.2507    Y=             -0.4034    Z=              0.3621  Tot=              7.2709
 Quadrupole moment (field-independent basis, Debye-Ang):
   XX=            -25.3626   YY=            -58.9069   ZZ=            -77.6172
   XY=             12.4074   XZ=              0.8388   YZ=             -0.2599
 Traceless Quadrupole moment (field-independent basis, Debye-Ang):
   XX=             28.5996   YY=             -4.9447   ZZ=            -23.6550
   XY=             12.4074   XZ=              0.8388   YZ=             -0.2599
 Octapole moment (field-independent basis, Debye-Ang**2):
  XXX=             42.2055  YYY=             14.6230  ZZZ=              0.7598  XYY=             14.2017
  XXY=            -23.5406  XXZ=              3.6761  XZZ=              8.1475  YZZ=             -2.4963
  YYZ=              0.0898  XYZ=             -0.2517
 Hexadecapole moment (field-independent basis, Debye-Ang**3):
 XXXX=          -2834.9666 YYYY=           -473.3465 ZZZZ=           -114.4443 XXXY=            207.4274
 XXXZ=             11.1948 YYYX=             30.0273 YYYZ=             -1.7515 ZZZX=              2.0338
 ZZZY=              0.6284 XXYY=           -633.7838 XXZZ=           -632.2643 YYZZ=           -114.2507
 XXYZ=             -4.1520 YYXZ=              1.5151 ZZXY=              3.6720
 N-N= 7.578698508876D+02 E-N=-2.793433690631D+03  KE= 5.519731565245D+02
 No NMR shielding tensors so no spin-rotation constants.
 Leave Link  601 at Tue Jul  7 16:47:49 2026, MaxMem=  4026531840 cpu:               0.6 elap:               0.7
 (Enter /opt/packages/gaussian/g16RevC.01/g16/l9999.exe)
 Unable to Open any file for archive entry.
 1\1\GINC-R190\FOpt\RCAM-B3LYP\6-31+G(d)\C11H14N1O1(1+)\ZLAB\07-Jul-202
 6\0\\#p CAM-B3LYP/6-31+G(d) Opt Freq SCRF=(SMD,Solvent=Methanol)\\Grou
 nd-state geometry optimization (S0) with CAM-B3LYP\\1,1\C,-2.475875378
 1,0.2675050653,-0.0113081267\C,-1.8474081192,-0.9802169091,0.036183659
 3\C,-0.4623916515,-1.0407498378,0.0455143419\C,0.3215642355,0.12112405
 95,0.0124975605\C,-0.3329487865,1.3703974324,-0.0285343233\C,-1.706768
 6501,1.442846965,-0.0421588488\H,-2.2149100584,2.4011655638,-0.0762835
 514\H,-2.4210958045,-1.8982902114,0.0630444246\H,0.0102738323,-2.01594
 20841,0.0822290777\H,0.2277929388,2.2994508265,-0.0500752334\O,-3.8108
 361365,0.4419481882,-0.0300243721\C,-4.6624117827,-0.7067807798,-0.005
 8909525\H,-4.5069516279,-1.2837815108,0.9105057971\H,-4.4883385623,-1.
 3345337271,-0.8848458898\H,-5.6794635578,-0.3160265657,-0.0276186937\C
 ,1.7626413142,0.0005988427,0.0266270288\C,2.534633367,-1.2867946578,0.
 0821232289\N,2.5932398344,1.0000368414,0.0274215319\C,4.0135547477,0.6
 293022151,0.1082719935\C,3.9780897562,-0.8617996418,-0.233291212\H,2.1
 407668601,-2.0288388526,-0.6145155278\H,2.4303086967,-1.6959136671,1.0
 950662419\H,4.3653777207,0.8306269635,1.1247342505\H,4.5893156077,1.23
 55693049,-0.5924326105\H,4.1832899791,-1.0050035951,-1.2975975109\H,4.
 7136730475,-1.4293035856,0.3383519344\H,2.3070781775,1.9756333577,0.03
 7755782\\Version=ES64L-G16RevC.01\State=1-A\HF=-557.1564787\RMSD=4.517
 e-09\RMSF=7.604e-06\Dipole=2.8525533,-0.1595124,0.1430625\Quadrupole=2
 1.2689737,-3.6826545,-17.5863192,9.2169853,0.6209197,-0.2050327\PG=C01
  [X(C11H14N1O1)]\\@
 The archive entry for this job was punched.


 MISERY NO LONGER LOVES COMPANY.  NOWADAYS IT INSISTS ON IT.

                                              -- BAKER'S LAW
 Leave Link 9999 at Tue Jul  7 16:47:50 2026, MaxMem=  4026531840 cpu:               0.4 elap:               0.2
 Job cpu time:       0 days  0 hours 34 minutes  4.3 seconds.
 Elapsed time:       0 days  0 hours  4 minutes 23.2 seconds.
 File lengths (MBytes):  RWF=    118 Int=      0 D2E=      0 Chk=     10 Scr=      1
 Normal termination of Gaussian 16 at Tue Jul  7 16:47:50 2026.
 (Enter /opt/packages/gaussian/g16RevC.01/g16/l1.exe)
 Link1:  Proceeding to internal job step number  2.
 ----------------------------------------------------------------------
 #P Geom=AllCheck Guess=TCheck SCRF=Check GenChk RCAM-B3LYP/6-31+G(d) F
 req
 ----------------------------------------------------------------------
 1/10=4,29=7,30=1,38=1,40=1/1,3;
 2/12=2,40=1/2;
 3/5=1,6=6,7=11,11=2,14=-4,25=1,30=1,70=2,71=2,74=-40,116=1,140=1/1,2,3;
 4/5=101/1;
 5/5=2,38=6,98=1/2;
 8/6=4,10=90,11=11/1;
 11/6=1,8=1,9=11,15=111,16=1/1,2,10;
 10/6=1/2;
 6/7=2,8=2,9=2,10=2,28=1/1;
 7/8=1,10=1,25=1/1,2,3,16;
 1/10=4,30=1/3;
 99//99;
 Leave Link    1 at Tue Jul  7 16:47:50 2026, MaxMem=  4026531840 cpu:               0.1 elap:               0.0
 (Enter /opt/packages/gaussian/g16RevC.01/g16/l101.exe)
 Structure from the checkpoint file:  "iminium_ground_cam.chk"
 ------------------------------------------------------
 Ground-state geometry optimization (S0) with CAM-B3LYP
 ------------------------------------------------------
 Charge =  1 Multiplicity = 1
 Redundant internal coordinates found in file.  (old form).
 C,0,-2.4758753781,0.2675050653,-0.0113081267
 C,0,-1.8474081192,-0.9802169091,0.0361836593
 C,0,-0.4623916515,-1.0407498378,0.0455143419
 C,0,0.3215642355,0.1211240595,0.0124975605
 C,0,-0.3329487865,1.3703974324,-0.0285343233
 C,0,-1.7067686501,1.442846965,-0.0421588488
 H,0,-2.2149100584,2.4011655638,-0.0762835514
 H,0,-2.4210958045,-1.8982902114,0.0630444246
 H,0,0.0102738323,-2.0159420841,0.0822290777
 H,0,0.2277929388,2.2994508265,-0.0500752334
 O,0,-3.8108361365,0.4419481882,-0.0300243721
 C,0,-4.6624117827,-0.7067807798,-0.0058909525
 H,0,-4.5069516279,-1.2837815108,0.9105057971
 H,0,-4.4883385623,-1.3345337271,-0.8848458898
 H,0,-5.6794635578,-0.3160265657,-0.0276186937
 C,0,1.7626413142,0.0005988427,0.0266270288
 C,0,2.534633367,-1.2867946578,0.0821232289
 N,0,2.5932398344,1.0000368414,0.0274215319
 C,0,4.0135547477,0.6293022151,0.1082719935
 C,0,3.9780897562,-0.8617996418,-0.233291212
 H,0,2.1407668601,-2.0288388526,-0.6145155278
 H,0,2.4303086967,-1.6959136671,1.0950662419
 H,0,4.3653777207,0.8306269635,1.1247342505
 H,0,4.5893156077,1.2355693049,-0.5924326105
 H,0,4.1832899791,-1.0050035951,-1.2975975109
 H,0,4.7136730475,-1.4293035856,0.3383519344
 H,0,2.3070781775,1.9756333577,0.037755782
 Recover connectivity data from disk.
 ITRead=  0  0  0  0  0  0  0  0  0  0  0  0  0  0  0  0  0  0  0  0
 ITRead=  0  0  0  0  0  0  0
 MicOpt= -1 -1 -1 -1 -1 -1 -1 -1 -1 -1 -1 -1 -1 -1 -1 -1 -1 -1 -1 -1
 MicOpt= -1 -1 -1 -1 -1 -1 -1
 NAtoms=     27 NQM=       27 NQMF=       0 NMMI=      0 NMMIF=      0
                NMic=       0 NMicF=      0.
                    Isotopes and Nuclear Properties:
 (Nuclear quadrupole moments (NQMom) in fm**2, nuclear magnetic moments (NMagM)
  in nuclear magnetons)

  Atom         1           2           3           4           5           6           7           8           9          10
 IAtWgt=          12          12          12          12          12          12           1           1           1           1
 AtmWgt=  12.0000000  12.0000000  12.0000000  12.0000000  12.0000000  12.0000000   1.0078250   1.0078250   1.0078250   1.0078250
 NucSpn=           0           0           0           0           0           0           1           1           1           1
 AtZEff=   3.6000000   3.6000000   3.6000000   3.6000000   3.6000000   3.6000000   1.0000000   1.0000000   1.0000000   1.0000000
 NQMom=    0.0000000   0.0000000   0.0000000   0.0000000   0.0000000   0.0000000   0.0000000   0.0000000   0.0000000   0.0000000
 NMagM=    0.0000000   0.0000000   0.0000000   0.0000000   0.0000000   0.0000000   2.7928460   2.7928460   2.7928460   2.7928460
 AtZNuc=   6.0000000   6.0000000   6.0000000   6.0000000   6.0000000   6.0000000   1.0000000   1.0000000   1.0000000   1.0000000

  Atom        11          12          13          14          15          16          17          18          19          20
 IAtWgt=          16          12           1           1           1          12          12          14          12          12
 AtmWgt=  15.9949146  12.0000000   1.0078250   1.0078250   1.0078250  12.0000000  12.0000000  14.0030740  12.0000000  12.0000000
 NucSpn=           0           0           1           1           1           0           0           2           0           0
 AtZEff=   5.6000000   3.6000000   1.0000000   1.0000000   1.0000000   3.6000000   3.6000000   4.5500000   3.6000000   3.6000000
 NQMom=    0.0000000   0.0000000   0.0000000   0.0000000   0.0000000   0.0000000   0.0000000   2.0440000   0.0000000   0.0000000
 NMagM=    0.0000000   0.0000000   2.7928460   2.7928460   2.7928460   0.0000000   0.0000000   0.4037610   0.0000000   0.0000000
 AtZNuc=   8.0000000   6.0000000   1.0000000   1.0000000   1.0000000   6.0000000   6.0000000   7.0000000   6.0000000   6.0000000

  Atom        21          22          23          24          25          26          27
 IAtWgt=           1           1           1           1           1           1           1
 AtmWgt=   1.0078250   1.0078250   1.0078250   1.0078250   1.0078250   1.0078250   1.0078250
 NucSpn=           1           1           1           1           1           1           1
 AtZEff=   1.0000000   1.0000000   1.0000000   1.0000000   1.0000000   1.0000000   1.0000000
 NQMom=    0.0000000   0.0000000   0.0000000   0.0000000   0.0000000   0.0000000   0.0000000
 NMagM=    2.7928460   2.7928460   2.7928460   2.7928460   2.7928460   2.7928460   2.7928460
 AtZNuc=   1.0000000   1.0000000   1.0000000   1.0000000   1.0000000   1.0000000   1.0000000
 Leave Link  101 at Tue Jul  7 16:47:51 2026, MaxMem=  4026531840 cpu:               1.1 elap:               0.2
 (Enter /opt/packages/gaussian/g16RevC.01/g16/l103.exe)

 GradGradGradGradGradGradGradGradGradGradGradGradGradGradGradGradGradGrad
 Berny optimization.
 Initialization pass.
                           ----------------------------
                           !    Initial Parameters    !
                           ! (Angstroms and Degrees)  !
 --------------------------                            --------------------------
 ! Name  Definition              Value          Derivative Info.                !
 --------------------------------------------------------------------------------
 ! R1    R(1,2)                  1.3979         calculate D2E/DX2 analytically  !
 ! R2    R(1,6)                  1.405          calculate D2E/DX2 analytically  !
 ! R3    R(1,11)                 1.3464         calculate D2E/DX2 analytically  !
 ! R4    R(2,3)                  1.3864         calculate D2E/DX2 analytically  !
 ! R5    R(2,8)                  1.0829         calculate D2E/DX2 analytically  !
 ! R6    R(3,4)                  1.402          calculate D2E/DX2 analytically  !
 ! R7    R(3,9)                  1.0843         calculate D2E/DX2 analytically  !
 ! R8    R(4,5)                  1.4109         calculate D2E/DX2 analytically  !
 ! R9    R(4,16)                 1.4462         calculate D2E/DX2 analytically  !
 ! R10   R(5,6)                  1.3758         calculate D2E/DX2 analytically  !
 ! R11   R(5,10)                 1.0854         calculate D2E/DX2 analytically  !
 ! R12   R(6,7)                  1.0852         calculate D2E/DX2 analytically  !
 ! R13   R(11,12)                1.4302         calculate D2E/DX2 analytically  !
 ! R14   R(12,13)                1.094          calculate D2E/DX2 analytically  !
 ! R15   R(12,14)                1.094          calculate D2E/DX2 analytically  !
 ! R16   R(12,15)                1.0898         calculate D2E/DX2 analytically  !
 ! R17   R(16,17)                1.5021         calculate D2E/DX2 analytically  !
 ! R18   R(16,18)                1.2995         calculate D2E/DX2 analytically  !
 ! R19   R(17,20)                1.5374         calculate D2E/DX2 analytically  !
 ! R20   R(17,21)                1.0914         calculate D2E/DX2 analytically  !
 ! R21   R(17,22)                1.0974         calculate D2E/DX2 analytically  !
 ! R22   R(18,19)                1.4701         calculate D2E/DX2 analytically  !
 ! R23   R(18,27)                1.0168         calculate D2E/DX2 analytically  !
 ! R24   R(19,20)                1.5301         calculate D2E/DX2 analytically  !
 ! R25   R(19,23)                1.0943         calculate D2E/DX2 analytically  !
 ! R26   R(19,24)                1.0909         calculate D2E/DX2 analytically  !
 ! R27   R(20,25)                1.0933         calculate D2E/DX2 analytically  !
 ! R28   R(20,26)                1.0908         calculate D2E/DX2 analytically  !
 ! A1    A(2,1,6)              120.0888         calculate D2E/DX2 analytically  !
 ! A2    A(2,1,11)             124.1853         calculate D2E/DX2 analytically  !
 ! A3    A(6,1,11)             115.7259         calculate D2E/DX2 analytically  !
 ! A4    A(1,2,3)              119.2323         calculate D2E/DX2 analytically  !
 ! A5    A(1,2,8)              121.2912         calculate D2E/DX2 analytically  !
 ! A6    A(3,2,8)              119.4763         calculate D2E/DX2 analytically  !
 ! A7    A(2,3,4)              121.4851         calculate D2E/DX2 analytically  !
 ! A8    A(2,3,9)              118.3579         calculate D2E/DX2 analytically  !
 ! A9    A(4,3,9)              120.1567         calculate D2E/DX2 analytically  !
 ! A10   A(3,4,5)              118.3634         calculate D2E/DX2 analytically  !
 ! A11   A(3,4,16)             119.2025         calculate D2E/DX2 analytically  !
 ! A12   A(5,4,16)             122.4337         calculate D2E/DX2 analytically  !
 ! A13   A(4,5,6)              120.6726         calculate D2E/DX2 analytically  !
 ! A14   A(4,5,10)             121.2528         calculate D2E/DX2 analytically  !
 ! A15   A(6,5,10)             118.0746         calculate D2E/DX2 analytically  !
 ! A16   A(1,6,5)              120.1567         calculate D2E/DX2 analytically  !
 ! A17   A(1,6,7)              118.888          calculate D2E/DX2 analytically  !
 ! A18   A(5,6,7)              120.9553         calculate D2E/DX2 analytically  !
 ! A19   A(1,11,12)            119.0825         calculate D2E/DX2 analytically  !
 ! A20   A(11,12,13)           110.6802         calculate D2E/DX2 analytically  !
 ! A21   A(11,12,14)           110.6453         calculate D2E/DX2 analytically  !
 ! A22   A(11,12,15)           105.5079         calculate D2E/DX2 analytically  !
 ! A23   A(13,12,14)           110.3483         calculate D2E/DX2 analytically  !
 ! A24   A(13,12,15)           109.7817         calculate D2E/DX2 analytically  !
 ! A25   A(14,12,15)           109.7686         calculate D2E/DX2 analytically  !
 ! A26   A(4,16,17)            125.7254         calculate D2E/DX2 analytically  !
 ! A27   A(4,16,18)            124.9465         calculate D2E/DX2 analytically  !
 ! A28   A(17,16,18)           109.3069         calculate D2E/DX2 analytically  !
 ! A29   A(16,17,20)           103.7699         calculate D2E/DX2 analytically  !
 ! A30   A(16,17,21)           111.9419         calculate D2E/DX2 analytically  !
 ! A31   A(16,17,22)           107.7432         calculate D2E/DX2 analytically  !
 ! A32   A(20,17,21)           113.318          calculate D2E/DX2 analytically  !
 ! A33   A(20,17,22)           112.4375         calculate D2E/DX2 analytically  !
 ! A34   A(21,17,22)           107.5418         calculate D2E/DX2 analytically  !
 ! A35   A(16,18,19)           115.0612         calculate D2E/DX2 analytically  !
 ! A36   A(16,18,27)           123.9222         calculate D2E/DX2 analytically  !
 ! A37   A(19,18,27)           120.8854         calculate D2E/DX2 analytically  !
 ! A38   A(18,19,20)           102.1855         calculate D2E/DX2 analytically  !
 ! A39   A(18,19,23)           108.3788         calculate D2E/DX2 analytically  !
 ! A40   A(18,19,24)           109.538          calculate D2E/DX2 analytically  !
 ! A41   A(20,19,23)           113.2085         calculate D2E/DX2 analytically  !
 ! A42   A(20,19,24)           114.2317         calculate D2E/DX2 analytically  !
 ! A43   A(23,19,24)           108.9474         calculate D2E/DX2 analytically  !
 ! A44   A(17,20,19)           104.2023         calculate D2E/DX2 analytically  !
 ! A45   A(17,20,25)           109.8597         calculate D2E/DX2 analytically  !
 ! A46   A(17,20,26)           112.4446         calculate D2E/DX2 analytically  !
 ! A47   A(19,20,25)           109.9127         calculate D2E/DX2 analytically  !
 ! A48   A(19,20,26)           111.9853         calculate D2E/DX2 analytically  !
 ! A49   A(25,20,26)           108.3867         calculate D2E/DX2 analytically  !
 ! D1    D(6,1,2,3)             -0.3215         calculate D2E/DX2 analytically  !
 ! D2    D(6,1,2,8)            179.8461         calculate D2E/DX2 analytically  !
 ! D3    D(11,1,2,3)           179.7117         calculate D2E/DX2 analytically  !
 ! D4    D(11,1,2,8)            -0.1206         calculate D2E/DX2 analytically  !
 ! D5    D(2,1,6,5)              0.1336         calculate D2E/DX2 analytically  !
 ! D6    D(2,1,6,7)           -179.8426         calculate D2E/DX2 analytically  !
 ! D7    D(11,1,6,5)          -179.8969         calculate D2E/DX2 analytically  !
 ! D8    D(11,1,6,7)             0.1268         calculate D2E/DX2 analytically  !
 ! D9    D(2,1,11,12)           -0.263          calculate D2E/DX2 analytically  !
 ! D10   D(6,1,11,12)          179.7689         calculate D2E/DX2 analytically  !
 ! D11   D(1,2,3,4)              0.1966         calculate D2E/DX2 analytically  !
 ! D12   D(1,2,3,9)           -179.9815         calculate D2E/DX2 analytically  !
 ! D13   D(8,2,3,4)           -179.9679         calculate D2E/DX2 analytically  !
 ! D14   D(8,2,3,9)             -0.1461         calculate D2E/DX2 analytically  !
 ! D15   D(2,3,4,5)              0.1135         calculate D2E/DX2 analytically  !
 ! D16   D(2,3,4,16)           179.883          calculate D2E/DX2 analytically  !
 ! D17   D(9,3,4,5)           -179.7052         calculate D2E/DX2 analytically  !
 ! D18   D(9,3,4,16)             0.0643         calculate D2E/DX2 analytically  !
 ! D19   D(3,4,5,6)             -0.3054         calculate D2E/DX2 analytically  !
 ! D20   D(3,4,5,10)           179.685          calculate D2E/DX2 analytically  !
 ! D21   D(16,4,5,6)           179.933          calculate D2E/DX2 analytically  !
 ! D22   D(16,4,5,10)           -0.0766         calculate D2E/DX2 analytically  !
 ! D23   D(3,4,16,17)           -0.3464         calculate D2E/DX2 analytically  !
 ! D24   D(3,4,16,18)         -178.4894         calculate D2E/DX2 analytically  !
 ! D25   D(5,4,16,17)          179.4133         calculate D2E/DX2 analytically  !
 ! D26   D(5,4,16,18)            1.2703         calculate D2E/DX2 analytically  !
 ! D27   D(4,5,6,1)              0.1841         calculate D2E/DX2 analytically  !
 ! D28   D(4,5,6,7)           -179.8401         calculate D2E/DX2 analytically  !
 ! D29   D(10,5,6,1)          -179.8066         calculate D2E/DX2 analytically  !
 ! D30   D(10,5,6,7)             0.1692         calculate D2E/DX2 analytically  !
 ! D31   D(1,11,12,13)          61.3094         calculate D2E/DX2 analytically  !
 ! D32   D(1,11,12,14)         -61.3337         calculate D2E/DX2 analytically  !
 ! D33   D(1,11,12,15)        -179.9953         calculate D2E/DX2 analytically  !
 ! D34   D(4,16,17,20)         168.0991         calculate D2E/DX2 analytically  !
 ! D35   D(4,16,17,21)          45.5448         calculate D2E/DX2 analytically  !
 ! D36   D(4,16,17,22)         -72.4939         calculate D2E/DX2 analytically  !
 ! D37   D(18,16,17,20)        -13.5137         calculate D2E/DX2 analytically  !
 ! D38   D(18,16,17,21)       -136.068          calculate D2E/DX2 analytically  !
 ! D39   D(18,16,17,22)        105.8933         calculate D2E/DX2 analytically  !
 ! D40   D(4,16,18,19)         177.1942         calculate D2E/DX2 analytically  !
 ! D41   D(4,16,18,27)           1.3367         calculate D2E/DX2 analytically  !
 ! D42   D(17,16,18,19)         -1.2085         calculate D2E/DX2 analytically  !
 ! D43   D(17,16,18,27)       -177.066          calculate D2E/DX2 analytically  !
 ! D44   D(16,17,20,19)         21.9343         calculate D2E/DX2 analytically  !
 ! D45   D(16,17,20,25)        -95.773          calculate D2E/DX2 analytically  !
 ! D46   D(16,17,20,26)        143.4254         calculate D2E/DX2 analytically  !
 ! D47   D(21,17,20,19)        143.574          calculate D2E/DX2 analytically  !
 ! D48   D(21,17,20,25)         25.8666         calculate D2E/DX2 analytically  !
 ! D49   D(21,17,20,26)        -94.935          calculate D2E/DX2 analytically  !
 ! D50   D(22,17,20,19)        -94.212          calculate D2E/DX2 analytically  !
 ! D51   D(22,17,20,25)        148.0807         calculate D2E/DX2 analytically  !
 ! D52   D(22,17,20,26)         27.2791         calculate D2E/DX2 analytically  !
 ! D53   D(16,18,19,20)         15.3596         calculate D2E/DX2 analytically  !
 ! D54   D(16,18,19,23)       -104.4142         calculate D2E/DX2 analytically  !
 ! D55   D(16,18,19,24)        136.8377         calculate D2E/DX2 analytically  !
 ! D56   D(27,18,19,20)       -168.6455         calculate D2E/DX2 analytically  !
 ! D57   D(27,18,19,23)         71.5806         calculate D2E/DX2 analytically  !
 ! D58   D(27,18,19,24)        -47.1675         calculate D2E/DX2 analytically  !
 ! D59   D(18,19,20,17)        -22.1179         calculate D2E/DX2 analytically  !
 ! D60   D(18,19,20,25)         95.5529         calculate D2E/DX2 analytically  !
 ! D61   D(18,19,20,26)       -143.9134         calculate D2E/DX2 analytically  !
 ! D62   D(23,19,20,17)         94.2133         calculate D2E/DX2 analytically  !
 ! D63   D(23,19,20,25)       -148.116          calculate D2E/DX2 analytically  !
 ! D64   D(23,19,20,26)        -27.5822         calculate D2E/DX2 analytically  !
 ! D65   D(24,19,20,17)       -140.3074         calculate D2E/DX2 analytically  !
 ! D66   D(24,19,20,25)        -22.6367         calculate D2E/DX2 analytically  !
 ! D67   D(24,19,20,26)         97.8971         calculate D2E/DX2 analytically  !
 --------------------------------------------------------------------------------
 Trust Radius=3.00D-01 FncErr=1.00D-07 GrdErr=1.00D-07 EigMax=2.50D+02 EigMin=1.00D-04
 Number of steps in this run=      2 maximum allowed number of steps=      2.
 GradGradGradGradGradGradGradGradGradGradGradGradGradGradGradGradGradGrad

 Leave Link  103 at Tue Jul  7 16:47:51 2026, MaxMem=  4026531840 cpu:               0.1 elap:               0.0
 (Enter /opt/packages/gaussian/g16RevC.01/g16/l202.exe)
                          Input orientation:                          
 ---------------------------------------------------------------------
 Center     Atomic      Atomic             Coordinates (Angstroms)
 Number     Number       Type             X           Y           Z
 ---------------------------------------------------------------------
      1          6           0       -2.475875    0.267505   -0.011308
      2          6           0       -1.847408   -0.980217    0.036184
      3          6           0       -0.462392   -1.040750    0.045514
      4          6           0        0.321564    0.121124    0.012498
      5          6           0       -0.332949    1.370397   -0.028534
      6          6           0       -1.706769    1.442847   -0.042159
      7          1           0       -2.214910    2.401166   -0.076284
      8          1           0       -2.421096   -1.898290    0.063044
      9          1           0        0.010274   -2.015942    0.082229
     10          1           0        0.227793    2.299451   -0.050075
     11          8           0       -3.810836    0.441948   -0.030024
     12          6           0       -4.662412   -0.706781   -0.005891
     13          1           0       -4.506952   -1.283782    0.910506
     14          1           0       -4.488339   -1.334534   -0.884846
     15          1           0       -5.679464   -0.316027   -0.027619
     16          6           0        1.762641    0.000599    0.026627
     17          6           0        2.534633   -1.286795    0.082123
     18          7           0        2.593240    1.000037    0.027422
     19          6           0        4.013555    0.629302    0.108272
     20          6           0        3.978090   -0.861800   -0.233291
     21          1           0        2.140767   -2.028839   -0.614516
     22          1           0        2.430309   -1.695914    1.095066
     23          1           0        4.365378    0.830627    1.124734
     24          1           0        4.589316    1.235569   -0.592433
     25          1           0        4.183290   -1.005004   -1.297598
     26          1           0        4.713673   -1.429304    0.338352
     27          1           0        2.307078    1.975633    0.037756
 ---------------------------------------------------------------------
                    Distance matrix (angstroms):
                    1          2          3          4          5
     1  C    0.000000
     2  C    1.397869   0.000000
     3  C    2.401849   1.386370   0.000000
     4  C    2.801368   2.432685   1.402009   0.000000
     5  C    2.410146   2.796992   2.415755   1.410941   0.000000
     6  C    1.404957   2.428406   2.779283   2.421585   1.375796
     7  H    2.150542   3.403154   3.864316   3.411770   2.146285
     8  H    2.167763   1.082912   2.138271   3.406284   3.879828
     9  H    3.376954   2.127400   1.084325   2.160744   3.405491
    10  H    3.382326   3.882025   3.412101   2.181242   1.085373
    11  O    1.346440   2.425281   3.662810   4.145054   3.599683
    12  C    2.393784   2.828566   4.213591   5.052305   4.802024
    13  H    2.716892   2.815983   4.143156   5.108301   5.034755
    14  H    2.716543   2.819282   4.142478   5.104834   5.031619
    15  H    3.256340   3.889713   5.267676   6.017063   5.606179
    16  C    4.247082   3.740929   2.456733   1.446177   2.504174
    17  C    5.246882   4.392993   3.007331   2.623882   3.911003
    18  N    5.121917   4.862184   3.674510   2.435820   2.950064
    19  C    6.500608   6.078374   4.777772   3.728031   4.411353
    20  C    6.555782   5.832929   4.452823   3.794302   4.858980
    21  H    5.191381   4.174752   2.861537   2.885305   4.244697
    22  H    5.399048   4.464562   3.146190   2.986701   4.277889
    23  H    6.957761   6.562226   5.289057   4.253574   4.867818
    24  H    7.154843   6.836394   5.577486   4.452149   4.956294
    25  H    6.900602   6.176480   4.836071   4.230536   5.258276
    26  H    7.395338   6.583371   5.198882   4.669114   5.782847
    27  H    5.079051   5.098707   4.094947   2.717004   2.709326
                    6          7          8          9         10
     6  C    0.000000
     7  H    1.085240   0.000000
     8  H    3.418264   4.306651   0.000000
     9  H    3.863538   4.948475   2.434290   0.000000
    10  H    2.115741   2.444960   4.964921   4.322897   0.000000
    11  O    2.330031   2.527381   2.723372   4.544745   4.445362
    12  C    3.654865   3.956583   2.539280   4.853417   5.740512
    13  H    4.022822   4.450398   2.333797   4.650530   6.014988
    14  H    4.020087   4.447213   2.343034   4.651566   6.012036
    15  H    4.344669   4.403252   3.623360   5.939267   6.460411
    16  C    3.757874   4.646959   4.594645   2.672138   2.765206
    17  C    5.045382   6.015339   4.993350   2.627555   4.266163
    18  N    4.323308   5.009214   5.791816   3.971252   2.699967
    19  C    5.779843   6.478220   6.913429   4.798359   4.140829
    20  C    6.137226   7.001774   6.489353   4.144293   4.908340
    21  H    5.213801   6.235908   4.613754   2.241566   4.765727
    22  H    5.316061   6.303664   4.964086   2.642882   4.703760
    23  H    6.213486   6.870897   7.391238   5.306289   4.545022
    24  H    6.323483   6.922609   7.706919   5.656423   4.522043
    25  H    6.500838   7.350548   6.802001   4.509987   5.302989
    26  H    7.043870   7.927779   7.155464   4.746758   5.846162
    27  H    4.049841   4.543397   6.112573   4.605428   2.106181
                   11         12         13         14         15
    11  O    0.000000
    12  C    1.430154   0.000000
    13  H    2.085022   1.094020   0.000000
    14  H    2.084614   1.094046   1.796165   0.000000
    15  H    2.016507   1.089750   1.786452   1.786330   0.000000
    16  C    5.591212   6.463958   6.460547   6.456633   7.449035
    17  C    6.577698   7.220916   7.090144   7.089389   8.271990
    18  N    6.428604   7.453779   7.510551   7.512071   8.376913
    19  C    7.827855   8.778983   8.769407   8.782091   9.739955
    20  C    7.899901   8.644883   8.572180   8.504611   9.675149
    21  H    6.470548   6.957119   6.860974   6.670845   8.027090
    22  H    6.692397   7.245493   6.951942   7.205437   8.302585
    23  H    8.266499   9.227292   9.123313   9.333522  10.175538
    24  H    8.456281   9.471600   9.557616   9.439001  10.400687
    25  H    8.222315   8.944489   8.970715   8.687698   9.968021
    26  H    8.735247   9.410181   9.239505   9.283438  10.458997
    27  H    6.307587   7.468001   7.603715   7.614860   8.309081
                   16         17         18         19         20
    16  C    0.000000
    17  C    1.502143   0.000000
    18  N    1.299527   2.288236   0.000000
    19  C    2.338492   2.420603   1.470128   0.000000
    20  C    2.391548   1.537424   2.334998   1.530133   0.000000
    21  H    2.161634   1.091360   3.129042   3.330986   2.209766
    22  H    2.113172   1.097413   2.904232   2.981117   2.203612
    23  H    2.944320   2.986995   2.091236   1.094306   2.204208
    24  H    3.146184   3.322509   2.103334   1.090893   2.213941
    25  H    2.936724   2.168203   2.881687   2.162460   1.093326
    26  H    3.293992   2.198676   3.239538   2.186541   1.090834
    27  H    2.048731   3.270655   1.016752   2.174774   3.304054
                   21         22         23         24         25
    21  H    0.000000
    22  H    1.765600   0.000000
    23  H    4.018760   3.182574   0.000000
    24  H    4.080716   4.012799   1.778423   0.000000
    25  H    2.384689   3.045511   3.044731   2.383754   0.000000
    26  H    2.808424   2.420217   2.418056   2.825486   1.771346
    27  H    4.060655   3.822741   2.594062   2.480613   3.766635
                   26         27
    26  H    0.000000
    27  H    4.180389   0.000000
 Stoichiometry    C11H14NO(1+)
 Framework group  C1[X(C11H14NO)]
 Deg. of freedom    75
 Full point group                 C1      NOp   1
 RotChk:  IX=0 Diff= 3.98D-17
 Largest Abelian subgroup         C1      NOp   1
 Largest concise Abelian subgroup C1      NOp   1
                         Standard orientation:                         
 ---------------------------------------------------------------------
 Center     Atomic      Atomic             Coordinates (Angstroms)
 Number     Number       Type             X           Y           Z
 ---------------------------------------------------------------------
      1          6           0       -2.476588    0.266668   -0.010680
      2          6           0       -1.847704   -0.980891    0.035549
      3          6           0       -0.462666   -1.040978    0.044610
      4          6           0        0.320903    0.121184    0.012558
      5          6           0       -0.334026    1.370280   -0.027206
      6          6           0       -1.707872    1.442291   -0.040551
      7          1           0       -2.216333    2.400474   -0.073703
      8          1           0       -2.421086   -1.899178    0.061641
      9          1           0        0.010325   -2.016049    0.080341
     10          1           0        0.226407    2.299537   -0.047965
     11          8           0       -3.811609    0.440690   -0.029028
     12          6           0       -4.662803   -0.708341   -0.005837
     13          1           0       -4.507012   -1.286146    0.909997
     14          1           0       -4.488660   -1.335215   -0.885405
     15          1           0       -5.679987   -0.317900   -0.027043
     16          6           0        1.762022    0.001118    0.026354
     17          6           0        2.534445   -1.286073    0.080528
     18          7           0        2.592293    1.000828    0.027954
     19          6           0        4.012742    0.630485    0.108239
     20          6           0        3.977714   -0.860309   -0.234711
     21          1           0        2.140715   -2.027595   -0.616743
     22          1           0        2.430411   -1.696172    1.093105
     23          1           0        4.364655    0.830975    1.124835
     24          1           0        4.588195    1.237595   -0.591987
     25          1           0        4.182797   -1.002451   -1.299182
     26          1           0        4.713571   -1.428105    0.336288
     27          1           0        2.305812    1.976320    0.039244
 ---------------------------------------------------------------------
 Rotational constants (GHZ):           2.8721501           0.3539993           0.3181953
 Leave Link  202 at Tue Jul  7 16:47:51 2026, MaxMem=  4026531840 cpu:               0.0 elap:               0.0
 (Enter /opt/packages/gaussian/g16RevC.01/g16/l301.exe)
 Standard basis: 6-31+G(d) (6D, 7F)
 Ernie: Thresh=  0.10000D-02 Tol=  0.10000D-05 Strict=F.
 There are   275 symmetry adapted cartesian basis functions of A   symmetry.
 There are   275 symmetry adapted basis functions of A   symmetry.
   275 basis functions,   472 primitive gaussians,   275 cartesian basis functions
    47 alpha electrons       47 beta electrons
       nuclear repulsion energy       757.8703381729 Hartrees.
 IExCor=20419 DFT=T Ex+Corr=CAM-B3LYP ExCW=0 ScaHFX=  1.000000
 ScaDFX=  1.000000  1.000000  1.000000  0.810000 ScalE2=  1.000000  1.000000
 IRadAn=      5 IRanWt=     -1 IRanGd=            0 ICorTp=0 IEmpDi=  4
 HFx  wShort=  0.000000 wLong=  0.330000 cFull=  0.190000 cShort=  0.000000 cLong=  0.460000
 DFx  wShort=  0.000000 wLong=  0.330000 cFull=  0.190000 cShort=  0.000000 cLong=  0.460000
 NAtoms=   27 NActive=   27 NUniq=   27 SFac= 1.00D+00 NAtFMM=   60 NAOKFM=F Big=F
 Integral buffers will be    131072 words long.
 Raffenetti 2 integral format.
 Two-electron integral symmetry is turned on.
 Force inversion solution in PCM.
 ------------------------------------------------------------------------------
 Polarizable Continuum Model (PCM)
 =================================
 Model                : PCM.
 Atomic radii         : SMD-Coulomb.
 Polarization charges : Total charges.
 Charge compensation  : None.
 Solution method      : Matrix inversion.
 Cavity type          : VdW (van der Waals Surface) (Alpha=1.000).
 Cavity algorithm     : GePol (No added spheres)
                        Default sphere list used, NSphG=   27.
                        Lebedev-Laikov grids with approx.  5.0 points / Ang**2.
                        Smoothing algorithm: York/Karplus (Gamma=1.0000).
                        Polarization charges: spherical gaussians, with
                                              point-specific exponents (IZeta= 3).
                        Self-potential: point-specific (ISelfS= 7).
                        Self-field    : sphere-specific E.n sum rule (ISelfD= 2).
 1st derivatives      : Analytical E(r).r(x)/FMM algorithm (CHGder, D1EAlg=3).
                        Cavity 1st derivative terms included.
 2nd derivatives      : Analytical E(r).r(xy)/FMM algorithm (CHGder, D2EAlg=3).
                        Cavity 2nd derivative terms included.
 Solvent              : Methanol, Eps=  32.613000 Eps(inf)=   1.765709
 ------------------------------------------------------------------------------
 GePol: Number of generator spheres                  =      27
 GePol: Total number of spheres                      =      27
 GePol: Number of exposed spheres                    =      27 (100.00%)
 GePol: Number of points                             =    1974
 GePol: Average weight of points                     =       0.11
 GePol: Minimum weight of points                     =   0.50D-10
 GePol: Maximum weight of points                     =    0.21991
 GePol: Number of points with low weight             =     108
 GePol: Fraction of low-weight points (<1% of avg)   =       5.47%
 GePol: Cavity surface area                          =    215.041 Ang**2
 GePol: Cavity volume                                =    191.254 Ang**3
 ------------------------------------------------------------------------------
 Atomic radii for non-electrostatic terms: SMD-CDS.
 ------------------------------------------------------------------------------
 PCM non-electrostatic energy =        -0.0004872853 Hartrees.
 Nuclear repulsion after PCM non-electrostatic terms =      757.8698508876 Hartrees.
 Leave Link  301 at Tue Jul  7 16:47:51 2026, MaxMem=  4026531840 cpu:               0.3 elap:               0.1
 (Enter /opt/packages/gaussian/g16RevC.01/g16/l302.exe)
 NPDir=0 NMtPBC=     1 NCelOv=     1 NCel=       1 NClECP=     1 NCelD=      1
         NCelK=      1 NCelE2=     1 NClLst=     1 CellRange=     0.0.
 One-electron integrals computed using PRISM.
 One-electron integral symmetry used in STVInt
 NBasis=   275 RedAO= T EigKep=  2.07D-06  NBF=   275
 NBsUse=   273 1.00D-06 EigRej=  8.55D-07 NBFU=   273
 Precomputing XC quadrature grid using
 IXCGrd= 4 IRadAn=           5 IRanWt=          -1 IRanGd=           0 AccXCQ= 0.00D+00.
 Generated NRdTot=       0 NPtTot=           0 NUsed=           0 NTot=          32
 NSgBfM=   274   274   274   274   274 MxSgAt=    27 MxSgA2=    27.
 Leave Link  302 at Tue Jul  7 16:47:51 2026, MaxMem=  4026531840 cpu:               1.4 elap:               0.2
 (Enter /opt/packages/gaussian/g16RevC.01/g16/l303.exe)
 DipDrv:  MaxL=1.
 Leave Link  303 at Tue Jul  7 16:47:51 2026, MaxMem=  4026531840 cpu:               0.1 elap:               0.0
 (Enter /opt/packages/gaussian/g16RevC.01/g16/l401.exe)
 Initial guess from the checkpoint file:  "iminium_ground_cam.chk"
 B after Tr=    -0.000000    0.000000   -0.000000
         Rot=    1.000000    0.000000   -0.000000   -0.000000 Ang=   0.00 deg.
 Guess basis will be translated and rotated to current coordinates.
 JPrj=2 DoOrth=T DoCkMO=T.
 Leave Link  401 at Tue Jul  7 16:47:51 2026, MaxMem=  4026531840 cpu:               0.8 elap:               0.1
 (Enter /opt/packages/gaussian/g16RevC.01/g16/l502.exe)
 Integral symmetry usage will be decided dynamically.
 Closed shell SCF:
 Using DIIS extrapolation, IDIIS=  1040.
 NGot=  4026531840 LenX=  4026374748 LenY=  4026298682
 Requested convergence on RMS density matrix=1.00D-08 within 128 cycles.
 Requested convergence on MAX density matrix=1.00D-06.
 Requested convergence on             energy=1.00D-06.
 No special actions if energy rises.
 Fock matrices will be formed incrementally for  20 cycles.

 Cycle   1  Pass 1  IDiag  1:
 FoFJK:  IHMeth= 1 ICntrl=       0 DoSepK=T KAlg= 0 I1Cent=           0 FoldK=F
 IRaf=         1 NMat=       1 IRICut=       1 DoRegI=T DoRafI=F ISym2E= 0 IDoP0=0 IntGTp=1.
 FoFCou: FMM=F IPFlag=           0 FMFlag=      100000 FMFlg1=           0
         NFxFlg=           0 DoJE=T BraDBF=F KetDBF=F FulRan=T
         wScrn=  0.000000 ICntrl=       500 IOpCl=  0 I1Cent=           0 NGrid=           0
         NMat0=    1 NMatS0=      1 NMatT0=    0 NMatD0=    1 NMtDS0=    0 NMtDT0=    0
 Symmetry not used in FoFCou.
 Inv3:  Mode=1 IEnd=    11690028.
 Iteration    1 A*A^-1 deviation from unit magnitude is 3.77D-15 for    366.
 Iteration    1 A*A^-1 deviation from orthogonality  is 2.15D-15 for   1345   1122.
 Iteration    1 A^-1*A deviation from unit magnitude is 3.22D-15 for    373.
 Iteration    1 A^-1*A deviation from orthogonality  is 3.38D-14 for   1284   1218.
 E= -557.156478683482    
 DIIS: error= 2.30D-09 at cycle   1 NSaved=   1.
 NSaved= 1 IEnMin= 1 EnMin= -557.156478683482     IErMin= 1 ErrMin= 2.30D-09
 ErrMax= 2.30D-09  0.00D+00 EMaxC= 1.00D-01 BMatC= 2.32D-15 BMatP= 2.32D-15
 IDIUse=1 WtCom= 1.00D+00 WtEn= 0.00D+00
 Coeff-Com:  0.100D+01
 Coeff:      0.100D+01
 Gap=     0.255 Goal=   None    Shift=    0.000
 RMSDP=2.64D-09 MaxDP=1.71D-07              OVMax= 4.91D-08

 Error on total polarization charges =  0.05312
 SCF Done:  E(RCAM-B3LYP) =  -557.156478683     A.U. after    1 cycles
            NFock=  1  Conv=0.26D-08     -V/T= 2.0094
 KE= 5.519731565293D+02 PE=-2.793433690635D+03 EE= 9.264342045350D+02
 SMD-CDS (non-electrostatic) energy       (kcal/mol) =      -0.31
 (included in total energy above)
 Leave Link  502 at Tue Jul  7 16:47:55 2026, MaxMem=  4026531840 cpu:              31.6 elap:               4.1
 (Enter /opt/packages/gaussian/g16RevC.01/g16/l801.exe)
 DoSCS=F DFT=T ScalE2(SS,OS)=  1.000000  1.000000
 Range of M.O.s used for correlation:     1   273
 NBasis=   275 NAE=    47 NBE=    47 NFC=     0 NFV=     0
 NROrb=    273 NOA=    47 NOB=    47 NVA=   226 NVB=   226

 **** Warning!!: The largest alpha MO coefficient is  0.12954365D+03

 Leave Link  801 at Tue Jul  7 16:47:56 2026, MaxMem=  4026531840 cpu:               0.1 elap:               0.0
 (Enter /opt/packages/gaussian/g16RevC.01/g16/l1101.exe)
 Using compressed storage, NAtomX=    27.
 Will process     28 centers per pass.
 Leave Link 1101 at Tue Jul  7 16:47:56 2026, MaxMem=  4026531840 cpu:               1.0 elap:               0.2
 (Enter /opt/packages/gaussian/g16RevC.01/g16/l1102.exe)
 Symmetrizing basis deriv contribution to polar:
 IMax=3 JMax=2 DiffMx= 0.00D+00
 Leave Link 1102 at Tue Jul  7 16:47:56 2026, MaxMem=  4026531840 cpu:               0.2 elap:               0.1
 (Enter /opt/packages/gaussian/g16RevC.01/g16/l1110.exe)
 Forming Gx(P) for the SCF density, NAtomX=    27.
 Integral derivatives from FoFJK, PRISM(SPDF).
 Do as many integral derivatives as possible in FoFJK.
 G2DrvN: MDV=    4026528923.
 G2DrvN: will do    28 centers at a time, making    1 passes.
 Calling FoFCou, ICntrl=  3107 FMM=F I1Cent=   0 AccDes= 0.00D+00.
 FoFJK:  IHMeth= 1 ICntrl=    3107 DoSepK=T KAlg= 0 I1Cent=           0 FoldK=F
 IRaf=         1 NMat=       1 IRICut=       1 DoRegI=T DoRafI=F ISym2E= 0 IDoP0=0 IntGTp=1.
 FoFCou: FMM=F IPFlag=           0 FMFlag=      100000 FMFlg1=           0
         NFxFlg=           0 DoJE=F BraDBF=F KetDBF=F FulRan=T
         wScrn=  0.000000 ICntrl=      3507 IOpCl=  0 I1Cent=           0 NGrid=           0
         NMat0=    1 NMatS0=      1 NMatT0=    0 NMatD0=    1 NMtDS0=    0 NMtDT0=    0
 Symmetry not used in FoFCou.
 NEqPCM:  Using equilibrium solvation (IEInf=0, Eps=  32.6130, EpsInf=   1.7657)
 G2PCM: DoFxE=T DoFxN=T DoGrad=T DoDP/DQ/DG/TGxP=FFFF NFrqRd=   0 IEInf=0 SqF1=F DoCFld=F IF1Alg=4.
 GePol: Maximum number of non-zero 1st derivatives   =     257
 End of G2Drv F.D. properties file   721 does not exist.
 End of G2Drv F.D. properties file   722 does not exist.
 End of G2Drv F.D. properties file   788 does not exist.
 Leave Link 1110 at Tue Jul  7 16:48:43 2026, MaxMem=  4026531840 cpu:             371.5 elap:              46.7
 (Enter /opt/packages/gaussian/g16RevC.01/g16/l1002.exe)
 Minotr:  Closed shell wavefunction.
          IDoAtm=111111111111111111111111111
 NEqPCM:  Using equilibrium solvation (IEInf=0, Eps=  32.6130, EpsInf=   1.7657)
          Direct CPHF calculation.
          Differentiating once with respect to electric field.
                with respect to dipole field.
          Differentiating once with respect to nuclear coordinates.
          Requested convergence is 1.0D-08 RMS, and 1.0D-07 maximum.
          Secondary convergence is 1.0D-12 RMS, and 1.0D-12 maximum.
          NewPWx=T KeepS1=F KeepF1=F KeepIn=T MapXYZ=F SortEE=F KeepMc=T.
         8348 words used for storage of precomputed grid.
 Keep R1 ints in memory in canonical form, NReq=1461278823.
 FoFCou: FMM=F IPFlag=           0 FMFlag=           0 FMFlg1=           0
         NFxFlg=           0 DoJE=F BraDBF=F KetDBF=F FulRan=T
         wScrn=  0.000000 ICntrl=       600 IOpCl=  0 I1Cent=           0 NGrid=           0
         NMat0=    1 NMatS0=  37950 NMatT0=    0 NMatD0=    1 NMtDS0=    0 NMtDT0=    0
 Symmetry not used in FoFCou.
 Two-electron integral symmetry not used.
          MDV=    4026531840 using IRadAn=       1.
          Solving linear equations simultaneously, MaxMat=       0.
          There are    84 degrees of freedom in the 1st order CPHF.  IDoFFX=6 NUNeed=     3.
     81 vectors produced by pass  0 Test12= 1.26D-14 1.19D-09 XBig12= 1.35D+02 8.89D+00.
 AX will form    81 AO Fock derivatives at one time.
     81 vectors produced by pass  1 Test12= 1.26D-14 1.19D-09 XBig12= 9.36D+00 5.98D-01.
     81 vectors produced by pass  2 Test12= 1.26D-14 1.19D-09 XBig12= 1.76D-01 7.08D-02.
     81 vectors produced by pass  3 Test12= 1.26D-14 1.19D-09 XBig12= 9.75D-04 3.32D-03.
     81 vectors produced by pass  4 Test12= 1.26D-14 1.19D-09 XBig12= 4.56D-06 2.05D-04.
     81 vectors produced by pass  5 Test12= 1.26D-14 1.19D-09 XBig12= 1.77D-08 1.09D-05.
     59 vectors produced by pass  6 Test12= 1.26D-14 1.19D-09 XBig12= 6.78D-11 6.83D-07.
      8 vectors produced by pass  7 Test12= 1.26D-14 1.19D-09 XBig12= 2.27D-13 3.55D-08.
      2 vectors produced by pass  8 Test12= 1.26D-14 1.19D-09 XBig12= 8.05D-16 2.05D-09.
 InvSVY:  IOpt=1 It=  1 EMax= 5.33D-15
 Solved reduced A of dimension   555 with    84 vectors.
 FullF1:  Do perturbations      1 to       3.
 Isotropic polarizability for W=    0.000000      196.25 Bohr**3.
 End of Minotr F.D. properties file   721 does not exist.
 End of Minotr F.D. properties file   722 does not exist.
 End of Minotr F.D. properties file   788 does not exist.
 Leave Link 1002 at Tue Jul  7 16:49:56 2026, MaxMem=  4026531840 cpu:             581.1 elap:              73.0
 (Enter /opt/packages/gaussian/g16RevC.01/g16/l601.exe)
 Copying SCF densities to generalized density rwf, IOpCl= 0 IROHF=0.

 **********************************************************************

            Population analysis using the SCF Density.

 **********************************************************************

 Orbital symmetries:
       Occupied  (A) (A) (A) (A) (A) (A) (A) (A) (A) (A) (A) (A)
                 (A) (A) (A) (A) (A) (A) (A) (A) (A) (A) (A) (A)
                 (A) (A) (A) (A) (A) (A) (A) (A) (A) (A) (A) (A)
                 (A) (A) (A) (A) (A) (A) (A) (A) (A) (A) (A)
       Virtual   (A) (A) (A) (A) (A) (A) (A) (A) (A) (A) (A) (A)
                 (A) (A) (A) (A) (A) (A) (A) (A) (A) (A) (A) (A)
                 (A) (A) (A) (A) (A) (A) (A) (A) (A) (A) (A) (A)
                 (A) (A) (A) (A) (A) (A) (A) (A) (A) (A) (A) (A)
                 (A) (A) (A) (A) (A) (A) (A) (A) (A) (A) (A) (A)
                 (A) (A) (A) (A) (A) (A) (A) (A) (A) (A) (A) (A)
                 (A) (A) (A) (A) (A) (A) (A) (A) (A) (A) (A) (A)
                 (A) (A) (A) (A) (A) (A) (A) (A) (A) (A) (A) (A)
                 (A) (A) (A) (A) (A) (A) (A) (A) (A) (A) (A) (A)
                 (A) (A) (A) (A) (A) (A) (A) (A) (A) (A) (A) (A)
                 (A) (A) (A) (A) (A) (A) (A) (A) (A) (A) (A) (A)
                 (A) (A) (A) (A) (A) (A) (A) (A) (A) (A) (A) (A)
                 (A) (A) (A) (A) (A) (A) (A) (A) (A) (A) (A) (A)
                 (A) (A) (A) (A) (A) (A) (A) (A) (A) (A) (A) (A)
                 (A) (A) (A) (A) (A) (A) (A) (A) (A) (A) (A) (A)
                 (A) (A) (A) (A) (A) (A) (A) (A) (A) (A) (A) (A)
                 (A) (A) (A) (A) (A) (A) (A) (A) (A) (A) (A) (A)
                 (A) (A) (A) (A) (A) (A) (A) (A) (A) (A) (A) (A)
                 (A) (A) (A) (A) (A) (A) (A) (A) (A) (A)
 The electronic state is 1-A.
 Alpha  occ. eigenvalues --  -19.27799 -14.49563 -10.37580 -10.35388 -10.31032
 Alpha  occ. eigenvalues --  -10.31005 -10.29669 -10.29524 -10.29464 -10.28369
 Alpha  occ. eigenvalues --  -10.27920 -10.27900 -10.27187  -1.17167  -1.10042
 Alpha  occ. eigenvalues --   -0.96709  -0.88857  -0.88540  -0.85469  -0.83115
 Alpha  occ. eigenvalues --   -0.78616  -0.72065  -0.70880  -0.69050  -0.68738
 Alpha  occ. eigenvalues --   -0.64112  -0.60881  -0.58732  -0.57240  -0.55058
 Alpha  occ. eigenvalues --   -0.54574  -0.52882  -0.51184  -0.50467  -0.49835
 Alpha  occ. eigenvalues --   -0.49047  -0.48451  -0.47046  -0.45536  -0.44563
 Alpha  occ. eigenvalues --   -0.43719  -0.43320  -0.40848  -0.40549  -0.38175
 Alpha  occ. eigenvalues --   -0.33318  -0.29821
 Alpha virt. eigenvalues --   -0.04274   0.01871   0.03144   0.04581   0.04882
 Alpha virt. eigenvalues --    0.05673   0.05878   0.06142   0.06717   0.06959
 Alpha virt. eigenvalues --    0.07599   0.08081   0.08278   0.09274   0.09838
 Alpha virt. eigenvalues --    0.10265   0.10560   0.11092   0.12162   0.13024
 Alpha virt. eigenvalues --    0.13892   0.14451   0.14662   0.15061   0.15623
 Alpha virt. eigenvalues --    0.16013   0.16414   0.17140   0.17685   0.17995
 Alpha virt. eigenvalues --    0.18393   0.19196   0.19432   0.20136   0.20691
 Alpha virt. eigenvalues --    0.21331   0.21601   0.21914   0.22528   0.23235
 Alpha virt. eigenvalues --    0.23551   0.24138   0.24462   0.25051   0.25580
 Alpha virt. eigenvalues --    0.26560   0.26822   0.27294   0.27674   0.27823
 Alpha virt. eigenvalues --    0.28523   0.29411   0.29877   0.30384   0.30755
 Alpha virt. eigenvalues --    0.31565   0.31746   0.32132   0.32394   0.32984
 Alpha virt. eigenvalues --    0.33850   0.34421   0.34944   0.35805   0.36546
 Alpha virt. eigenvalues --    0.37004   0.37796   0.38355   0.38926   0.40027
 Alpha virt. eigenvalues --    0.40406   0.41358   0.43625   0.44495   0.44656
 Alpha virt. eigenvalues --    0.47444   0.49070   0.49581   0.50956   0.53135
 Alpha virt. eigenvalues --    0.63567   0.66148   0.68011   0.71042   0.71371
 Alpha virt. eigenvalues --    0.72569   0.73176   0.73856   0.74252   0.74938
 Alpha virt. eigenvalues --    0.75504   0.76647   0.77157   0.77376   0.77954
 Alpha virt. eigenvalues --    0.78763   0.79363   0.80701   0.82121   0.83273
 Alpha virt. eigenvalues --    0.84004   0.85303   0.88187   0.89232   0.90225
 Alpha virt. eigenvalues --    0.93934   0.95384   0.97857   0.98567   0.99714
 Alpha virt. eigenvalues --    1.00466   1.01006   1.01962   1.03031   1.04485
 Alpha virt. eigenvalues --    1.04699   1.05864   1.09390   1.11203   1.11608
 Alpha virt. eigenvalues --    1.13308   1.14580   1.15335   1.15729   1.17944
 Alpha virt. eigenvalues --    1.19104   1.20573   1.21634   1.22469   1.24655
 Alpha virt. eigenvalues --    1.26549   1.26956   1.28554   1.29610   1.30842
 Alpha virt. eigenvalues --    1.33877   1.34631   1.36013   1.38985   1.41987
 Alpha virt. eigenvalues --    1.42800   1.45821   1.47524   1.48490   1.50793
 Alpha virt. eigenvalues --    1.51458   1.52097   1.55454   1.56591   1.59155
 Alpha virt. eigenvalues --    1.60407   1.63954   1.67364   1.70481   1.78264
 Alpha virt. eigenvalues --    1.79671   1.82403   1.87536   1.89217   1.89277
 Alpha virt. eigenvalues --    1.91050   1.92513   1.94622   1.98290   1.99548
 Alpha virt. eigenvalues --    2.01983   2.02500   2.04111   2.06710   2.07672
 Alpha virt. eigenvalues --    2.09290   2.11254   2.13328   2.15248   2.16766
 Alpha virt. eigenvalues --    2.17488   2.18583   2.21762   2.22490   2.24477
 Alpha virt. eigenvalues --    2.26308   2.27047   2.30018   2.31905   2.36376
 Alpha virt. eigenvalues --    2.37232   2.37537   2.39540   2.42152   2.47160
 Alpha virt. eigenvalues --    2.47942   2.50942   2.55483   2.58236   2.60986
 Alpha virt. eigenvalues --    2.63161   2.63981   2.68593   2.70482   2.72910
 Alpha virt. eigenvalues --    2.74215   2.78322   2.81861   2.85350   2.87453
 Alpha virt. eigenvalues --    2.89794   2.93258   2.96048   3.09924   3.12208
 Alpha virt. eigenvalues --    3.20149   3.33363   3.51515   4.16621   4.30604
 Alpha virt. eigenvalues --    4.31575   4.32968   4.36207   4.39282   4.42860
 Alpha virt. eigenvalues --    4.45479   4.49486   4.56816   4.64574   4.70815
 Alpha virt. eigenvalues --    4.87107
          Condensed to atoms (all electrons):
               1          2          3          4          5          6
     1  C    6.864180   0.538937  -0.039437  -0.827327  -0.674752   0.159894
     2  C    0.538937   7.008791   1.379099  -0.873789  -0.147499  -1.816317
     3  C   -0.039437   1.379099   9.986490   2.512056  -4.883053   0.398271
     4  C   -0.827327  -0.873789   2.512056  12.030243  -4.955482   1.213260
     5  C   -0.674752  -0.147499  -4.883053  -4.955482  15.431653  -3.428228
     6  C    0.159894  -1.816317   0.398271   1.213260  -3.428228  11.385844
     7  H   -0.079844  -0.010202   0.002641   0.036814  -0.040912   0.405713
     8  H   -0.051889   0.324932  -0.012352   0.044018  -0.011086   0.020576
     9  H    0.015469  -0.026570   0.308149  -0.050965   0.036116  -0.029657
    10  H    0.019242  -0.004170  -0.000243  -0.066211   0.338657  -0.042397
    11  O    0.403790   0.118798   0.025219  -0.021273   0.000294  -0.539461
    12  C   -0.179581  -0.135120   0.009653  -0.013735   0.003688   0.135597
    13  H   -0.068497   0.039560   0.013869   0.002524  -0.001341  -0.002398
    14  H   -0.056261   0.030853   0.006975   0.000818   0.000625   0.002317
    15  H    0.037327  -0.047372  -0.006562  -0.001161   0.000890   0.024685
    16  C   -0.164430  -0.056504  -1.493653  -1.601605   3.096851  -1.183702
    17  C   -0.026635  -0.047370  -0.988263  -1.358043   0.763509  -0.277950
    18  N   -0.019273  -0.053187  -0.120500   0.124133  -0.004116   0.197446
    19  C   -0.000773  -0.008430  -0.045987  -0.071085  -0.035435  -0.004194
    20  C   -0.000778  -0.002581  -0.129519  -0.030501   0.156646   0.007049
    21  H   -0.000409   0.002827   0.011172  -0.020262  -0.011229   0.003754
    22  H   -0.001708  -0.011025  -0.052581   0.014341   0.024346   0.006023
    23  H   -0.000171  -0.000774  -0.006902  -0.014775   0.010398   0.002078
    24  H    0.000033  -0.000025   0.001401   0.005878  -0.004259  -0.000026
    25  H   -0.000116  -0.001402  -0.011369   0.000565   0.010700   0.001266
    26  H    0.000071   0.000471   0.003470   0.000531  -0.001279  -0.000318
    27  H    0.002854  -0.004096  -0.042561  -0.097463   0.096955   0.035267
               7          8          9         10         11         12
     1  C   -0.079844  -0.051889   0.015469   0.019242   0.403790  -0.179581
     2  C   -0.010202   0.324932  -0.026570  -0.004170   0.118798  -0.135120
     3  C    0.002641  -0.012352   0.308149  -0.000243   0.025219   0.009653
     4  C    0.036814   0.044018  -0.050965  -0.066211  -0.021273  -0.013735
     5  C   -0.040912  -0.011086   0.036116   0.338657   0.000294   0.003688
     6  C    0.405713   0.020576  -0.029657  -0.042397  -0.539461   0.135597
     7  H    0.452514  -0.000099   0.000011  -0.003561  -0.003017  -0.001857
     8  H   -0.000099   0.455496  -0.003540   0.000012  -0.010826  -0.001227
     9  H    0.000011  -0.003540   0.456507  -0.000100  -0.000595   0.000589
    10  H   -0.003561   0.000012  -0.000100   0.463646  -0.000389   0.000477
    11  O   -0.003017  -0.010826  -0.000595  -0.000389   8.526777   0.059652
    12  C   -0.001857  -0.001227   0.000589   0.000477   0.059652   5.328427
    13  H   -0.000000  -0.001106   0.000002   0.000000  -0.032952   0.392812
    14  H   -0.000000  -0.001108   0.000002   0.000000  -0.033482   0.392072
    15  H   -0.000005   0.000167  -0.000000  -0.000000  -0.052837   0.395782
    16  C   -0.004735   0.000290   0.030722   0.028461  -0.001586   0.000112
    17  C    0.000038   0.001745   0.013237   0.016120  -0.000539  -0.000070
    18  N    0.000306   0.000096   0.000097   0.000772   0.000024  -0.000318
    19  C    0.000079   0.000027   0.001715   0.005866  -0.000031   0.000163
    20  C    0.000003  -0.000050  -0.001245  -0.000932   0.000069  -0.000251
    21  H   -0.000000   0.000000   0.000047   0.000001   0.000000  -0.000015
    22  H   -0.000000  -0.000000  -0.001043  -0.000003   0.000000  -0.000009
    23  H    0.000000   0.000000  -0.000000  -0.000004   0.000000  -0.000000
    24  H    0.000000   0.000000   0.000000   0.000003   0.000000   0.000000
    25  H    0.000000   0.000000  -0.000007  -0.000000   0.000000  -0.000001
    26  H    0.000000  -0.000000  -0.000000   0.000000  -0.000000   0.000000
    27  H   -0.000001   0.000000   0.000001   0.004605  -0.000001   0.000003
              13         14         15         16         17         18
     1  C   -0.068497  -0.056261   0.037327  -0.164430  -0.026635  -0.019273
     2  C    0.039560   0.030853  -0.047372  -0.056504  -0.047370  -0.053187
     3  C    0.013869   0.006975  -0.006562  -1.493653  -0.988263  -0.120500
     4  C    0.002524   0.000818  -0.001161  -1.601605  -1.358043   0.124133
     5  C   -0.001341   0.000625   0.000890   3.096851   0.763509  -0.004116
     6  C   -0.002398   0.002317   0.024685  -1.183702  -0.277950   0.197446
     7  H   -0.000000  -0.000000  -0.000005  -0.004735   0.000038   0.000306
     8  H   -0.001106  -0.001108   0.000167   0.000290   0.001745   0.000096
     9  H    0.000002   0.000002  -0.000000   0.030722   0.013237   0.000097
    10  H    0.000000   0.000000  -0.000000   0.028461   0.016120   0.000772
    11  O   -0.032952  -0.033482  -0.052837  -0.001586  -0.000539   0.000024
    12  C    0.392812   0.392072   0.395782   0.000112  -0.000070  -0.000318
    13  H    0.476973  -0.036429  -0.024393   0.000458   0.000023  -0.000000
    14  H   -0.036429   0.476767  -0.024385   0.000044  -0.000042  -0.000000
    15  H   -0.024393  -0.024385   0.458495  -0.000138  -0.000004   0.000000
    16  C    0.000458   0.000044  -0.000138   7.342446  -0.841683   0.303290
    17  C    0.000023  -0.000042  -0.000004  -0.841683   9.087470  -0.317520
    18  N   -0.000000  -0.000000   0.000000   0.303290  -0.317520   7.006646
    19  C    0.000003  -0.000001  -0.000000  -0.559631   0.517542   0.101798
    20  C   -0.000007   0.000004   0.000000   0.370997  -0.943920  -0.057392
    21  H   -0.000000   0.000000   0.000000  -0.089635   0.439875   0.008971
    22  H    0.000000  -0.000000   0.000000  -0.029848   0.363467   0.006904
    23  H   -0.000000   0.000000   0.000000  -0.024600   0.018527  -0.031062
    24  H    0.000000  -0.000000  -0.000000  -0.016683   0.038345  -0.035851
    25  H    0.000000  -0.000000   0.000000   0.029059  -0.116592   0.014346
    26  H   -0.000000   0.000000  -0.000000   0.023065  -0.076140   0.006313
    27  H    0.000000  -0.000000  -0.000000  -0.006694  -0.006363   0.259343
              19         20         21         22         23         24
     1  C   -0.000773  -0.000778  -0.000409  -0.001708  -0.000171   0.000033
     2  C   -0.008430  -0.002581   0.002827  -0.011025  -0.000774  -0.000025
     3  C   -0.045987  -0.129519   0.011172  -0.052581  -0.006902   0.001401
     4  C   -0.071085  -0.030501  -0.020262   0.014341  -0.014775   0.005878
     5  C   -0.035435   0.156646  -0.011229   0.024346   0.010398  -0.004259
     6  C   -0.004194   0.007049   0.003754   0.006023   0.002078  -0.000026
     7  H    0.000079   0.000003  -0.000000  -0.000000   0.000000   0.000000
     8  H    0.000027  -0.000050   0.000000  -0.000000   0.000000   0.000000
     9  H    0.001715  -0.001245   0.000047  -0.001043  -0.000000   0.000000
    10  H    0.005866  -0.000932   0.000001  -0.000003  -0.000004   0.000003
    11  O   -0.000031   0.000069   0.000000   0.000000   0.000000   0.000000
    12  C    0.000163  -0.000251  -0.000015  -0.000009  -0.000000   0.000000
    13  H    0.000003  -0.000007  -0.000000   0.000000  -0.000000   0.000000
    14  H   -0.000001   0.000004   0.000000  -0.000000   0.000000  -0.000000
    15  H   -0.000000   0.000000   0.000000   0.000000   0.000000  -0.000000
    16  C   -0.559631   0.370997  -0.089635  -0.029848  -0.024600  -0.016683
    17  C    0.517542  -0.943920   0.439875   0.363467   0.018527   0.038345
    18  N    0.101798  -0.057392   0.008971   0.006904  -0.031062  -0.035851
    19  C    6.134936  -0.435814   0.024539   0.006154   0.417918   0.438465
    20  C   -0.435814   6.896223  -0.046616  -0.014561  -0.052025  -0.095713
    21  H    0.024539  -0.046616   0.427645  -0.023094  -0.000179  -0.000037
    22  H    0.006154  -0.014561  -0.023094   0.419586   0.001016  -0.000158
    23  H    0.417918  -0.052025  -0.000179   0.001016   0.447063  -0.029826
    24  H    0.438465  -0.095713  -0.000037  -0.000158  -0.029826   0.445102
    25  H   -0.090333   0.488871  -0.005108   0.002743   0.002775  -0.005380
    26  H   -0.066489   0.442184   0.000932  -0.004433  -0.003544   0.001337
    27  H   -0.020230   0.014517  -0.000080  -0.000201   0.000117  -0.000882
              25         26         27
     1  C   -0.000116   0.000071   0.002854
     2  C   -0.001402   0.000471  -0.004096
     3  C   -0.011369   0.003470  -0.042561
     4  C    0.000565   0.000531  -0.097463
     5  C    0.010700  -0.001279   0.096955
     6  C    0.001266  -0.000318   0.035267
     7  H    0.000000   0.000000  -0.000001
     8  H    0.000000  -0.000000   0.000000
     9  H   -0.000007  -0.000000   0.000001
    10  H   -0.000000   0.000000   0.004605
    11  O    0.000000  -0.000000  -0.000001
    12  C   -0.000001   0.000000   0.000003
    13  H    0.000000  -0.000000   0.000000
    14  H   -0.000000   0.000000  -0.000000
    15  H    0.000000  -0.000000  -0.000000
    16  C    0.029059   0.023065  -0.006694
    17  C   -0.116592  -0.076140  -0.006363
    18  N    0.014346   0.006313   0.259343
    19  C   -0.090333  -0.066489  -0.020230
    20  C    0.488871   0.442184   0.014517
    21  H   -0.005108   0.000932  -0.000080
    22  H    0.002743  -0.004433  -0.000201
    23  H    0.002775  -0.003544   0.000117
    24  H   -0.005380   0.001337  -0.000882
    25  H    0.450031  -0.024225  -0.000149
    26  H   -0.024225   0.447304  -0.000066
    27  H   -0.000149  -0.000066   0.265996
 Mulliken charges:
               1
     1  C    0.150084
     2  C   -0.197835
     3  C   -0.825483
     4  C    0.018498
     5  C    0.227344
     6  C   -0.674393
     7  H    0.246116
     8  H    0.245925
     9  H    0.251058
    10  H    0.240148
    11  O   -0.437635
    12  C   -0.386843
    13  H    0.240900
    14  H    0.241231
    15  H    0.239511
    16  C    0.849331
    17  C   -0.258765
    18  N   -0.391267
    19  C   -0.310770
    20  C   -0.564656
    21  H    0.276898
    22  H    0.294084
    23  H    0.263970
    24  H    0.258276
    25  H    0.254327
    26  H    0.250815
    27  H    0.499130
 Sum of Mulliken charges =   1.00000
 Mulliken charges with hydrogens summed into heavy atoms:
               1
     1  C    0.150084
     2  C    0.048090
     3  C   -0.574424
     4  C    0.018498
     5  C    0.467492
     6  C   -0.428277
    11  O   -0.437635
    12  C    0.334799
    16  C    0.849331
    17  C    0.312218
    18  N    0.107863
    19  C    0.211476
    20  C   -0.059514
 APT charges:
               1
     1  C    1.323630
     2  C   -0.509920
     3  C    0.377566
     4  C   -0.891156
     5  C    0.280445
     6  C   -0.471825
     7  H    0.096573
     8  H    0.113687
     9  H    0.099994
    10  H    0.083096
    11  O   -1.501309
    12  C    0.664062
    13  H   -0.018795
    14  H   -0.019185
    15  H    0.012781
    16  C    1.567884
    17  C   -0.086921
    18  N   -1.009151
    19  C    0.411887
    20  C    0.062157
    21  H    0.052993
    22  H    0.030945
    23  H   -0.032000
    24  H    0.003468
    25  H   -0.004252
    26  H    0.017190
    27  H    0.346155
 Sum of APT charges =   1.00000
 APT charges with hydrogens summed into heavy atoms:
               1
     1  C    1.323630
     2  C   -0.396233
     3  C    0.477560
     4  C   -0.891156
     5  C    0.363542
     6  C   -0.375251
    11  O   -1.501309
    12  C    0.638863
    16  C    1.567884
    17  C   -0.002983
    18  N   -0.662996
    19  C    0.383356
    20  C    0.075094
 Electronic spatial extent (au):  <R**2>=           3367.7346
 Charge=              1.0000 electrons
 Dipole moment (field-independent basis, Debye):
    X=              7.2507    Y=             -0.4034    Z=              0.3621  Tot=              7.2709
 Quadrupole moment (field-independent basis, Debye-Ang):
   XX=            -25.3626   YY=            -58.9069   ZZ=            -77.6172
   XY=             12.4074   XZ=              0.8388   YZ=             -0.2599
 Traceless Quadrupole moment (field-independent basis, Debye-Ang):
   XX=             28.5996   YY=             -4.9447   ZZ=            -23.6550
   XY=             12.4074   XZ=              0.8388   YZ=             -0.2599
 Octapole moment (field-independent basis, Debye-Ang**2):
  XXX=             42.2055  YYY=             14.6230  ZZZ=              0.7598  XYY=             14.2017
  XXY=            -23.5406  XXZ=              3.6761  XZZ=              8.1475  YZZ=             -2.4963
  YYZ=              0.0898  XYZ=             -0.2517
 Hexadecapole moment (field-independent basis, Debye-Ang**3):
 XXXX=          -2834.9667 YYYY=           -473.3465 ZZZZ=           -114.4443 XXXY=            207.4274
 XXXZ=             11.1948 YYYX=             30.0273 YYYZ=             -1.7515 ZZZX=              2.0338
 ZZZY=              0.6284 XXYY=           -633.7838 XXZZ=           -632.2643 YYZZ=           -114.2507
 XXYZ=             -4.1520 YYXZ=              1.5151 ZZXY=              3.6720
 N-N= 7.578698508876D+02 E-N=-2.793433690746D+03  KE= 5.519731565293D+02
  Exact polarizability:     290.853      12.447     182.828       1.894      -1.726     115.078
 Approx polarizability:     213.835       8.772     158.572       1.404      -1.774     102.178
 No NMR shielding tensors so no spin-rotation constants.
 Leave Link  601 at Tue Jul  7 16:49:56 2026, MaxMem=  4026531840 cpu:               0.6 elap:               0.1
 (Enter /opt/packages/gaussian/g16RevC.01/g16/l701.exe)
 ... and contract with generalized density number  0.
 Compute integral second derivatives.
 D2PCM: PCM CHGder 2nd derivatives, FixD1E=F FixD2E=F DoIter=F DoCFld=F I1PDM=0
 GePol: Maximum number of non-zero 2nd derivatives   =     257
 Leave Link  701 at Tue Jul  7 16:50:03 2026, MaxMem=  4026531840 cpu:              54.0 elap:               6.8
 (Enter /opt/packages/gaussian/g16RevC.01/g16/l702.exe)
 L702 exits ... SP integral derivatives will be done elsewhere.
 Leave Link  702 at Tue Jul  7 16:50:03 2026, MaxMem=  4026531840 cpu:               0.1 elap:               0.0
 (Enter /opt/packages/gaussian/g16RevC.01/g16/l703.exe)
 Integral derivatives from FoFJK, PRISM(SPDF).
 Compute integral second derivatives, UseDBF=F ICtDFT=           0.
 Calling FoFJK, ICntrl=    100127 FMM=F ISym2X=0 I1Cent= 0 IOpClX= 0 NMat=1 NMatS=1 NMatT=0.
 FoFJK:  IHMeth= 1 ICntrl=  100127 DoSepK=T KAlg= 0 I1Cent=           0 FoldK=F
 IRaf=         1 NMat=       1 IRICut=       1 DoRegI=T DoRafI=F ISym2E= 0 IDoP0=0 IntGTp=1.
 FoFCou: FMM=F IPFlag=           0 FMFlag=      100000 FMFlg1=         800
         NFxFlg=           0 DoJE=F BraDBF=F KetDBF=F FulRan=T
         wScrn=  0.000000 ICntrl=    100527 IOpCl=  0 I1Cent=           0 NGrid=           0
         NMat0=    1 NMatS0=      1 NMatT0=    0 NMatD0=    1 NMtDS0=    0 NMtDT0=    0
 Symmetry not used in FoFCou.
 Leave Link  703 at Tue Jul  7 16:51:31 2026, MaxMem=  4026531840 cpu:             704.2 elap:              88.3
 (Enter /opt/packages/gaussian/g16RevC.01/g16/l716.exe)
 Dipole        = 2.85262701D+00-1.58709105D-01 1.42474602D-01
 Polarizability= 2.90852757D+02 1.24465344D+01 1.82828480D+02
                 1.89408873D+00-1.72584609D+00 1.15078106D+02
 Full mass-weighted force constant matrix:
 Low frequencies ---  -19.4832  -15.2659   -6.6812   -0.0010   -0.0008   -0.0008
 Low frequencies ---   54.6626   64.0424  112.8459
 Diagonal vibrational polarizability:
       68.9338711       7.4288814      80.1158700
 Harmonic frequencies (cm**-1), IR intensities (KM/Mole), Raman scattering
 activities (A**4/AMU), depolarization ratios for plane and unpolarized
 incident light, reduced masses (AMU), force constants (mDyne/A),
 and normal coordinates:
                      1                      2                      3
                      A                      A                      A
 Frequencies --     53.7149                63.3635               112.8160
 Red. masses --      3.6619                 3.0193                 3.2888
 Frc consts  --      0.0062                 0.0071                 0.0247
 IR Inten    --      2.3010                 4.1847                 4.4545
  Atom  AN      X      Y      Z        X      Y      Z        X      Y      Z
     1   6     0.00  -0.00  -0.05     0.00   0.00  -0.04    -0.00   0.01   0.11
     2   6     0.00  -0.01  -0.15    -0.00   0.00   0.11     0.00   0.02   0.15
     3   6     0.00  -0.01  -0.20    -0.00  -0.00   0.12     0.00   0.02   0.03
     4   6     0.00  -0.01  -0.15    -0.00  -0.01   0.03    -0.00   0.02  -0.11
     5   6     0.00  -0.00  -0.10     0.01  -0.01  -0.10    -0.01   0.01  -0.14
     6   6    -0.00  -0.00  -0.06     0.01  -0.01  -0.15    -0.01   0.01  -0.03
     7   1    -0.00  -0.00  -0.00     0.01  -0.01  -0.26    -0.01   0.01  -0.06
     8   1     0.00  -0.01  -0.17    -0.01   0.01   0.19     0.01   0.02   0.26
     9   1     0.00  -0.01  -0.25    -0.00  -0.00   0.23     0.01   0.02   0.07
    10   1     0.00  -0.00  -0.08     0.02  -0.02  -0.19    -0.00   0.01  -0.27
    11   8    -0.00   0.00   0.07     0.00   0.00  -0.08    -0.01  -0.00   0.20
    12   6    -0.01   0.02   0.28     0.00   0.01   0.08     0.02  -0.03  -0.17
    13   1     0.14   0.07   0.28     0.01   0.13   0.16    -0.11  -0.24  -0.28
    14   1    -0.17  -0.04   0.28    -0.01  -0.11   0.16     0.18   0.17  -0.29
    15   1    -0.01   0.03   0.43     0.00   0.01   0.03     0.01  -0.06  -0.24
    16   6    -0.00  -0.00  -0.07    -0.00  -0.01   0.04    -0.00   0.01  -0.11
    17   6    -0.00  -0.00  -0.03     0.01  -0.01  -0.15    -0.03  -0.01  -0.12
    18   7    -0.00   0.00   0.03    -0.01  -0.00   0.19     0.01  -0.00  -0.03
    19   6    -0.01   0.00   0.17    -0.01  -0.01   0.11    -0.01  -0.01   0.10
    20   6     0.03   0.01   0.14    -0.01   0.05  -0.16     0.02  -0.02   0.10
    21   1     0.07   0.02  -0.10    -0.02   0.07  -0.23     0.03   0.07  -0.25
    22   1    -0.12  -0.04  -0.06     0.06  -0.14  -0.20    -0.17  -0.11  -0.18
    23   1    -0.12  -0.01   0.21     0.00  -0.20   0.14    -0.10  -0.01   0.13
    24   1     0.06   0.02   0.23    -0.01   0.11   0.21     0.07  -0.02   0.16
    25   1     0.16   0.02   0.17    -0.08   0.25  -0.20     0.19  -0.02   0.13
    26   1    -0.03   0.00   0.22     0.03  -0.05  -0.31    -0.07  -0.02   0.22
    27   1    -0.01  -0.00   0.02    -0.02  -0.01   0.32     0.01  -0.00  -0.00
                      4                      5                      6
                      A                      A                      A
 Frequencies --    131.3249               151.0682               199.7663
 Red. masses --      3.9033                 1.9608                 2.4015
 Frc consts  --      0.0397                 0.0264                 0.0565
 IR Inten    --      1.8580                 0.2486                 3.9220
  Atom  AN      X      Y      Z        X      Y      Z        X      Y      Z
     1   6     0.01  -0.02   0.02     0.00   0.00   0.01    -0.00   0.00  -0.04
     2   6    -0.05  -0.06   0.01     0.01   0.00  -0.04     0.00   0.00  -0.09
     3   6    -0.05  -0.13  -0.00     0.01   0.01  -0.05     0.00   0.01  -0.02
     4   6     0.00  -0.16  -0.01     0.00   0.01  -0.05    -0.00   0.01   0.05
     5   6     0.05  -0.14  -0.03    -0.00   0.01  -0.07    -0.00   0.01  -0.06
     6   6     0.06  -0.07  -0.01    -0.00   0.01  -0.04    -0.00   0.00  -0.11
     7   1     0.11  -0.04  -0.02    -0.00   0.00  -0.04    -0.00   0.00  -0.16
     8   1    -0.11  -0.03   0.01     0.01   0.00  -0.03     0.00   0.00  -0.12
     9   1    -0.09  -0.16  -0.01     0.01   0.01  -0.06     0.00   0.01  -0.00
    10   1     0.09  -0.16  -0.07    -0.00   0.01  -0.09     0.00   0.01  -0.09
    11   8     0.02   0.10   0.06     0.00  -0.01   0.11    -0.00  -0.00   0.13
    12   6    -0.11   0.20  -0.05     0.02  -0.02  -0.03     0.01  -0.02  -0.01
    13   1    -0.19   0.09  -0.10     0.04  -0.15  -0.11     0.17  -0.25  -0.19
    14   1    -0.17   0.26  -0.11     0.01   0.11  -0.12    -0.13   0.21  -0.21
    15   1    -0.06   0.32  -0.03     0.01  -0.03   0.04     0.00  -0.02   0.27
    16   6     0.01  -0.10   0.00    -0.00   0.01   0.02    -0.00   0.00   0.11
    17   6     0.15  -0.01   0.03     0.01   0.02   0.16    -0.02  -0.01   0.01
    18   7    -0.10  -0.01  -0.00     0.01   0.00   0.00    -0.00  -0.00   0.18
    19   6    -0.06   0.15  -0.01     0.00  -0.05   0.07     0.02   0.02  -0.15
    20   6     0.10   0.15  -0.01    -0.06   0.01  -0.13    -0.01  -0.03   0.02
    21   1     0.21  -0.09   0.08    -0.06  -0.15   0.39    -0.04   0.06  -0.06
    22   1     0.21   0.02   0.05     0.18   0.26   0.28    -0.03  -0.10  -0.03
    23   1    -0.08   0.19  -0.01    -0.08  -0.22   0.13     0.31   0.17  -0.29
    24   1    -0.14   0.22  -0.02     0.08   0.03   0.20    -0.20  -0.05  -0.40
    25   1     0.08   0.17  -0.01    -0.34   0.17  -0.21     0.05  -0.17   0.05
    26   1     0.18   0.23  -0.03     0.08  -0.08  -0.40    -0.04   0.04   0.12
    27   1    -0.19  -0.04  -0.01     0.03   0.01  -0.06    -0.00  -0.00   0.22
                      7                      8                      9
                      A                      A                      A
 Frequencies --    248.4089               255.4562               306.2107
 Red. masses --      1.9526                 1.6724                 5.5430
 Frc consts  --      0.0710                 0.0643                 0.3062
 IR Inten    --      0.7264                 1.1653                28.0857
  Atom  AN      X      Y      Z        X      Y      Z        X      Y      Z
     1   6     0.02   0.08   0.02     0.02   0.06  -0.02     0.19  -0.12   0.00
     2   6    -0.03   0.05  -0.01    -0.02   0.04   0.01     0.13  -0.15  -0.01
     3   6    -0.04  -0.02  -0.06    -0.03  -0.01   0.05     0.12  -0.08   0.00
     4   6    -0.02  -0.04  -0.04    -0.02  -0.03   0.04    -0.02   0.00   0.01
     5   6     0.04  -0.01  -0.02     0.03  -0.01   0.03     0.05   0.01   0.00
     6   6     0.04   0.06   0.01     0.03   0.04  -0.00     0.09  -0.07  -0.00
     7   1     0.08   0.08   0.03     0.06   0.06  -0.01    -0.02  -0.13  -0.00
     8   1    -0.06   0.08   0.00    -0.05   0.06  -0.01     0.12  -0.14  -0.02
     9   1    -0.08  -0.03  -0.08    -0.05  -0.02   0.08     0.21  -0.03   0.01
    10   1     0.08  -0.03  -0.03     0.06  -0.03   0.03     0.06  -0.00  -0.01
    11   8     0.01   0.03   0.02     0.02   0.02  -0.04     0.23   0.00   0.01
    12   6     0.16  -0.08   0.01     0.13  -0.06   0.01     0.08   0.15  -0.01
    13   1    -0.06   0.18   0.22     0.54  -0.29  -0.21    -0.05   0.14   0.01
    14   1     0.55  -0.28   0.24    -0.16   0.20  -0.24     0.03   0.10   0.02
    15   1     0.11  -0.24  -0.45     0.08  -0.15   0.53     0.14   0.30  -0.07
    16   6    -0.04  -0.06   0.01    -0.03  -0.04  -0.01    -0.10   0.08   0.01
    17   6    -0.00  -0.03   0.03    -0.00  -0.03  -0.02    -0.24   0.06  -0.01
    18   7    -0.08  -0.03   0.06    -0.06  -0.02  -0.07    -0.12   0.08  -0.01
    19   6    -0.06   0.03  -0.03    -0.06   0.02   0.03    -0.16   0.01  -0.01
    20   6    -0.02   0.02   0.00    -0.01   0.02   0.00    -0.24  -0.01   0.02
    21   1     0.02  -0.07   0.05     0.02  -0.02  -0.04    -0.26   0.13  -0.07
    22   1     0.02  -0.01   0.04    -0.00  -0.05  -0.03    -0.30   0.01  -0.04
    23   1     0.01   0.08  -0.07    -0.16  -0.00   0.07    -0.14   0.01  -0.01
    24   1    -0.15   0.04  -0.10    -0.01   0.04   0.10    -0.11  -0.05  -0.02
    25   1    -0.03   0.00   0.00     0.00   0.06   0.00    -0.23  -0.03   0.03
    26   1     0.01   0.06   0.01     0.00   0.04   0.00    -0.26  -0.03   0.03
    27   1    -0.11  -0.04   0.07    -0.08  -0.03  -0.07    -0.10   0.09   0.00
                     10                     11                     12
                      A                      A                      A
 Frequencies --    321.7190               424.5502               429.8661
 Red. masses --      3.6552                 3.0402                 4.1272
 Frc consts  --      0.2229                 0.3229                 0.4493
 IR Inten    --      4.3313                 0.1353                 2.8717
  Atom  AN      X      Y      Z        X      Y      Z        X      Y      Z
     1   6    -0.01   0.00  -0.11     0.01  -0.00   0.01     0.06  -0.02  -0.00
     2   6    -0.01   0.00  -0.17     0.03   0.00  -0.20     0.10   0.03   0.08
     3   6    -0.01   0.00   0.08     0.03   0.05   0.19     0.09   0.15  -0.08
     4   6    -0.00   0.00   0.25     0.01   0.05   0.01     0.01   0.15  -0.00
     5   6    -0.00  -0.00   0.09     0.00   0.05  -0.20    -0.00   0.19   0.08
     6   6     0.00  -0.00  -0.19    -0.01   0.03   0.21    -0.01   0.05  -0.09
     7   1     0.01  -0.00  -0.30    -0.03   0.02   0.37    -0.11   0.00  -0.16
     8   1    -0.01  -0.00  -0.25     0.05  -0.01  -0.39     0.15   0.00   0.16
     9   1    -0.01   0.00   0.12     0.06   0.08   0.46     0.20   0.20  -0.20
    10   1    -0.00   0.00   0.14    -0.01   0.05  -0.49    -0.07   0.24   0.19
    11   8    -0.01   0.01   0.17     0.01  -0.03  -0.01     0.05  -0.10   0.01
    12   6     0.00  -0.01   0.01    -0.04  -0.00   0.00    -0.10   0.00  -0.00
    13   1    -0.25   0.08   0.11    -0.09   0.03   0.03    -0.20  -0.04  -0.01
    14   1     0.28  -0.08   0.12    -0.05  -0.05   0.03    -0.20  -0.01  -0.02
    15   1     0.00  -0.03  -0.34    -0.02   0.05  -0.05    -0.04   0.18   0.00
    16   6     0.00  -0.00   0.08    -0.01  -0.05   0.02    -0.04  -0.17  -0.00
    17   6     0.01  -0.01  -0.06     0.02  -0.05  -0.00     0.07  -0.17   0.02
    18   7     0.00   0.00  -0.17    -0.03  -0.04  -0.01    -0.11  -0.14  -0.00
    19   6    -0.01  -0.01   0.05    -0.04   0.01   0.00    -0.12   0.03  -0.01
    20   6     0.02   0.01  -0.00     0.01   0.01  -0.00     0.04   0.03  -0.00
    21   1    -0.01   0.12  -0.19     0.04  -0.03  -0.04     0.17  -0.23   0.03
    22   1    -0.00  -0.19  -0.13     0.05  -0.11  -0.02     0.14  -0.16   0.03
    23   1    -0.22  -0.07   0.14    -0.06   0.01   0.01    -0.13   0.08  -0.01
    24   1     0.15   0.02   0.21    -0.04   0.03   0.02    -0.20   0.09  -0.01
    25   1     0.06   0.06  -0.00     0.01   0.03  -0.01     0.03   0.06  -0.01
    26   1     0.01  -0.00  -0.00     0.04   0.03  -0.01     0.12   0.12  -0.03
    27   1     0.01   0.00  -0.20    -0.07  -0.05  -0.03    -0.22  -0.18  -0.01
                     13                     14                     15
                      A                      A                      A
 Frequencies --    498.5109               511.9800               565.2572
 Red. masses --      3.8357                 2.5735                 1.8202
 Frc consts  --      0.5616                 0.3974                 0.3427
 IR Inten    --      8.0697                26.3701                 1.1745
  Atom  AN      X      Y      Z        X      Y      Z        X      Y      Z
     1   6    -0.03  -0.14  -0.05    -0.02  -0.02   0.20     0.02   0.01   0.13
     2   6    -0.05  -0.16  -0.01    -0.01  -0.03   0.04    -0.00  -0.00  -0.03
     3   6    -0.03   0.05   0.05    -0.00   0.01  -0.14    -0.01  -0.01  -0.00
     4   6    -0.07   0.09  -0.03    -0.01   0.02   0.11    -0.03   0.00   0.15
     5   6    -0.16   0.08   0.02    -0.03   0.01  -0.11    -0.00   0.01  -0.01
     6   6    -0.15  -0.12  -0.00    -0.03  -0.03   0.03    -0.00   0.03  -0.02
     7   1    -0.33  -0.21   0.07    -0.06  -0.06  -0.23    -0.01   0.01  -0.32
     8   1     0.06  -0.22   0.05     0.02  -0.06  -0.19    -0.03   0.01  -0.31
     9   1     0.09   0.11   0.14     0.02   0.01  -0.45    -0.01  -0.02  -0.24
    10   1    -0.27   0.15   0.10    -0.06   0.02  -0.38     0.03  -0.01  -0.28
    11   8     0.03   0.16   0.02    -0.00   0.04  -0.07     0.02  -0.02  -0.03
    12   6     0.21   0.12   0.00     0.04   0.02  -0.01    -0.00  -0.00  -0.00
    13   1     0.32   0.13  -0.01     0.12   0.05  -0.00    -0.02   0.01   0.01
    14   1     0.34   0.15   0.01     0.03   0.01   0.00    -0.04  -0.02   0.01
    15   1     0.13  -0.09  -0.00     0.02  -0.03   0.04     0.01   0.04   0.00
    16   6    -0.03  -0.02  -0.06     0.01  -0.00   0.19    -0.02   0.01  -0.15
    17   6     0.07  -0.02  -0.00     0.01  -0.03   0.02     0.02   0.04  -0.04
    18   7     0.01  -0.05   0.03     0.01  -0.01  -0.06    -0.02   0.00   0.02
    19   6     0.03  -0.02  -0.00     0.02   0.01   0.01    -0.02  -0.03  -0.01
    20   6     0.09  -0.01  -0.01     0.01   0.01  -0.01     0.03  -0.03  -0.01
    21   1     0.12  -0.15   0.11    -0.03   0.22  -0.23     0.05  -0.24   0.25
    22   1     0.12   0.12   0.06     0.02  -0.38  -0.13     0.05   0.42   0.13
    23   1     0.03  -0.02  -0.00    -0.04  -0.00   0.02    -0.05  -0.07   0.01
    24   1    -0.01   0.02   0.00     0.05   0.01   0.04     0.01   0.00   0.04
    25   1     0.13  -0.03  -0.00    -0.05   0.06  -0.02     0.16  -0.11   0.03
    26   1     0.07   0.01   0.03     0.05   0.01  -0.07    -0.05  -0.00   0.14
    27   1     0.01  -0.05   0.09     0.01  -0.00  -0.32    -0.01   0.00   0.44
                     16                     17                     18
                      A                      A                      A
 Frequencies --    615.4500               651.1569               675.9457
 Red. masses --      4.9089                 6.8552                 2.1935
 Frc consts  --      1.0955                 1.7125                 0.5905
 IR Inten    --     36.0219                11.3019                17.6145
  Atom  AN      X      Y      Z        X      Y      Z        X      Y      Z
     1   6     0.13   0.07  -0.04    -0.05   0.09   0.01     0.02   0.01   0.04
     2   6    -0.04   0.01   0.02     0.33   0.18  -0.01    -0.03  -0.01  -0.02
     3   6    -0.09  -0.16  -0.02     0.33  -0.16   0.01    -0.04  -0.02   0.04
     4   6    -0.18  -0.05  -0.04     0.06  -0.08   0.01    -0.02  -0.01   0.01
     5   6    -0.17   0.03  -0.02    -0.27  -0.21   0.01    -0.04   0.01   0.03
     6   6    -0.14   0.24   0.01    -0.25   0.11  -0.01    -0.04   0.04  -0.02
     7   1    -0.22   0.20   0.12    -0.13   0.18  -0.05    -0.06   0.02  -0.16
     8   1    -0.29   0.16   0.12     0.32   0.19  -0.05    -0.07   0.02  -0.16
     9   1    -0.09  -0.16   0.06     0.23  -0.21  -0.00    -0.04  -0.03  -0.03
    10   1    -0.00  -0.07   0.07    -0.23  -0.24  -0.01    -0.02  -0.01  -0.04
    11   8     0.21  -0.16   0.01    -0.09   0.10  -0.01     0.04  -0.03  -0.00
    12   6     0.03   0.04  -0.00     0.03   0.06  -0.00     0.01   0.01  -0.00
    13   1    -0.16  -0.01   0.00     0.11   0.08  -0.00    -0.02   0.01   0.00
    14   1    -0.16  -0.01  -0.01     0.11   0.07   0.00    -0.02  -0.00   0.00
    15   1     0.14   0.33  -0.01    -0.03  -0.09   0.00     0.04   0.07  -0.00
    16   6    -0.09   0.05   0.11     0.04  -0.02  -0.03     0.01  -0.05  -0.12
    17   6     0.07   0.07   0.00     0.00  -0.06   0.00    -0.06  -0.07   0.02
    18   7     0.01  -0.01  -0.00    -0.03   0.00   0.01     0.09  -0.07  -0.00
    19   6     0.07  -0.06  -0.01    -0.06   0.00  -0.00     0.13   0.09   0.04
    20   6     0.12  -0.03  -0.04    -0.03  -0.01   0.01    -0.09   0.09   0.08
    21   1     0.02   0.13  -0.04     0.04  -0.07  -0.00     0.12  -0.05  -0.10
    22   1     0.17  -0.07  -0.04    -0.02  -0.04   0.01    -0.26  -0.10  -0.01
    23   1     0.03  -0.13   0.02    -0.05   0.02  -0.01     0.26   0.36  -0.05
    24   1     0.06   0.03   0.06    -0.05  -0.02  -0.01     0.02  -0.09  -0.21
    25   1     0.21  -0.10  -0.01    -0.06   0.01  -0.00    -0.42   0.38  -0.03
    26   1     0.05  -0.02   0.07     0.01   0.02  -0.02     0.08  -0.10  -0.34
    27   1     0.12   0.03  -0.25    -0.09  -0.02   0.05     0.03  -0.09   0.00
                     19                     20                     21
                      A                      A                      A
 Frequencies --    735.7737               775.5396               818.4626
 Red. masses --      2.0762                 1.8029                 5.5737
 Frc consts  --      0.6622                 0.6389                 2.1998
 IR Inten    --     69.3809               149.2837                21.3723
  Atom  AN      X      Y      Z        X      Y      Z        X      Y      Z
     1   6     0.00  -0.01  -0.16    -0.00   0.00   0.13    -0.05   0.00  -0.04
     2   6    -0.00   0.00   0.08    -0.01  -0.00  -0.05    -0.08   0.19   0.01
     3   6    -0.00  -0.00  -0.10    -0.01   0.01   0.04    -0.13   0.24  -0.00
     4   6     0.00   0.00   0.14     0.01  -0.00  -0.14     0.15  -0.01   0.03
     5   6    -0.01  -0.00  -0.11    -0.01  -0.00   0.04    -0.11  -0.21   0.01
     6   6    -0.01   0.01   0.07    -0.01   0.00  -0.06    -0.07  -0.14   0.02
     7   1    -0.02   0.01   0.38    -0.02  -0.00  -0.10     0.03  -0.10  -0.03
     8   1    -0.01   0.01   0.36    -0.01  -0.00  -0.11    -0.02   0.16  -0.07
     9   1    -0.01  -0.01  -0.15    -0.02   0.01   0.21    -0.37   0.13  -0.11
    10   1    -0.00  -0.01  -0.09    -0.01   0.00   0.24    -0.29  -0.10  -0.09
    11   8     0.01  -0.00   0.02     0.01  -0.01  -0.02     0.16  -0.16   0.01
    12   6     0.00   0.00   0.00     0.01   0.01  -0.00     0.11   0.09  -0.00
    13   1    -0.01  -0.01  -0.00     0.00   0.01   0.00    -0.07   0.04   0.00
    14   1     0.01   0.02  -0.00    -0.01  -0.00   0.00    -0.07   0.04  -0.01
    15   1     0.01   0.01   0.00     0.01   0.02   0.00     0.21   0.35  -0.01
    16   6     0.01  -0.01   0.03     0.02   0.00   0.10     0.15   0.02  -0.06
    17   6    -0.02  -0.02   0.00     0.01  -0.02   0.03     0.04  -0.13   0.01
    18   7     0.02  -0.01  -0.09     0.01   0.03  -0.10    -0.02   0.16   0.04
    19   6     0.03   0.02  -0.00    -0.00   0.00  -0.02    -0.09   0.01  -0.01
    20   6    -0.02   0.02   0.02    -0.00  -0.00   0.00    -0.04  -0.07  -0.00
    21   1     0.03  -0.04   0.00    -0.01   0.07  -0.06    -0.03  -0.07  -0.02
    22   1    -0.04   0.01   0.01    -0.00  -0.14  -0.02    -0.04  -0.13   0.01
    23   1    -0.04   0.07   0.01    -0.11  -0.03   0.02    -0.07  -0.08   0.00
    24   1     0.09  -0.03  -0.00     0.10  -0.01   0.05     0.01  -0.04   0.03
    25   1    -0.08   0.06   0.01    -0.04  -0.04   0.00    -0.06  -0.09  -0.00
    26   1     0.00  -0.00  -0.04     0.04   0.05  -0.01     0.08   0.09  -0.01
    27   1    -0.03  -0.04   0.75    -0.03   0.00   0.86    -0.11   0.14  -0.12
                     22                     23                     24
                      A                      A                      A
 Frequencies --    837.1085               842.6376               869.3264
 Red. masses --      1.2918                 2.2041                 1.7990
 Frc consts  --      0.5334                 0.9221                 0.8010
 IR Inten    --      6.4134                20.5733                71.7088
  Atom  AN      X      Y      Z        X      Y      Z        X      Y      Z
     1   6    -0.00   0.00   0.01     0.02  -0.00  -0.06     0.00   0.01   0.15
     2   6     0.00   0.01  -0.08    -0.02  -0.06   0.01    -0.00  -0.01  -0.10
     3   6    -0.00   0.01  -0.08     0.01  -0.06  -0.00    -0.00  -0.00  -0.05
     4   6     0.01   0.00   0.00    -0.02   0.00  -0.00    -0.00   0.00   0.10
     5   6    -0.01  -0.01   0.07     0.02   0.06   0.05     0.00   0.00  -0.07
     6   6    -0.00  -0.01   0.06     0.01   0.05   0.05     0.00  -0.00  -0.10
     7   1     0.01  -0.02  -0.47    -0.03   0.02  -0.32    -0.00   0.02   0.54
     8   1     0.00   0.03   0.62    -0.05  -0.04   0.07    -0.02   0.02   0.52
     9   1    -0.02   0.02   0.44     0.07  -0.03  -0.01     0.00   0.01   0.30
    10   1    -0.01  -0.02  -0.37     0.06   0.03  -0.30    -0.01   0.02   0.40
    11   8     0.01  -0.01  -0.01    -0.02   0.03   0.01     0.00  -0.00  -0.03
    12   6     0.00   0.01   0.00    -0.02  -0.02   0.00    -0.00  -0.00  -0.00
    13   1     0.00   0.00  -0.00     0.01  -0.01   0.00     0.01  -0.00  -0.01
    14   1    -0.01   0.00  -0.00     0.01  -0.01   0.00    -0.01  -0.00  -0.00
    15   1     0.01   0.02   0.02    -0.04  -0.06   0.00    -0.00  -0.00   0.02
    16   6     0.00  -0.01   0.02     0.02   0.07  -0.07     0.01   0.02  -0.05
    17   6    -0.02   0.00  -0.01     0.11  -0.06   0.06     0.04  -0.01  -0.02
    18   7     0.01  -0.02  -0.01    -0.06   0.14   0.01    -0.02   0.04   0.02
    19   6     0.02   0.02   0.00    -0.08  -0.08  -0.01    -0.03  -0.03   0.02
    20   6    -0.01   0.02  -0.01     0.05  -0.09   0.05     0.01  -0.03   0.02
    21   1    -0.05  -0.04   0.05     0.23   0.13  -0.22     0.07  -0.04  -0.00
    22   1     0.04   0.06   0.02    -0.18  -0.28  -0.07    -0.03   0.03  -0.00
    23   1     0.00   0.00   0.01    -0.02   0.03  -0.05     0.03   0.10  -0.03
    24   1     0.02   0.04   0.02    -0.04  -0.22  -0.10    -0.06  -0.13  -0.09
    25   1     0.06  -0.01   0.01    -0.31   0.09  -0.05    -0.09   0.10  -0.01
    26   1    -0.07   0.01   0.06     0.36  -0.05  -0.30     0.09  -0.08  -0.12
    27   1    -0.02  -0.03  -0.01     0.02   0.17   0.12     0.02   0.06  -0.13
                     25                     26                     27
                      A                      A                      A
 Frequencies --    890.7417               921.2140               958.1033
 Red. masses --      2.9865                 1.5332                 2.8893
 Frc consts  --      1.3961                 0.7666                 1.5627
 IR Inten    --      1.3549                 1.2053                 1.9692
  Atom  AN      X      Y      Z        X      Y      Z        X      Y      Z
     1   6    -0.02  -0.00  -0.01     0.00  -0.00  -0.02     0.01   0.00   0.00
     2   6     0.05   0.11   0.00    -0.01  -0.02   0.02     0.03   0.02   0.00
     3   6     0.00   0.09   0.00    -0.00  -0.01  -0.00     0.01   0.00  -0.00
     4   6    -0.03   0.00  -0.02     0.01  -0.00  -0.03    -0.03   0.00   0.00
     5   6    -0.00  -0.08   0.01    -0.00   0.02   0.00     0.01  -0.01   0.01
     6   6     0.03  -0.11   0.02    -0.01   0.02   0.01     0.02  -0.03  -0.01
     7   1     0.10  -0.07  -0.08    -0.02   0.01  -0.08     0.03  -0.02   0.05
     8   1     0.12   0.07  -0.04    -0.01  -0.02  -0.13     0.04   0.02  -0.01
     9   1    -0.01   0.09  -0.01    -0.01  -0.01   0.02    -0.00   0.00   0.01
    10   1    -0.02  -0.08  -0.03    -0.01   0.02  -0.01    -0.02   0.00  -0.02
    11   8     0.02  -0.03   0.00    -0.00   0.00   0.00    -0.00   0.01  -0.00
    12   6     0.02   0.02  -0.00    -0.00  -0.00   0.00    -0.01  -0.01   0.00
    13   1    -0.01   0.01   0.00     0.00  -0.00   0.00    -0.00  -0.00  -0.00
    14   1    -0.01   0.01  -0.00     0.00  -0.00   0.00    -0.00  -0.00   0.00
    15   1     0.04   0.06  -0.00    -0.01  -0.01  -0.00    -0.01  -0.01   0.00
    16   6    -0.11  -0.01   0.03     0.02   0.01   0.09    -0.04   0.00  -0.01
    17   6     0.05   0.25  -0.00     0.03  -0.05  -0.11    -0.14  -0.05   0.03
    18   7    -0.07  -0.13  -0.04    -0.02   0.07  -0.04    -0.10   0.04  -0.01
    19   6    -0.02  -0.12   0.03    -0.01   0.01   0.09     0.13   0.17   0.04
    20   6     0.10  -0.02   0.05    -0.04  -0.06   0.01     0.20  -0.19  -0.06
    21   1     0.10   0.32  -0.11    -0.13  -0.26   0.21    -0.36   0.02   0.07
    22   1    -0.10   0.13  -0.07     0.41   0.20   0.04    -0.30  -0.00   0.04
    23   1     0.07   0.28  -0.08     0.14   0.43  -0.05    -0.01   0.23   0.08
    24   1    -0.23  -0.24  -0.24    -0.09  -0.30  -0.25    -0.01   0.42   0.12
    25   1    -0.18   0.28  -0.05     0.15   0.25   0.00     0.02  -0.12  -0.11
    26   1     0.12  -0.32  -0.29    -0.18  -0.30  -0.04     0.22  -0.37  -0.24
    27   1     0.02  -0.11   0.13    -0.04   0.06  -0.04    -0.28  -0.00   0.03
                     28                     29                     30
                      A                      A                      A
 Frequencies --    998.3211              1007.7824              1009.9228
 Red. masses --      1.4312                 1.7723                 1.6497
 Frc consts  --      0.8404                 1.0605                 0.9913
 IR Inten    --      3.4017                10.9191                 5.7811
  Atom  AN      X      Y      Z        X      Y      Z        X      Y      Z
     1   6     0.00   0.00  -0.01     0.00  -0.00   0.00     0.00   0.00  -0.01
     2   6    -0.01  -0.01   0.08     0.02   0.04   0.07     0.02   0.04  -0.04
     3   6    -0.00  -0.01  -0.11     0.00   0.00  -0.10     0.00  -0.00   0.04
     4   6     0.01   0.01   0.04    -0.04  -0.00   0.01    -0.04  -0.00   0.01
     5   6     0.00  -0.01  -0.07     0.00   0.01   0.05     0.00   0.01  -0.11
     6   6    -0.00   0.01   0.06     0.02  -0.03  -0.05     0.02  -0.04   0.09
     7   1     0.01   0.00  -0.33     0.01  -0.03   0.28     0.01  -0.07  -0.51
     8   1    -0.00  -0.02  -0.42     0.02   0.02  -0.38    -0.00   0.07   0.18
     9   1    -0.01   0.02   0.63     0.04   0.04   0.55     0.02  -0.01  -0.22
    10   1     0.01  -0.00   0.44    -0.03   0.02  -0.28    -0.05   0.06   0.63
    11   8     0.00  -0.00   0.00     0.00   0.00  -0.00     0.00   0.01   0.00
    12   6     0.00  -0.00  -0.00    -0.00  -0.00  -0.00    -0.00  -0.01   0.00
    13   1     0.00   0.01   0.00     0.00   0.00   0.00    -0.01  -0.01  -0.00
    14   1    -0.00  -0.00   0.00    -0.01  -0.01   0.00    -0.00  -0.00  -0.00
    15   1     0.00   0.00  -0.00    -0.00  -0.00  -0.00    -0.00  -0.00   0.00
    16   6     0.01   0.02  -0.01    -0.04  -0.03  -0.01    -0.04  -0.02  -0.01
    17   6    -0.04  -0.02  -0.00     0.07   0.01   0.00     0.05  -0.01   0.00
    18   7     0.04  -0.02   0.01    -0.09   0.05   0.00    -0.07   0.04   0.00
    19   6    -0.06  -0.00  -0.01     0.14  -0.01  -0.02     0.11  -0.00  -0.01
    20   6     0.04   0.01   0.01    -0.07   0.01   0.01    -0.05   0.00   0.01
    21   1    -0.08  -0.02   0.03     0.25  -0.02  -0.07     0.19  -0.05  -0.04
    22   1    -0.11   0.06   0.02     0.09  -0.08  -0.03     0.09  -0.07  -0.02
    23   1    -0.05   0.02  -0.01     0.08  -0.16   0.03     0.08  -0.11   0.02
    24   1    -0.09   0.04   0.00     0.25  -0.06   0.04     0.19  -0.03   0.03
    25   1     0.00   0.06  -0.01    -0.10  -0.13   0.03    -0.05  -0.10   0.02
    26   1     0.15   0.09  -0.05    -0.18  -0.09   0.05    -0.14  -0.07   0.05
    27   1     0.14   0.01  -0.03    -0.26   0.00  -0.03    -0.17   0.02  -0.03
                     31                     32                     33
                      A                      A                      A
 Frequencies --   1021.5738              1035.5054              1068.4737
 Red. masses --      3.1234                 2.6132                 5.4893
 Frc consts  --      1.9205                 1.6510                 3.6923
 IR Inten    --      2.9453                 2.3059                97.9687
  Atom  AN      X      Y      Z        X      Y      Z        X      Y      Z
     1   6    -0.01  -0.01  -0.00    -0.03  -0.00   0.00     0.21   0.02   0.00
     2   6    -0.07  -0.15   0.01    -0.01   0.14  -0.00    -0.01   0.05   0.00
     3   6    -0.00   0.06  -0.01     0.02  -0.18  -0.00    -0.06   0.04  -0.01
     4   6     0.14  -0.03   0.02     0.05  -0.02   0.00     0.02   0.01   0.00
     5   6    -0.01  -0.02  -0.03     0.05   0.20  -0.00    -0.11  -0.05   0.00
     6   6    -0.06   0.18   0.01    -0.02  -0.12   0.00    -0.02  -0.08   0.00
     7   1    -0.01   0.21  -0.11    -0.36  -0.30   0.02    -0.34  -0.26   0.02
     8   1     0.05  -0.23  -0.01    -0.27   0.31  -0.04    -0.22   0.19  -0.02
     9   1     0.05   0.08   0.05    -0.27  -0.33   0.05    -0.15  -0.00   0.02
    10   1    -0.01  -0.00   0.16    -0.21   0.37  -0.03    -0.28   0.05  -0.03
    11   8    -0.01  -0.02   0.00    -0.02  -0.04   0.00     0.20   0.29  -0.01
    12   6     0.01   0.02  -0.00     0.05   0.04  -0.00    -0.22  -0.31   0.01
    13   1     0.03   0.02  -0.00    -0.00   0.03  -0.00    -0.14  -0.21   0.03
    14   1     0.03   0.02   0.00    -0.00   0.02   0.00    -0.14  -0.22  -0.02
    15   1    -0.00  -0.01  -0.00     0.05   0.06  -0.00    -0.17  -0.18   0.00
    16   6     0.15  -0.12  -0.02     0.08  -0.04  -0.01     0.05  -0.01  -0.01
    17   6     0.09   0.18   0.01     0.03   0.06   0.00     0.04   0.03   0.01
    18   7    -0.03  -0.04   0.01     0.03  -0.02   0.00     0.05  -0.03   0.00
    19   6    -0.02   0.08   0.00    -0.06   0.04   0.00    -0.05   0.04   0.01
    20   6    -0.08  -0.11  -0.00    -0.03  -0.05  -0.00    -0.03  -0.04  -0.01
    21   1     0.00   0.34  -0.11    -0.07   0.15  -0.03    -0.00   0.10  -0.04
    22   1    -0.08   0.06  -0.06    -0.04   0.04  -0.02     0.03  -0.02  -0.02
    23   1    -0.10   0.04   0.04    -0.07   0.05   0.01    -0.06   0.06   0.01
    24   1    -0.06   0.19   0.07    -0.08   0.09   0.02    -0.10   0.10   0.02
    25   1    -0.23  -0.25  -0.01    -0.08  -0.08  -0.01    -0.06  -0.08  -0.00
    26   1    -0.29  -0.38  -0.01    -0.07  -0.11  -0.01    -0.09  -0.10   0.01
    27   1    -0.31  -0.13  -0.01    -0.05  -0.05   0.01     0.01  -0.04   0.03
                     34                     35                     36
                      A                      A                      A
 Frequencies --   1093.7100              1112.8368              1165.7455
 Red. masses --      1.8961                 1.7724                 1.2904
 Frc consts  --      1.3364                 1.2933                 1.0332
 IR Inten    --     18.2574                 3.9394                19.9191
  Atom  AN      X      Y      Z        X      Y      Z        X      Y      Z
     1   6    -0.01   0.01   0.00    -0.00  -0.00   0.00    -0.02   0.04  -0.00
     2   6     0.02   0.02   0.00    -0.00  -0.01   0.00    -0.06  -0.04   0.00
     3   6     0.00   0.00  -0.01     0.00  -0.00  -0.01     0.06  -0.05   0.00
     4   6    -0.09   0.03   0.01     0.03  -0.01   0.03     0.02   0.06  -0.00
     5   6     0.00  -0.04   0.00     0.00   0.01  -0.00    -0.06  -0.01   0.00
     6   6     0.03  -0.04  -0.00    -0.01   0.01  -0.00     0.05  -0.04   0.00
     7   1     0.14   0.02   0.01    -0.02   0.00  -0.01     0.55   0.22   0.00
     8   1     0.02   0.02  -0.01     0.01  -0.01  -0.01    -0.41   0.17  -0.01
     9   1     0.13   0.07   0.04    -0.05  -0.02   0.06     0.35   0.09  -0.01
    10   1     0.15  -0.13  -0.01    -0.04   0.04   0.03    -0.44   0.21  -0.02
    11   8    -0.02  -0.02   0.00     0.00   0.00  -0.00     0.00   0.00   0.00
    12   6     0.02   0.02  -0.00    -0.00  -0.00  -0.00     0.02  -0.02   0.00
    13   1     0.00   0.01  -0.00     0.00   0.00   0.00    -0.08  -0.02   0.02
    14   1    -0.00   0.01   0.00     0.00  -0.00   0.00    -0.08  -0.02  -0.02
    15   1     0.02   0.02  -0.00    -0.00  -0.00   0.00     0.07   0.11  -0.00
    16   6    -0.07   0.08  -0.05     0.01  -0.02  -0.10     0.01   0.01   0.01
    17   6     0.09  -0.03   0.05    -0.03   0.00   0.14    -0.01   0.00   0.00
    18   7     0.09  -0.04  -0.01    -0.03   0.01  -0.03     0.00  -0.01  -0.00
    19   6    -0.05   0.10   0.03     0.02  -0.05   0.11    -0.01  -0.01   0.00
    20   6    -0.07  -0.08  -0.04     0.01   0.05  -0.13     0.01  -0.00  -0.00
    21   1     0.25   0.04  -0.11    -0.27   0.34  -0.09     0.04  -0.01  -0.01
    22   1     0.29  -0.29  -0.04     0.12  -0.36  -0.01    -0.01   0.02   0.01
    23   1    -0.06   0.21   0.02     0.33   0.14  -0.04     0.01  -0.00  -0.00
    24   1    -0.26   0.33   0.05    -0.17  -0.25  -0.22    -0.01  -0.01  -0.01
    25   1    -0.02  -0.21  -0.01     0.42  -0.01  -0.04     0.01   0.01  -0.00
    26   1    -0.30  -0.27   0.07    -0.17   0.16   0.21     0.01   0.01   0.00
    27   1     0.38   0.05   0.08    -0.12  -0.02   0.11    -0.11  -0.05   0.00
                     37                     38                     39
                      A                      A                      A
 Frequencies --   1189.5205              1212.6076              1217.9775
 Red. masses --      1.2697                 1.2339                 1.2659
 Frc consts  --      1.0585                 1.0690                 1.1064
 IR Inten    --      1.4697               466.6174                45.2015
  Atom  AN      X      Y      Z        X      Y      Z        X      Y      Z
     1   6     0.00   0.00   0.00    -0.07  -0.00  -0.00    -0.02   0.00  -0.00
     2   6     0.00  -0.00   0.00     0.04  -0.01   0.00     0.01  -0.00   0.00
     3   6     0.00   0.00   0.00    -0.04  -0.03   0.00    -0.01  -0.00   0.00
     4   6    -0.00  -0.00   0.00     0.02  -0.01   0.00     0.01  -0.01  -0.01
     5   6     0.00  -0.00  -0.00    -0.02   0.05  -0.00     0.00   0.01  -0.00
     6   6    -0.00  -0.00  -0.00     0.02   0.01  -0.00    -0.00   0.00   0.00
     7   1    -0.01  -0.00   0.01     0.39   0.20  -0.00     0.03   0.02   0.00
     8   1    -0.00   0.00   0.02     0.50  -0.29   0.02     0.10  -0.06   0.00
     9   1     0.00   0.00  -0.01    -0.47  -0.25   0.01    -0.07  -0.04  -0.00
    10   1     0.00  -0.00   0.01    -0.28   0.21  -0.02    -0.03   0.03  -0.01
    11   8    -0.00   0.00   0.06     0.04   0.02   0.00     0.01   0.01  -0.00
    12   6     0.00  -0.00  -0.14    -0.01  -0.03  -0.00     0.00  -0.01   0.00
    13   1     0.33   0.55   0.16    -0.02  -0.00   0.02    -0.03  -0.01   0.01
    14   1    -0.34  -0.55   0.18    -0.02  -0.01  -0.01    -0.03  -0.01  -0.01
    15   1     0.00   0.01   0.30     0.05   0.11  -0.00     0.03   0.06  -0.00
    16   6     0.00  -0.00   0.00    -0.04   0.01  -0.01    -0.01   0.00   0.06
    17   6    -0.00   0.00  -0.00    -0.00  -0.00   0.00     0.02  -0.00  -0.03
    18   7    -0.00   0.00  -0.00     0.01  -0.00   0.01     0.00   0.01  -0.06
    19   6     0.00  -0.00  -0.00    -0.00   0.00  -0.02     0.00   0.00   0.10
    20   6     0.00   0.00   0.00     0.00  -0.00   0.02    -0.01  -0.01  -0.05
    21   1    -0.00   0.00   0.00    -0.01   0.01   0.00     0.31  -0.18  -0.01
    22   1    -0.00   0.00   0.00     0.14  -0.08  -0.02    -0.40   0.20   0.01
    23   1    -0.00  -0.00   0.00    -0.04  -0.03  -0.00     0.46  -0.11  -0.03
    24   1     0.00  -0.00   0.00     0.03   0.04   0.03    -0.38   0.12  -0.10
    25   1     0.00   0.00   0.00    -0.00   0.06   0.01    -0.16  -0.38  -0.02
    26   1     0.00  -0.00  -0.00    -0.02  -0.08  -0.03     0.09   0.23   0.06
    27   1     0.00   0.00  -0.00     0.03   0.00   0.02     0.00   0.01  -0.02
                     40                     41                     42
                      A                      A                      A
 Frequencies --   1223.6769              1243.9532              1266.2699
 Red. masses --      1.3554                 1.4296                 1.1653
 Frc consts  --      1.1958                 1.3034                 1.1009
 IR Inten    --      1.4952                55.6781                 5.9915
  Atom  AN      X      Y      Z        X      Y      Z        X      Y      Z
     1   6    -0.06   0.03  -0.00     0.01   0.00  -0.00     0.01  -0.00   0.00
     2   6    -0.01  -0.02   0.00     0.03   0.01  -0.00    -0.00  -0.00  -0.00
     3   6     0.02  -0.01   0.00    -0.02   0.00   0.00     0.01   0.00  -0.00
     4   6     0.01   0.00   0.00    -0.10   0.01  -0.00    -0.00   0.00   0.01
     5   6     0.03  -0.00  -0.00    -0.01   0.00  -0.00     0.00  -0.00  -0.00
     6   6    -0.03  -0.00   0.00     0.02  -0.02   0.00     0.00  -0.00  -0.00
     7   1    -0.20  -0.09  -0.00     0.13   0.04  -0.00    -0.02  -0.01  -0.00
     8   1     0.07  -0.08   0.01     0.12  -0.04   0.00    -0.05   0.03  -0.00
     9   1     0.11   0.04  -0.00     0.04   0.03  -0.01     0.04   0.02  -0.01
    10   1     0.18  -0.09   0.01     0.03  -0.03   0.01     0.02  -0.02   0.00
    11   8    -0.03   0.06  -0.00    -0.01   0.00  -0.00    -0.01  -0.00  -0.00
    12   6     0.10  -0.09   0.01     0.01  -0.00   0.00     0.01   0.00   0.00
    13   1    -0.40  -0.10   0.09    -0.04  -0.01   0.00    -0.01  -0.00   0.00
    14   1    -0.39  -0.09  -0.09    -0.04  -0.01  -0.00    -0.01  -0.00  -0.00
    15   1     0.37   0.60  -0.02     0.03   0.05  -0.00     0.01   0.01  -0.00
    16   6     0.00  -0.00  -0.00     0.02  -0.02  -0.01     0.00   0.00  -0.03
    17   6    -0.01  -0.00   0.01     0.07   0.02  -0.03    -0.00   0.00  -0.04
    18   7    -0.01   0.00   0.00     0.03  -0.03   0.02    -0.01   0.00  -0.03
    19   6     0.00  -0.00  -0.01    -0.00   0.06   0.04     0.02  -0.01   0.00
    20   6     0.01   0.01   0.00    -0.07  -0.08  -0.02    -0.01  -0.01   0.10
    21   1    -0.00   0.00  -0.00    -0.35   0.19   0.03    -0.37   0.12   0.05
    22   1     0.01  -0.01   0.00     0.04   0.09  -0.01     0.50  -0.09  -0.03
    23   1    -0.04   0.01   0.00    -0.10   0.21   0.05     0.36  -0.38  -0.04
    24   1     0.02  -0.01   0.01     0.30  -0.31  -0.04    -0.30   0.31   0.02
    25   1     0.03   0.04   0.00    -0.13  -0.23  -0.01    -0.21   0.05   0.05
    26   1    -0.03  -0.05  -0.00     0.37   0.53   0.02     0.20   0.10  -0.07
    27   1     0.02   0.01  -0.00    -0.13  -0.08  -0.02    -0.04  -0.01   0.04
                     43                     44                     45
                      A                      A                      A
 Frequencies --   1312.1874              1320.4732              1356.8771
 Red. masses --      2.6114                 1.9757                 1.4857
 Frc consts  --      2.6492                 2.0297                 1.6116
 IR Inten    --    782.8214               109.8464                35.9897
  Atom  AN      X      Y      Z        X      Y      Z        X      Y      Z
     1   6     0.21   0.03   0.00     0.14   0.05  -0.00    -0.01   0.14  -0.00
     2   6     0.10  -0.03   0.00     0.03  -0.07   0.00    -0.00  -0.01   0.00
     3   6    -0.09   0.02  -0.00    -0.04   0.00  -0.00    -0.06  -0.04   0.00
     4   6    -0.13   0.05  -0.00     0.11   0.08  -0.00    -0.03  -0.02   0.00
     5   6    -0.03  -0.04   0.00     0.02  -0.07   0.00     0.05  -0.04   0.00
     6   6     0.03  -0.03   0.00    -0.01   0.01  -0.00     0.01  -0.01   0.00
     7   1     0.16   0.02   0.00    -0.19  -0.08   0.00    -0.31  -0.19   0.00
     8   1     0.10  -0.02   0.00    -0.14   0.03  -0.00     0.37  -0.24   0.01
     9   1    -0.23  -0.04  -0.00    -0.39  -0.17   0.01     0.44   0.20  -0.00
    10   1    -0.21   0.06  -0.01    -0.22   0.08  -0.00    -0.33   0.20  -0.01
    11   8    -0.14  -0.01  -0.00    -0.10  -0.02  -0.00     0.02  -0.03   0.00
    12   6     0.06   0.04   0.00     0.04   0.03   0.00    -0.02   0.01  -0.00
    13   1    -0.19  -0.07  -0.01    -0.11  -0.03  -0.01     0.08   0.01  -0.02
    14   1    -0.19  -0.06   0.01    -0.11  -0.03   0.00     0.08   0.01   0.02
    15   1     0.03  -0.01  -0.00     0.01  -0.03  -0.00    -0.03  -0.02   0.00
    16   6     0.09  -0.03   0.01    -0.05   0.08  -0.01     0.02   0.01   0.00
    17   6     0.08  -0.04   0.01    -0.07   0.03  -0.01    -0.04   0.03   0.01
    18   7     0.03   0.02  -0.01    -0.02  -0.04   0.01     0.05   0.00  -0.00
    19   6    -0.04  -0.00  -0.02     0.04  -0.03   0.02    -0.04   0.03  -0.00
    20   6    -0.00   0.04   0.01    -0.00  -0.03  -0.01     0.00  -0.04  -0.00
    21   1    -0.24   0.11   0.03     0.34  -0.15  -0.04     0.22  -0.07  -0.03
    22   1    -0.41   0.13   0.04     0.36  -0.14  -0.04     0.08  -0.05  -0.01
    23   1     0.13  -0.28  -0.03    -0.19   0.30   0.03     0.11  -0.16  -0.02
    24   1    -0.11   0.07  -0.01    -0.03   0.04   0.01     0.04  -0.06  -0.01
    25   1     0.14   0.25   0.01    -0.11  -0.19  -0.01     0.13   0.17  -0.01
    26   1    -0.28  -0.30   0.02     0.20   0.24  -0.00     0.06   0.01  -0.02
    27   1    -0.12  -0.02   0.01    -0.12  -0.07  -0.01    -0.26  -0.09  -0.00
                     46                     47                     48
                      A                      A                      A
 Frequencies --   1360.8471              1365.7383              1379.6751
 Red. masses --      1.4664                 2.4041                 1.8297
 Frc consts  --      1.6001                 2.6420                 2.0521
 IR Inten    --     15.3665               218.3148                21.5941
  Atom  AN      X      Y      Z        X      Y      Z        X      Y      Z
     1   6    -0.03  -0.01  -0.00    -0.08   0.10  -0.00     0.03  -0.13   0.00
     2   6    -0.01  -0.00   0.00     0.05  -0.07   0.00    -0.00   0.03  -0.00
     3   6     0.01  -0.01   0.00    -0.03  -0.08   0.00     0.03   0.05  -0.00
     4   6     0.01   0.02  -0.00     0.04   0.24  -0.01    -0.02  -0.06   0.00
     5   6     0.01   0.00  -0.00     0.07  -0.06   0.00    -0.05   0.03  -0.00
     6   6    -0.01   0.00   0.00    -0.10  -0.06   0.00     0.03   0.03  -0.00
     7   1     0.01   0.01  -0.00     0.09   0.04  -0.00     0.12   0.08  -0.00
     8   1    -0.02   0.00  -0.00    -0.21   0.08  -0.01    -0.14   0.13  -0.01
     9   1    -0.06  -0.04   0.00    -0.26  -0.20   0.00    -0.18  -0.05   0.01
    10   1     0.08  -0.04   0.01     0.44  -0.29   0.03     0.14  -0.08   0.01
    11   8     0.02   0.00   0.00     0.06  -0.01   0.00    -0.04   0.02  -0.00
    12   6    -0.01  -0.01  -0.00    -0.03  -0.01  -0.00     0.03  -0.00   0.00
    13   1     0.02   0.01   0.00     0.11   0.05   0.01    -0.08  -0.01   0.01
    14   1     0.02   0.01  -0.00     0.10   0.04  -0.00    -0.08  -0.01  -0.02
    15   1    -0.00   0.01   0.00    -0.03  -0.02   0.00     0.03   0.01  -0.00
    16   6     0.00   0.05   0.01    -0.02   0.02   0.00    -0.01  -0.02   0.00
    17   6     0.06  -0.00   0.02     0.03  -0.01   0.00    -0.08   0.07   0.02
    18   7    -0.02  -0.02  -0.01     0.00  -0.03  -0.00     0.06   0.00  -0.01
    19   6     0.08  -0.04  -0.03    -0.05   0.07   0.00    -0.07   0.10   0.00
    20   6    -0.12  -0.10  -0.00     0.02  -0.01   0.00     0.00  -0.09  -0.01
    21   1     0.06   0.04  -0.03    -0.02   0.01   0.01     0.45  -0.17  -0.02
    22   1    -0.23   0.10   0.03    -0.09   0.00  -0.00     0.14  -0.16  -0.05
    23   1    -0.11   0.10   0.01     0.21  -0.33  -0.01     0.28  -0.37  -0.03
    24   1    -0.23   0.37   0.07     0.19  -0.24  -0.07     0.20  -0.22  -0.05
    25   1     0.44   0.57   0.02     0.04   0.05  -0.00     0.25   0.28  -0.01
    26   1     0.15   0.28   0.02    -0.06  -0.13  -0.02     0.14   0.04  -0.04
    27   1    -0.13  -0.06  -0.00    -0.31  -0.13  -0.02    -0.20  -0.08  -0.01
                     49                     50                     51
                      A                      A                      A
 Frequencies --   1400.5790              1447.6919              1474.8012
 Red. masses --      1.9095                 2.2580                 1.1009
 Frc consts  --      2.2069                 2.7882                 1.4108
 IR Inten    --    268.1292                11.1826                24.2384
  Atom  AN      X      Y      Z        X      Y      Z        X      Y      Z
     1   6    -0.01  -0.03   0.00     0.01   0.05  -0.00     0.01  -0.01   0.00
     2   6     0.02   0.03  -0.00     0.12  -0.04   0.00     0.02   0.00   0.00
     3   6    -0.03  -0.03   0.00    -0.11  -0.01  -0.00    -0.02  -0.00  -0.00
     4   6    -0.12   0.03  -0.00     0.00   0.01   0.00     0.01  -0.01  -0.00
     5   6    -0.01   0.03  -0.00     0.06   0.02   0.00     0.01   0.01  -0.00
     6   6    -0.03  -0.03   0.00    -0.13  -0.06   0.00    -0.02  -0.01  -0.00
     7   1     0.24   0.11  -0.00     0.26   0.15   0.00     0.05   0.03  -0.00
     8   1     0.11  -0.02   0.00    -0.12   0.12  -0.01    -0.01   0.02  -0.00
     9   1     0.04   0.01   0.00     0.15   0.12  -0.00     0.02   0.02  -0.00
    10   1     0.31  -0.17   0.02     0.01   0.06  -0.01     0.01   0.01  -0.00
    11   8     0.02   0.01  -0.00     0.01   0.01  -0.00    -0.00   0.00  -0.00
    12   6    -0.01  -0.01  -0.00    -0.00   0.00   0.00     0.00   0.00   0.00
    13   1     0.01  -0.02  -0.01    -0.02   0.01   0.01    -0.02  -0.00   0.00
    14   1     0.01  -0.02   0.01    -0.02   0.01  -0.01    -0.02  -0.00  -0.00
    15   1    -0.00   0.00   0.00    -0.02  -0.04  -0.00    -0.01  -0.02  -0.00
    16   6     0.18  -0.01   0.00     0.04  -0.19  -0.00     0.00  -0.01   0.01
    17   6    -0.10   0.03  -0.00    -0.06   0.09   0.00    -0.04  -0.07   0.02
    18   7     0.04   0.03   0.00    -0.05   0.07  -0.00    -0.01  -0.00  -0.00
    19   6     0.01  -0.11  -0.00     0.02   0.00  -0.00    -0.01   0.01   0.00
    20   6     0.03   0.03  -0.00    -0.03  -0.05  -0.00    -0.01  -0.00   0.00
    21   1     0.26  -0.11  -0.05     0.15  -0.11   0.10     0.18   0.38  -0.56
    22   1     0.25  -0.06  -0.00     0.05  -0.16  -0.09     0.24   0.56   0.29
    23   1    -0.24   0.26   0.01     0.07   0.09  -0.03     0.05  -0.02  -0.01
    24   1    -0.28   0.17   0.01     0.04   0.10   0.09     0.04  -0.02   0.01
    25   1    -0.15  -0.12  -0.01     0.11   0.14  -0.01     0.12  -0.05   0.03
    26   1    -0.02   0.01   0.04     0.14   0.16   0.00     0.06  -0.04  -0.10
    27   1    -0.52  -0.13  -0.03     0.67   0.29   0.02     0.08   0.03  -0.00
                     52                     53                     54
                      A                      A                      A
 Frequencies --   1493.2784              1504.1733              1511.0159
 Red. masses --      1.5987                 1.6815                 1.0947
 Frc consts  --      2.1004                 2.2416                 1.4726
 IR Inten    --    159.4915                48.0681                33.5783
  Atom  AN      X      Y      Z        X      Y      Z        X      Y      Z
     1   6    -0.02  -0.06   0.00     0.05   0.06  -0.00    -0.01  -0.00   0.00
     2   6     0.12  -0.02   0.00    -0.06  -0.01   0.00     0.00  -0.00   0.00
     3   6    -0.08   0.04  -0.00     0.07  -0.01   0.00     0.00   0.00  -0.00
     4   6    -0.01  -0.07   0.00    -0.03   0.07  -0.00     0.01  -0.00   0.00
     5   6     0.08  -0.01   0.00    -0.10  -0.01  -0.00     0.00  -0.00   0.00
     6   6    -0.05   0.04  -0.00     0.10  -0.01   0.00    -0.00   0.00  -0.00
     7   1    -0.00   0.07  -0.00    -0.11  -0.14   0.00    -0.01  -0.00   0.00
     8   1    -0.25   0.22  -0.01     0.07  -0.10   0.00    -0.01   0.01   0.00
     9   1     0.04   0.11  -0.00    -0.17  -0.13   0.01    -0.00  -0.00  -0.00
    10   1    -0.17   0.16  -0.00     0.06  -0.12   0.00    -0.01   0.00   0.00
    11   8    -0.02   0.00  -0.00    -0.04  -0.03  -0.00     0.01   0.00   0.00
    12   6    -0.02  -0.08   0.00    -0.06  -0.06  -0.01     0.01   0.01   0.01
    13   1     0.16   0.46   0.29     0.31   0.29   0.14     0.04  -0.01  -0.01
    14   1     0.17   0.44  -0.31     0.43   0.27  -0.13    -0.15  -0.01  -0.01
    15   1     0.10   0.23  -0.00     0.15   0.48   0.07    -0.02  -0.08  -0.14
    16   6    -0.03   0.05  -0.00     0.04  -0.08   0.00    -0.02   0.00   0.00
    17   6     0.02  -0.02  -0.00    -0.03   0.02   0.00     0.00  -0.02   0.00
    18   7     0.04  -0.01   0.00    -0.02   0.02  -0.00     0.01   0.00  -0.00
    19   6    -0.01  -0.01  -0.00    -0.00  -0.01  -0.00    -0.03  -0.02  -0.01
    20   6     0.01   0.01   0.00     0.00  -0.02  -0.00     0.05  -0.04  -0.03
    21   1    -0.05   0.00   0.01     0.08   0.03  -0.06     0.01   0.05  -0.07
    22   1    -0.03   0.00   0.00     0.05   0.04   0.02     0.02   0.08   0.04
    23   1    -0.03   0.03  -0.00     0.09   0.06  -0.04     0.25   0.19  -0.14
    24   1    -0.03   0.02   0.01     0.06   0.04   0.08     0.20   0.10   0.27
    25   1    -0.04  -0.02  -0.00    -0.02   0.06  -0.02    -0.44   0.35  -0.16
    26   1    -0.04  -0.03   0.01     0.01   0.05   0.05    -0.22   0.16   0.51
    27   1    -0.22  -0.09  -0.01     0.20   0.09   0.01    -0.04  -0.01  -0.00
                     55                     56                     57
                      A                      A                      A
 Frequencies --   1511.6941              1516.3062              1525.2740
 Red. masses --      1.0534                 1.1105                 1.1250
 Frc consts  --      1.4184                 1.5044                 1.5421
 IR Inten    --     19.4377                 9.0825                13.3727
  Atom  AN      X      Y      Z        X      Y      Z        X      Y      Z
     1   6    -0.00  -0.01  -0.00     0.00  -0.02   0.00    -0.01  -0.00   0.00
     2   6     0.01  -0.00   0.00     0.04  -0.01   0.00     0.00  -0.00   0.00
     3   6    -0.01   0.00   0.00    -0.02   0.02  -0.00     0.00   0.00  -0.00
     4   6     0.00  -0.01   0.00    -0.00  -0.03   0.00    -0.00   0.00   0.00
     5   6     0.01   0.00   0.00     0.03  -0.00   0.00     0.00  -0.00   0.00
     6   6    -0.01   0.00   0.00    -0.02   0.01  -0.00     0.01   0.01  -0.00
     7   1     0.01   0.02  -0.00     0.02   0.04  -0.00    -0.02  -0.01  -0.00
     8   1    -0.02   0.02  -0.02    -0.12   0.09  -0.00    -0.02   0.01  -0.00
     9   1     0.01   0.01   0.00    -0.01   0.03  -0.00    -0.01  -0.00   0.00
    10   1    -0.01   0.02  -0.00    -0.05   0.05  -0.00     0.00  -0.01   0.00
    11   8     0.00   0.00  -0.01    -0.02   0.01   0.00     0.00   0.00  -0.00
    12   6     0.00   0.01  -0.05    -0.05   0.02   0.01     0.00   0.01  -0.00
    13   1    -0.47  -0.06   0.01     0.40  -0.38  -0.31    -0.02  -0.03  -0.02
    14   1     0.48  -0.08   0.12     0.27  -0.35   0.32    -0.02  -0.03   0.02
    15   1    -0.00   0.03   0.69     0.15   0.48  -0.10    -0.01  -0.02   0.00
    16   6    -0.01   0.01  -0.00    -0.01   0.02  -0.00    -0.01  -0.00  -0.00
    17   6     0.00  -0.01  -0.00     0.00  -0.01  -0.00     0.01   0.01  -0.00
    18   7     0.00  -0.00   0.00     0.01  -0.00   0.00     0.02   0.01  -0.00
    19   6    -0.01  -0.00  -0.00    -0.00  -0.00  -0.00    -0.06  -0.06  -0.02
    20   6     0.01  -0.01  -0.00     0.00   0.00  -0.00    -0.03   0.04   0.02
    21   1    -0.00   0.01  -0.01    -0.01   0.00  -0.00    -0.04  -0.02   0.06
    22   1    -0.00   0.01   0.01    -0.00   0.01   0.00    -0.04  -0.05  -0.03
    23   1     0.04   0.03  -0.02    -0.00  -0.00  -0.00     0.42   0.35  -0.25
    24   1     0.03   0.01   0.04    -0.00  -0.00  -0.00     0.29   0.20   0.48
    25   1    -0.09   0.07  -0.03    -0.02   0.01  -0.01     0.26  -0.22   0.10
    26   1    -0.05   0.03   0.10    -0.02  -0.00   0.02     0.11  -0.11  -0.31
    27   1    -0.03  -0.01  -0.00    -0.05  -0.02  -0.00    -0.12  -0.04  -0.00
                     58                     59                     60
                      A                      A                      A
 Frequencies --   1579.5979              1645.6332              1670.6830
 Red. masses --      2.6727                 5.3380                 5.2072
 Frc consts  --      3.9291                 8.5172                 8.5634
 IR Inten    --    195.7353               296.3024              1137.9143
  Atom  AN      X      Y      Z        X      Y      Z        X      Y      Z
     1   6     0.18  -0.02   0.00    -0.01   0.33  -0.01     0.09   0.11  -0.00
     2   6    -0.09   0.10  -0.00     0.11  -0.20   0.01    -0.17  -0.04   0.00
     3   6    -0.09  -0.08   0.00     0.05   0.15  -0.00     0.27   0.13  -0.00
     4   6     0.16  -0.03   0.00     0.06  -0.27   0.01    -0.20  -0.12   0.00
     5   6    -0.04   0.09  -0.00    -0.18   0.21  -0.01     0.23  -0.01   0.00
     6   6    -0.13  -0.09   0.00     0.01  -0.18   0.01    -0.25  -0.08   0.00
     7   1     0.38   0.17  -0.00     0.18  -0.12   0.00     0.20   0.17  -0.00
     8   1     0.39  -0.18   0.01    -0.30   0.03  -0.00     0.00  -0.16   0.01
     9   1     0.41   0.16  -0.01    -0.21   0.04  -0.00    -0.41  -0.19   0.01
    10   1     0.37  -0.15   0.01     0.48  -0.19   0.02    -0.22   0.28  -0.02
    11   8    -0.05  -0.00  -0.00     0.00  -0.04   0.00     0.03  -0.01   0.00
    12   6    -0.02  -0.02   0.00    -0.00   0.02  -0.00    -0.02  -0.02   0.00
    13   1     0.12   0.11   0.06    -0.02  -0.01  -0.02     0.05   0.07   0.04
    14   1     0.11   0.11  -0.06    -0.02  -0.01   0.02     0.05   0.06  -0.05
    15   1     0.05   0.17  -0.01    -0.04  -0.08   0.00    -0.01   0.02  -0.00
    16   6    -0.03   0.10  -0.00    -0.10   0.00  -0.00     0.15   0.13   0.00
    17   6     0.02  -0.01  -0.00     0.01  -0.01   0.00    -0.02  -0.01   0.00
    18   7    -0.04  -0.06  -0.00     0.09   0.04   0.00    -0.10  -0.10  -0.01
    19   6    -0.00   0.01  -0.00    -0.00  -0.02  -0.00    -0.01   0.03   0.00
    20   6     0.00   0.00   0.00     0.01   0.01   0.00     0.00   0.00  -0.00
    21   1    -0.04  -0.04   0.06    -0.04   0.04  -0.02     0.10  -0.08   0.01
    22   1    -0.03  -0.05  -0.02    -0.02   0.03   0.02     0.05  -0.05  -0.01
    23   1     0.11   0.00  -0.04    -0.10   0.03   0.02     0.19  -0.06  -0.05
    24   1     0.11  -0.02   0.06    -0.09   0.03  -0.03     0.17  -0.08   0.06
    25   1    -0.01  -0.01  -0.00    -0.01  -0.01  -0.00     0.00  -0.00  -0.00
    26   1    -0.01  -0.01   0.00    -0.01  -0.02   0.00    -0.01  -0.01   0.00
    27   1    -0.04  -0.06  -0.00    -0.33  -0.09  -0.02     0.26   0.01   0.02
                     61                     62                     63
                      A                      A                      A
 Frequencies --   1706.9026              3089.1304              3094.7178
 Red. masses --      5.7119                 1.0315                 1.0699
 Frc consts  --      9.8050                 5.7998                 6.0373
 IR Inten    --    171.2127                57.1853                11.1130
  Atom  AN      X      Y      Z        X      Y      Z        X      Y      Z
     1   6    -0.11   0.02  -0.00    -0.00   0.00  -0.00    -0.00  -0.00   0.00
     2   6     0.17  -0.06   0.00    -0.00  -0.00   0.00    -0.00   0.00   0.00
     3   6    -0.15  -0.01  -0.00    -0.00  -0.00   0.00     0.00  -0.00   0.00
     4   6    -0.00  -0.05   0.00     0.00   0.00  -0.00     0.00   0.00  -0.00
     5   6    -0.15   0.06  -0.00    -0.00   0.00  -0.00    -0.00   0.00  -0.00
     6   6     0.17   0.03   0.00     0.00   0.00  -0.00     0.00   0.00   0.00
     7   1    -0.11  -0.13   0.00    -0.00  -0.00  -0.00    -0.00  -0.00   0.00
     8   1    -0.15   0.14  -0.01     0.01   0.02  -0.00    -0.00  -0.00   0.00
     9   1     0.09   0.12  -0.00     0.00  -0.00   0.00    -0.00   0.01  -0.00
    10   1     0.07  -0.07  -0.00    -0.00  -0.00   0.00     0.00   0.00   0.00
    11   8     0.02  -0.00   0.00     0.00   0.00  -0.00     0.00  -0.00  -0.00
    12   6     0.01   0.01  -0.00     0.01   0.04  -0.00    -0.00  -0.00   0.00
    13   1    -0.03  -0.03  -0.02     0.10  -0.33   0.54    -0.00   0.00  -0.01
    14   1    -0.03  -0.03   0.02     0.11  -0.37  -0.53    -0.00   0.00   0.01
    15   1    -0.01  -0.03   0.00    -0.36   0.14  -0.01     0.00  -0.00   0.00
    16   6     0.30   0.27   0.00    -0.00  -0.00  -0.00     0.00   0.00  -0.00
    17   6    -0.04  -0.01  -0.00     0.00   0.00  -0.00     0.02   0.05  -0.06
    18   7    -0.26  -0.22  -0.01     0.00   0.00  -0.00    -0.00  -0.00   0.00
    19   6     0.00   0.05   0.01     0.00   0.00   0.00    -0.00  -0.00  -0.00
    20   6    -0.00   0.00  -0.00     0.00  -0.00   0.00     0.00  -0.00   0.01
    21   1     0.13  -0.16   0.06    -0.00  -0.00  -0.00    -0.10  -0.19  -0.20
    22   1     0.04  -0.10  -0.04    -0.00  -0.00   0.01    -0.08  -0.36   0.87
    23   1     0.27  -0.08  -0.06    -0.00  -0.00  -0.00     0.01   0.01   0.03
    24   1     0.27  -0.12   0.08    -0.00  -0.00   0.00     0.00   0.00  -0.00
    25   1    -0.00  -0.00  -0.00    -0.00   0.00   0.00     0.01  -0.01  -0.06
    26   1    -0.02  -0.01   0.01    -0.00   0.00  -0.00    -0.03   0.02  -0.02
    27   1     0.49  -0.02   0.03    -0.00   0.00   0.00     0.00  -0.00  -0.00
                     64                     65                     66
                      A                      A                      A
 Frequencies --   3115.9781              3119.5028              3168.8660
 Red. masses --      1.0649                 1.0661                 1.1094
 Frc consts  --      6.0917                 6.1125                 6.5637
 IR Inten    --     23.7617                26.2762                28.0077
  Atom  AN      X      Y      Z        X      Y      Z        X      Y      Z
     1   6     0.00  -0.00   0.00    -0.00   0.00  -0.00    -0.00   0.00   0.00
     2   6    -0.00   0.00   0.00     0.00   0.00  -0.00     0.00   0.00   0.00
     3   6     0.00   0.00  -0.00     0.00  -0.00   0.00    -0.00  -0.00  -0.00
     4   6    -0.00  -0.00  -0.00     0.00  -0.00  -0.00    -0.00  -0.00  -0.00
     5   6     0.00  -0.00   0.00    -0.00  -0.00  -0.00     0.00   0.00  -0.00
     6   6    -0.00   0.00  -0.00     0.00  -0.00   0.00     0.00  -0.00  -0.00
     7   1     0.00  -0.00   0.00    -0.00   0.00  -0.00    -0.00   0.00   0.00
     8   1     0.00   0.00  -0.00    -0.00  -0.00   0.00    -0.00  -0.00   0.00
     9   1     0.00  -0.00   0.00    -0.00   0.00  -0.00     0.00   0.00   0.00
    10   1     0.00  -0.00   0.00     0.00   0.00  -0.00    -0.00  -0.00   0.00
    11   8    -0.00   0.00   0.00     0.00  -0.00   0.00     0.00   0.00   0.00
    12   6     0.00   0.00   0.00    -0.00  -0.00   0.00     0.00  -0.00  -0.10
    13   1     0.00  -0.00   0.00    -0.00   0.00  -0.00     0.12  -0.37   0.59
    14   1     0.00  -0.00  -0.00    -0.00   0.00   0.00    -0.13   0.40   0.56
    15   1    -0.00   0.00  -0.00     0.00  -0.00   0.00    -0.01   0.00  -0.02
    16   6     0.00   0.00   0.00    -0.00   0.00   0.00    -0.00   0.00   0.00
    17   6    -0.00  -0.00   0.00     0.00   0.01   0.00    -0.00  -0.00  -0.00
    18   7    -0.00   0.00   0.00    -0.00   0.00   0.00     0.00  -0.00  -0.00
    19   6    -0.04  -0.03  -0.05    -0.00  -0.00   0.01    -0.00  -0.00   0.00
    20   6     0.00  -0.00   0.01     0.04  -0.03  -0.05     0.00  -0.00   0.00
    21   1     0.01   0.02   0.02    -0.03  -0.07  -0.06     0.00   0.00   0.00
    22   1     0.00   0.01  -0.03    -0.00  -0.00   0.01    -0.00  -0.00   0.00
    23   1     0.28   0.15   0.84    -0.01  -0.01  -0.03    -0.00  -0.00  -0.00
    24   1     0.22   0.23  -0.29     0.04   0.04  -0.05     0.00   0.00  -0.00
    25   1     0.01  -0.00  -0.03    -0.16   0.11   0.86     0.00  -0.00  -0.00
    26   1    -0.04   0.03  -0.03    -0.29   0.23  -0.25    -0.00   0.00  -0.00
    27   1    -0.01  -0.00  -0.00     0.00   0.00  -0.00    -0.00   0.00  -0.00
                     67                     68                     69
                      A                      A                      A
 Frequencies --   3171.3229              3176.2956              3185.5450
 Red. masses --      1.0970                 1.1027                 1.1062
 Frc consts  --      6.5007                 6.5544                 6.6139
 IR Inten    --      1.8454                 9.9447                16.7664
  Atom  AN      X      Y      Z        X      Y      Z        X      Y      Z
     1   6    -0.00   0.00   0.00    -0.00   0.00  -0.00    -0.00  -0.00  -0.00
     2   6     0.00  -0.00   0.00     0.00   0.00  -0.00     0.00  -0.00   0.00
     3   6    -0.00   0.00   0.00     0.00  -0.00  -0.00    -0.00   0.00  -0.00
     4   6    -0.00  -0.00  -0.00     0.00   0.00  -0.00     0.00  -0.00  -0.00
     5   6     0.00  -0.00  -0.00    -0.00   0.00   0.00     0.00   0.00   0.00
     6   6    -0.00  -0.00  -0.00     0.00  -0.00  -0.00     0.00  -0.00  -0.00
     7   1    -0.00   0.00  -0.00    -0.00   0.00  -0.00    -0.00   0.00  -0.00
     8   1     0.00   0.00  -0.00    -0.00  -0.00   0.00     0.00   0.00  -0.00
     9   1     0.02  -0.04   0.00    -0.01   0.02  -0.00     0.01  -0.01   0.00
    10   1     0.00   0.00   0.00    -0.00  -0.00  -0.00    -0.00  -0.00   0.00
    11   8     0.00   0.00  -0.00     0.00  -0.00   0.00     0.00   0.00  -0.00
    12   6    -0.00   0.00   0.00     0.00  -0.00  -0.00    -0.00  -0.00  -0.00
    13   1    -0.00   0.00  -0.00     0.00   0.00  -0.00     0.00  -0.00   0.00
    14   1     0.00  -0.00  -0.00    -0.00   0.00   0.00    -0.00   0.00   0.00
    15   1     0.00  -0.00   0.00    -0.00   0.00  -0.00     0.00  -0.00  -0.00
    16   6    -0.00   0.00  -0.00    -0.00  -0.00   0.00    -0.00   0.00  -0.00
    17   6    -0.02  -0.04  -0.06     0.01   0.02   0.04    -0.01  -0.01  -0.02
    18   7    -0.00   0.00  -0.00    -0.00  -0.00   0.00    -0.00  -0.00   0.00
    19   6     0.01   0.01  -0.01     0.02   0.03  -0.05     0.02   0.02  -0.06
    20   6     0.03  -0.02   0.03     0.03  -0.02   0.04    -0.03   0.02  -0.05
    21   1     0.29   0.56   0.52    -0.15  -0.29  -0.27     0.08   0.15   0.14
    22   1    -0.02  -0.09   0.20     0.02   0.07  -0.15    -0.01  -0.04   0.09
    23   1     0.01   0.00   0.02     0.08   0.05   0.24     0.11   0.07   0.31
    24   1    -0.09  -0.09   0.11    -0.34  -0.35   0.41    -0.32  -0.34   0.40
    25   1     0.03  -0.02  -0.12     0.05  -0.03  -0.22    -0.07   0.05   0.35
    26   1    -0.32   0.25  -0.25    -0.34   0.27  -0.27     0.38  -0.29   0.29
    27   1     0.00   0.00  -0.00     0.00   0.00   0.00     0.00   0.00   0.00
                     70                     71                     72
                      A                      A                      A
 Frequencies --   3209.0197              3229.0283              3245.0961
 Red. masses --      1.1054                 1.0905                 1.0962
 Frc consts  --      6.7069                 6.6989                 6.8016
 IR Inten    --     15.2893                 5.9501                 3.4488
  Atom  AN      X      Y      Z        X      Y      Z        X      Y      Z
     1   6     0.00   0.00  -0.00    -0.00  -0.00   0.00     0.00   0.00  -0.00
     2   6    -0.00  -0.00   0.00    -0.00  -0.00   0.00     0.00   0.00  -0.00
     3   6    -0.00   0.00  -0.00     0.00   0.00  -0.00     0.00  -0.01   0.00
     4   6    -0.00   0.00  -0.00    -0.00   0.00  -0.00    -0.00   0.00  -0.00
     5   6    -0.00  -0.00  -0.00    -0.04  -0.07   0.00    -0.03  -0.03   0.00
     6   6    -0.00   0.00  -0.00    -0.02   0.04  -0.00     0.04  -0.07   0.00
     7   1     0.00  -0.00   0.00     0.21  -0.41   0.01    -0.41   0.77  -0.03
     8   1     0.02   0.03  -0.00     0.01   0.01  -0.00    -0.02  -0.03   0.00
     9   1     0.00  -0.01   0.00     0.00  -0.01   0.00    -0.05   0.10  -0.00
    10   1     0.00   0.00  -0.00     0.46   0.75  -0.02     0.24   0.39  -0.01
    11   8     0.00  -0.00   0.00    -0.00   0.00  -0.00    -0.00  -0.00   0.00
    12   6    -0.08   0.05  -0.00     0.00  -0.00  -0.00    -0.00   0.00  -0.00
    13   1     0.03  -0.13   0.23    -0.00  -0.00   0.00     0.00  -0.00   0.00
    14   1     0.04  -0.14  -0.21    -0.00  -0.00  -0.00     0.00  -0.00  -0.00
    15   1     0.86  -0.34   0.02    -0.00   0.00  -0.00     0.00  -0.00   0.00
    16   6     0.00   0.00   0.00    -0.00  -0.00   0.00    -0.00  -0.00   0.00
    17   6     0.00   0.00   0.00     0.00   0.00   0.00    -0.00  -0.00  -0.00
    18   7    -0.00   0.00  -0.00    -0.00   0.00   0.00    -0.00   0.00  -0.00
    19   6     0.00   0.00  -0.00     0.00   0.00  -0.00     0.00  -0.00   0.00
    20   6     0.00  -0.00   0.00    -0.00  -0.00   0.00    -0.00   0.00  -0.00
    21   1    -0.00  -0.00  -0.00    -0.00  -0.00  -0.00     0.00   0.00   0.00
    22   1     0.00   0.00  -0.00     0.00   0.00  -0.00     0.00  -0.00   0.00
    23   1    -0.00  -0.00  -0.00     0.00  -0.00   0.00     0.00  -0.00   0.00
    24   1    -0.00  -0.00   0.00    -0.00  -0.00   0.00     0.00   0.00  -0.00
    25   1     0.00  -0.00  -0.00     0.00   0.00  -0.00     0.00  -0.00  -0.00
    26   1    -0.00   0.00  -0.00     0.00  -0.00   0.00     0.00  -0.00   0.00
    27   1     0.00  -0.00  -0.00     0.01  -0.02  -0.00     0.00  -0.01  -0.00
                     73                     74                     75
                      A                      A                      A
 Frequencies --   3249.7781              3267.9722              3595.9159
 Red. masses --      1.0908                 1.0945                 1.0811
 Frc consts  --      6.7877                 6.8867                 8.2361
 IR Inten    --      1.0228                 1.4901               209.7811
  Atom  AN      X      Y      Z        X      Y      Z        X      Y      Z
     1   6    -0.00  -0.00   0.00    -0.00   0.00  -0.00    -0.00   0.00  -0.00
     2   6     0.01   0.03  -0.00    -0.04  -0.07   0.00     0.00  -0.00   0.00
     3   6     0.03  -0.07   0.00     0.02  -0.03   0.00    -0.00  -0.00   0.00
     4   6     0.00   0.00  -0.00     0.00   0.00  -0.00     0.00  -0.00  -0.00
     5   6     0.00   0.00  -0.00     0.00   0.00  -0.00    -0.00  -0.00   0.00
     6   6    -0.00   0.01  -0.00     0.00   0.00  -0.00     0.00   0.00  -0.00
     7   1     0.05  -0.10   0.00    -0.00  -0.00   0.00     0.00  -0.00  -0.00
     8   1    -0.18  -0.29   0.01     0.50   0.79  -0.02     0.00   0.00   0.00
     9   1    -0.41   0.83  -0.03    -0.15   0.30  -0.01    -0.00   0.00  -0.00
    10   1    -0.02  -0.04   0.00    -0.01  -0.01   0.00     0.01   0.02  -0.00
    11   8     0.00   0.00  -0.00     0.00  -0.00   0.00     0.00  -0.00  -0.00
    12   6    -0.00   0.00  -0.00     0.00  -0.00   0.00    -0.00  -0.00   0.00
    13   1     0.00  -0.00   0.01    -0.00   0.01  -0.02    -0.00   0.00  -0.00
    14   1     0.00  -0.01  -0.01    -0.01   0.01   0.02    -0.00   0.00   0.00
    15   1     0.01  -0.01   0.00    -0.02   0.01  -0.00     0.00  -0.00   0.00
    16   6     0.00  -0.00  -0.00     0.00  -0.00   0.00     0.00   0.00   0.00
    17   6    -0.00  -0.00  -0.00    -0.00  -0.00  -0.00     0.00   0.00  -0.00
    18   7    -0.00  -0.00  -0.00    -0.00  -0.00   0.00     0.02  -0.07  -0.00
    19   6     0.00   0.00  -0.00     0.00   0.00  -0.00    -0.00   0.00   0.00
    20   6    -0.00   0.00  -0.00    -0.00   0.00  -0.00    -0.00   0.00   0.00
    21   1     0.02   0.03   0.03     0.00   0.01   0.01    -0.00  -0.00   0.00
    22   1    -0.00  -0.00   0.00    -0.00  -0.00   0.00    -0.00  -0.00   0.00
    23   1    -0.00   0.00  -0.00    -0.00   0.00  -0.00     0.00  -0.00  -0.00
    24   1    -0.00  -0.00   0.00    -0.00  -0.00   0.00     0.00   0.00  -0.00
    25   1    -0.00   0.00   0.00    -0.00   0.00   0.00     0.00  -0.00  -0.00
    26   1     0.00  -0.00   0.00    -0.00  -0.00   0.00     0.00   0.00   0.00
    27   1     0.00   0.00  -0.00     0.00  -0.00  -0.00    -0.29   0.95   0.01

 -------------------
 - Thermochemistry -
 -------------------
 Temperature   298.150 Kelvin.  Pressure   1.00000 Atm.
 Atom     1 has atomic number  6 and mass  12.00000
 Atom     2 has atomic number  6 and mass  12.00000
 Atom     3 has atomic number  6 and mass  12.00000
 Atom     4 has atomic number  6 and mass  12.00000
 Atom     5 has atomic number  6 and mass  12.00000
 Atom     6 has atomic number  6 and mass  12.00000
 Atom     7 has atomic number  1 and mass   1.00783
 Atom     8 has atomic number  1 and mass   1.00783
 Atom     9 has atomic number  1 and mass   1.00783
 Atom    10 has atomic number  1 and mass   1.00783
 Atom    11 has atomic number  8 and mass  15.99491
 Atom    12 has atomic number  6 and mass  12.00000
 Atom    13 has atomic number  1 and mass   1.00783
 Atom    14 has atomic number  1 and mass   1.00783
 Atom    15 has atomic number  1 and mass   1.00783
 Atom    16 has atomic number  6 and mass  12.00000
 Atom    17 has atomic number  6 and mass  12.00000
 Atom    18 has atomic number  7 and mass  14.00307
 Atom    19 has atomic number  6 and mass  12.00000
 Atom    20 has atomic number  6 and mass  12.00000
 Atom    21 has atomic number  1 and mass   1.00783
 Atom    22 has atomic number  1 and mass   1.00783
 Atom    23 has atomic number  1 and mass   1.00783
 Atom    24 has atomic number  1 and mass   1.00783
 Atom    25 has atomic number  1 and mass   1.00783
 Atom    26 has atomic number  1 and mass   1.00783
 Atom    27 has atomic number  1 and mass   1.00783
 Molecular mass:   176.10754 amu.
 Principal axes and moments of inertia in atomic units:
                           1         2         3
     Eigenvalues --   628.358955098.149275671.80303
           X            0.99998   0.00610  -0.00014
           Y           -0.00610   0.99998  -0.00032
           Z            0.00014   0.00032   1.00000
 This molecule is an asymmetric top.
 Rotational symmetry number  1.
 Warning -- assumption of classical behavior for rotation
           may cause significant error
 Rotational temperatures (Kelvin)      0.13784     0.01699     0.01527
 Rotational constants (GHZ):           2.87215     0.35400     0.31820
 Zero-point vibrational energy     620472.8 (Joules/Mol)
                                  148.29655 (Kcal/Mol)
 Warning -- explicit consideration of  16 degrees of freedom as
           vibrations may cause significant error
 Vibrational temperatures:     77.28    91.17   162.32   188.95   217.35
          (Kelvin)            287.42   357.40   367.54   440.57   462.88
                              610.83   618.48   717.25   736.63   813.28
                              885.50   936.87   972.54  1058.61  1115.83
                             1177.59  1204.41  1212.37  1250.77  1281.58
                             1325.42  1378.50  1436.36  1449.97  1453.05
                             1469.82  1489.86  1537.30  1573.60  1601.12
                             1677.25  1711.45  1744.67  1752.40  1760.60
                             1789.77  1821.88  1887.95  1899.87  1952.24
                             1957.96  1964.99  1985.04  2015.12  2082.91
                             2121.91  2148.49  2164.17  2174.01  2174.99
                             2181.63  2194.53  2272.69  2367.70  2403.74
                             2455.85  4444.57  4452.61  4483.20  4488.27
                             4559.29  4562.83  4569.98  4583.29  4617.06
                             4645.85  4668.97  4675.71  4701.88  5173.72
 
 Zero-point correction=                           0.236326 (Hartree/Particle)
 Thermal correction to Energy=                    0.247830
 Thermal correction to Enthalpy=                  0.248775
 Thermal correction to Gibbs Free Energy=         0.198317
 Sum of electronic and zero-point Energies=           -556.920153
 Sum of electronic and thermal Energies=              -556.908648
 Sum of electronic and thermal Enthalpies=            -556.907704
 Sum of electronic and thermal Free Energies=         -556.958162
 
                     E (Thermal)             CV                S
                      KCal/Mol        Cal/Mol-Kelvin    Cal/Mol-Kelvin
 Total                  155.516             44.414            106.197
 Electronic               0.000              0.000              0.000
 Translational            0.889              2.981             41.405
 Rotational               0.889              2.981             31.275
 Vibrational            153.738             38.453             33.517
 Vibration     1          0.596              1.976              4.676
 Vibration     2          0.597              1.972              4.350
 Vibration     3          0.607              1.939              3.220
 Vibration     4          0.612              1.922              2.927
 Vibration     5          0.618              1.901              2.659
 Vibration     6          0.638              1.840              2.135
 Vibration     7          0.662              1.765              1.742
 Vibration     8          0.666              1.754              1.693
 Vibration     9          0.697              1.662              1.383
 Vibration    10          0.707              1.632              1.301
 Vibration    11          0.787              1.417              0.877
 Vibration    12          0.791              1.405              0.859
 Vibration    13          0.854              1.253              0.662
 Vibration    14          0.867              1.223              0.629
 Vibration    15          0.921              1.106              0.513
 Vibration    16          0.975              0.999              0.424
                       Q            Log10(Q)             Ln(Q)
 Total Bot       0.603292D-91        -91.219473       -210.040598
 Total V=0       0.303851D+18         17.482661         40.255315
 Vib (Bot)       0.430418-105       -105.366110       -242.614434
 Vib (Bot)    1  0.384708D+01          0.585132          1.347316
 Vib (Bot)    2  0.325770D+01          0.512912          1.181023
 Vib (Bot)    3  0.181435D+01          0.258721          0.595726
 Vib (Bot)    4  0.155185D+01          0.190851          0.439451
 Vib (Bot)    5  0.134182D+01          0.127694          0.294026
 Vib (Bot)    6  0.998231D+00         -0.000769         -0.001771
 Vib (Bot)    7  0.786277D+00         -0.104424         -0.240446
 Vib (Bot)    8  0.762019D+00         -0.118034         -0.271784
 Vib (Bot)    9  0.618876D+00         -0.208396         -0.479850
 Vib (Bot)   10  0.583704D+00         -0.233807         -0.538361
 Vib (Bot)   11  0.412146D+00         -0.384949         -0.886377
 Vib (Bot)   12  0.405374D+00         -0.392144         -0.902944
 Vib (Bot)   13  0.330123D+00         -0.481324         -1.108290
 Vib (Bot)   14  0.317585D+00         -0.498140         -1.147009
 Vib (Bot)   15  0.273549D+00         -0.562965         -1.296275
 Vib (Bot)   16  0.238756D+00         -0.622046         -1.432315
 Vib (V=0)       0.216782D+04          3.336024          7.681479
 Vib (V=0)    1  0.437944D+01          0.641419          1.476921
 Vib (V=0)    2  0.379585D+01          0.579309          1.333909
 Vib (V=0)    3  0.238198D+01          0.376939          0.867933
 Vib (V=0)    4  0.213041D+01          0.328464          0.756317
 Vib (V=0)    5  0.193195D+01          0.285996          0.658529
 Vib (V=0)    6  0.161645D+01          0.208563          0.480233
 Vib (V=0)    7  0.143179D+01          0.155879          0.358925
 Vib (V=0)    8  0.141141D+01          0.149654          0.344591
 Vib (V=0)    9  0.129562D+01          0.112477          0.258988
 Vib (V=0)   10  0.126858D+01          0.103317          0.237896
 Vib (V=0)   11  0.114797D+01          0.059930          0.137995
 Vib (V=0)   12  0.114368D+01          0.058306          0.134254
 Vib (V=0)   13  0.109915D+01          0.041057          0.094538
 Vib (V=0)   14  0.109233D+01          0.038356          0.088317
 Vib (V=0)   15  0.106994D+01          0.029358          0.067600
 Vib (V=0)   16  0.105408D+01          0.022873          0.052668
 Electronic      0.100000D+01          0.000000          0.000000
 Translational   0.918588D+08          7.963121         18.335763
 Rotational      0.152587D+07          6.183516         14.238073
 
                                        Ground-state geometry optimization (S0) w
 ith CAM-B3LYP
                                                             IR Spectrum
 
     3     3333333333333                                        111111111111111111111111111111111                                    
     5     2222211111100                                        766555555444433333322222111000000999888887 7 666 554 44  33222 111   
     9     6542087762198                                        074821110974086652164211961963210952964317 3 751 619 32  20540 53165 
     6     8059966190659                                        716056214358106170264483063486208881193786 6 615 529 05  26580 11334 
 
     X     XXXXXXXXXXXXX                                        XXXXXXXXXXXXXXXXXXXXXXXXXXXXXXXXXXXXXXXXXX X XXX XXX XX  XXXXX XXXXX 
     X                                                          XXXX     X  X X  XX    X    X            X                           
     X                                                          XXXX     X  X X   X    X                 X                           
     X                                                           XX         X X   X    X                                             
                                                                 XX         X     X    X                                             
                                                                 X                X    X                                             
                                                                 X                X    X                                             
                                                                 X                X    X                                             
                                                                 X                X                                                  
                                                                 X                X                                                  
                                                                 X                X                                                  
                                                                 X                X                                                  
                                                                 X                X                                                  
                                                                 X                X                                                  
                                                                 X                                                                   
                                                                 X                                                                   
                                                                 X                                                                   
                                                                 X                                                                   
                                                                 X                                                                   
                                                                 X                                                                   
 
 ***** Axes restored to original set *****
 -------------------------------------------------------------------
 Center     Atomic                   Forces (Hartrees/Bohr)
 Number     Number              X              Y              Z
 -------------------------------------------------------------------
      1        6          -0.000020744    0.000005744   -0.000004062
      2        6           0.000005204   -0.000002847    0.000006135
      3        6          -0.000011255   -0.000001103    0.000002480
      4        6           0.000008974    0.000003815   -0.000001684
      5        6          -0.000004355    0.000000329   -0.000000568
      6        6           0.000008269    0.000004723    0.000001519
      7        1           0.000001653    0.000002873    0.000000298
      8        1          -0.000002426    0.000002756    0.000006652
      9        1           0.000000391    0.000000119    0.000002927
     10        1           0.000004557    0.000001614   -0.000003644
     11        8           0.000024463    0.000020748    0.000010377
     12        6          -0.000019883   -0.000027475    0.000005954
     13        1           0.000000925    0.000011907    0.000007394
     14        1          -0.000001043    0.000009765    0.000009712
     15        1           0.000002280    0.000008133    0.000008427
     16        6           0.000000494    0.000000946    0.000000391
     17        6          -0.000000884   -0.000006800   -0.000008212
     18        7           0.000008309   -0.000006330   -0.000004485
     19        6          -0.000009660    0.000000663   -0.000010382
     20        6           0.000000765   -0.000003216   -0.000000507
     21        1          -0.000001731   -0.000003614    0.000001348
     22        1           0.000000421    0.000001219    0.000000043
     23        1           0.000004069   -0.000004234   -0.000006525
     24        1           0.000003393   -0.000005980   -0.000006567
     25        1          -0.000002994   -0.000005309   -0.000004735
     26        1           0.000000372   -0.000005683   -0.000006861
     27        1           0.000000435   -0.000002763   -0.000005426
 -------------------------------------------------------------------
 Cartesian Forces:  Max     0.000027475 RMS     0.000007605
 FormGI is forming the generalized inverse of G from B-inverse, IUseBI=4.
 GSVD:  received Info=                   1 from GESDD.
 Leave Link  716 at Tue Jul  7 16:51:35 2026, MaxMem=  4026531840 cpu:               0.4 elap:               0.9
 (Enter /opt/packages/gaussian/g16RevC.01/g16/l103.exe)

 GradGradGradGradGradGradGradGradGradGradGradGradGradGradGradGradGradGrad
 Berny optimization.
 Red2BG is reusing G-inverse.
 Internal  Forces:  Max     0.000023602 RMS     0.000002850
 Search for a local minimum.
 Step number   1 out of a maximum of    2
 All quantities printed in internal units (Hartrees-Bohrs-Radians)
 Second derivative matrix not updated -- analytic derivatives used.
 ITU=  0
     Eigenvalues ---    0.00139   0.00464   0.00558   0.00792   0.00933
     Eigenvalues ---    0.01302   0.01533   0.01726   0.01781   0.01855
     Eigenvalues ---    0.02120   0.02189   0.02348   0.02894   0.02908
     Eigenvalues ---    0.03034   0.03373   0.03793   0.04185   0.04505
     Eigenvalues ---    0.04683   0.05660   0.06226   0.07090   0.07465
     Eigenvalues ---    0.08103   0.08760   0.08838   0.09524   0.09942
     Eigenvalues ---    0.11215   0.11653   0.11899   0.12482   0.13367
     Eigenvalues ---    0.13531   0.16908   0.18999   0.19135   0.19467
     Eigenvalues ---    0.19681   0.20122   0.21234   0.22486   0.23953
     Eigenvalues ---    0.25156   0.26721   0.27338   0.30105   0.31774
     Eigenvalues ---    0.32636   0.33979   0.34286   0.34511   0.34629
     Eigenvalues ---    0.34669   0.34700   0.35040   0.35609   0.35663
     Eigenvalues ---    0.35781   0.35945   0.36903   0.37161   0.37207
     Eigenvalues ---    0.37736   0.37790   0.41225   0.43609   0.46053
     Eigenvalues ---    0.46399   0.48010   0.52790   0.55593   0.60280
 Angle between quadratic step and forces=  78.33 degrees.
 Linear search not attempted -- first point.
 Iteration  1 RMS(Cart)=  0.00022556 RMS(Int)=  0.00000002
 Iteration  2 RMS(Cart)=  0.00000003 RMS(Int)=  0.00000000
 ITry= 1 IFail=0 DXMaxC= 1.15D-03 DCOld= 1.00D+10 DXMaxT= 3.00D-01 DXLimC= 3.00D+00 Rises=F
 Variable       Old X    -DE/DX   Delta X   Delta X   Delta X     New X
                                 (Linear)    (Quad)   (Total)
    R1        2.64159   0.00001   0.00000   0.00002   0.00002   2.64161
    R2        2.65498   0.00001   0.00000   0.00002   0.00002   2.65501
    R3        2.54440  -0.00001   0.00000  -0.00004  -0.00004   2.54436
    R4        2.61986  -0.00000   0.00000  -0.00001  -0.00001   2.61985
    R5        2.04641   0.00000   0.00000   0.00000   0.00000   2.04641
    R6        2.64941   0.00001   0.00000   0.00002   0.00002   2.64943
    R7        2.04908   0.00000   0.00000   0.00000   0.00000   2.04908
    R8        2.66629   0.00000   0.00000   0.00001   0.00001   2.66630
    R9        2.73288   0.00000   0.00000  -0.00000  -0.00000   2.73288
   R10        2.59988   0.00000   0.00000  -0.00000  -0.00000   2.59988
   R11        2.05106   0.00000   0.00000   0.00001   0.00001   2.05107
   R12        2.05081   0.00000   0.00000   0.00000   0.00000   2.05081
   R13        2.70260   0.00002   0.00000   0.00010   0.00010   2.70270
   R14        2.06740  -0.00000   0.00000  -0.00002  -0.00002   2.06738
   R15        2.06745  -0.00000   0.00000  -0.00002  -0.00002   2.06743
   R16        2.05933  -0.00000   0.00000  -0.00001  -0.00001   2.05932
   R17        2.83864   0.00000   0.00000   0.00002   0.00002   2.83866
   R18        2.45575  -0.00000   0.00000   0.00001   0.00001   2.45576
   R19        2.90531   0.00000   0.00000  -0.00001  -0.00001   2.90530
   R20        2.06237  -0.00000   0.00000  -0.00001  -0.00001   2.06236
   R21        2.07381   0.00000   0.00000   0.00001   0.00001   2.07382
   R22        2.77814  -0.00001   0.00000  -0.00002  -0.00002   2.77812
   R23        1.92138  -0.00000   0.00000  -0.00000  -0.00000   1.92138
   R24        2.89153   0.00000   0.00000  -0.00001  -0.00001   2.89152
   R25        2.06794   0.00000   0.00000   0.00001   0.00001   2.06795
   R26        2.06149   0.00000   0.00000  -0.00000  -0.00000   2.06149
   R27        2.06609  -0.00000   0.00000   0.00001   0.00001   2.06609
   R28        2.06138   0.00000   0.00000   0.00000   0.00000   2.06138
    A1        2.09594  -0.00000   0.00000  -0.00002  -0.00002   2.09592
    A2        2.16744   0.00000   0.00000   0.00001   0.00001   2.16745
    A3        2.01980   0.00000   0.00000   0.00002   0.00002   2.01982
    A4        2.08100   0.00000   0.00000   0.00001   0.00001   2.08101
    A5        2.11693  -0.00000   0.00000  -0.00001  -0.00001   2.11692
    A6        2.08525   0.00000   0.00000   0.00000   0.00000   2.08526
    A7        2.12032   0.00000   0.00000   0.00001   0.00001   2.12033
    A8        2.06574   0.00000   0.00000   0.00001   0.00001   2.06575
    A9        2.09713  -0.00000   0.00000  -0.00003  -0.00003   2.09710
   A10        2.06583  -0.00000   0.00000  -0.00002  -0.00002   2.06581
   A11        2.08048   0.00000   0.00000   0.00001   0.00001   2.08049
   A12        2.13687   0.00000   0.00000   0.00001   0.00001   2.13688
   A13        2.10613   0.00000   0.00000   0.00001   0.00001   2.10614
   A14        2.11626  -0.00000   0.00000  -0.00001  -0.00001   2.11625
   A15        2.06079  -0.00000   0.00000   0.00000   0.00000   2.06079
   A16        2.09713   0.00000   0.00000   0.00001   0.00001   2.09714
   A17        2.07499  -0.00000   0.00000  -0.00001  -0.00001   2.07498
   A18        2.11107  -0.00000   0.00000  -0.00000  -0.00000   2.11107
   A19        2.07838   0.00000   0.00000  -0.00001  -0.00001   2.07837
   A20        1.93173  -0.00000   0.00000  -0.00004  -0.00004   1.93169
   A21        1.93113  -0.00000   0.00000  -0.00005  -0.00005   1.93107
   A22        1.84146  -0.00000   0.00000  -0.00004  -0.00004   1.84142
   A23        1.92594   0.00001   0.00000   0.00007   0.00007   1.92601
   A24        1.91605   0.00000   0.00000   0.00003   0.00003   1.91608
   A25        1.91582   0.00000   0.00000   0.00003   0.00003   1.91586
   A26        2.19432   0.00000   0.00000   0.00003   0.00003   2.19436
   A27        2.18073  -0.00000   0.00000  -0.00001  -0.00001   2.18072
   A28        1.90777  -0.00000   0.00000  -0.00002  -0.00002   1.90774
   A29        1.81113  -0.00000   0.00000  -0.00003  -0.00003   1.81109
   A30        1.95375   0.00000   0.00000   0.00006   0.00006   1.95382
   A31        1.88047  -0.00000   0.00000  -0.00004  -0.00004   1.88043
   A32        1.97777   0.00000   0.00000   0.00003   0.00003   1.97781
   A33        1.96240  -0.00000   0.00000  -0.00004  -0.00004   1.96236
   A34        1.87696   0.00000   0.00000   0.00002   0.00002   1.87698
   A35        2.00820   0.00000   0.00000  -0.00001  -0.00001   2.00819
   A36        2.16285  -0.00000   0.00000  -0.00002  -0.00002   2.16283
   A37        2.10985   0.00000   0.00000   0.00003   0.00003   2.10988
   A38        1.78347   0.00000   0.00000  -0.00002  -0.00002   1.78345
   A39        1.89157   0.00000   0.00000   0.00001   0.00001   1.89158
   A40        1.91180   0.00000   0.00000   0.00004   0.00004   1.91184
   A41        1.97586  -0.00000   0.00000  -0.00003  -0.00003   1.97583
   A42        1.99372  -0.00000   0.00000   0.00001   0.00001   1.99373
   A43        1.90149  -0.00000   0.00000  -0.00001  -0.00001   1.90148
   A44        1.81867  -0.00000   0.00000  -0.00004  -0.00004   1.81864
   A45        1.91741   0.00000   0.00000  -0.00002  -0.00002   1.91740
   A46        1.96253   0.00000   0.00000   0.00003   0.00003   1.96256
   A47        1.91834  -0.00000   0.00000  -0.00002  -0.00002   1.91832
   A48        1.95451   0.00000   0.00000   0.00004   0.00004   1.95455
   A49        1.89171  -0.00000   0.00000  -0.00000  -0.00000   1.89170
    D1       -0.00561  -0.00000   0.00000  -0.00005  -0.00005  -0.00566
    D2        3.13891  -0.00000   0.00000  -0.00005  -0.00005   3.13886
    D3        3.13656   0.00000   0.00000   0.00001   0.00001   3.13657
    D4       -0.00211   0.00000   0.00000   0.00001   0.00001  -0.00210
    D5        0.00233   0.00000   0.00000   0.00004   0.00004   0.00237
    D6       -3.13885   0.00000   0.00000   0.00002   0.00002  -3.13883
    D7       -3.13979  -0.00000   0.00000  -0.00002  -0.00002  -3.13981
    D8        0.00221  -0.00000   0.00000  -0.00004  -0.00004   0.00218
    D9       -0.00459  -0.00000   0.00000  -0.00035  -0.00035  -0.00494
   D10        3.13756  -0.00000   0.00000  -0.00029  -0.00029   3.13727
   D11        0.00343   0.00000   0.00000   0.00002   0.00002   0.00345
   D12       -3.14127   0.00000   0.00000   0.00000   0.00000  -3.14127
   D13       -3.14103   0.00000   0.00000   0.00003   0.00003  -3.14101
   D14       -0.00255   0.00000   0.00000   0.00000   0.00000  -0.00255
   D15        0.00198   0.00000   0.00000   0.00001   0.00001   0.00199
   D16        3.13955   0.00000   0.00000   0.00002   0.00002   3.13957
   D17       -3.13645   0.00000   0.00000   0.00004   0.00004  -3.13641
   D18        0.00112   0.00000   0.00000   0.00004   0.00004   0.00117
   D19       -0.00533  -0.00000   0.00000  -0.00002  -0.00002  -0.00535
   D20        3.13609  -0.00000   0.00000   0.00001   0.00001   3.13610
   D21        3.14042  -0.00000   0.00000  -0.00003  -0.00003   3.14039
   D22       -0.00134   0.00000   0.00000  -0.00000  -0.00000  -0.00134
   D23       -0.00605   0.00000   0.00000   0.00018   0.00018  -0.00587
   D24       -3.11523   0.00000   0.00000   0.00016   0.00016  -3.11507
   D25        3.13135   0.00000   0.00000   0.00018   0.00018   3.13154
   D26        0.02217   0.00000   0.00000   0.00017   0.00017   0.02234
   D27        0.00321  -0.00000   0.00000  -0.00000  -0.00000   0.00321
   D28       -3.13880   0.00000   0.00000   0.00002   0.00002  -3.13878
   D29       -3.13822  -0.00000   0.00000  -0.00003  -0.00003  -3.13825
   D30        0.00295  -0.00000   0.00000  -0.00001  -0.00001   0.00294
   D31        1.07005   0.00000   0.00000   0.00026   0.00026   1.07032
   D32       -1.07048  -0.00000   0.00000   0.00024   0.00024  -1.07023
   D33       -3.14151   0.00000   0.00000   0.00025   0.00025  -3.14126
   D34        2.93388   0.00000   0.00000  -0.00019  -0.00019   2.93369
   D35        0.79491  -0.00000   0.00000  -0.00024  -0.00024   0.79466
   D36       -1.26526  -0.00000   0.00000  -0.00027  -0.00027  -1.26553
   D37       -0.23586   0.00000   0.00000  -0.00018  -0.00018  -0.23604
   D38       -2.37483  -0.00000   0.00000  -0.00023  -0.00023  -2.37506
   D39        1.84819  -0.00000   0.00000  -0.00026  -0.00026   1.84792
   D40        3.09262   0.00000   0.00000   0.00003   0.00003   3.09265
   D41        0.02333   0.00000   0.00000   0.00006   0.00006   0.02339
   D42       -0.02109  -0.00000   0.00000   0.00002   0.00002  -0.02107
   D43       -3.09038   0.00000   0.00000   0.00004   0.00004  -3.09034
   D44        0.38283  -0.00000   0.00000   0.00026   0.00026   0.38308
   D45       -1.67155  -0.00000   0.00000   0.00030   0.00030  -1.67125
   D46        2.50325  -0.00000   0.00000   0.00030   0.00030   2.50354
   D47        2.50584   0.00000   0.00000   0.00033   0.00033   2.50617
   D48        0.45146   0.00000   0.00000   0.00037   0.00037   0.45183
   D49       -1.65693   0.00000   0.00000   0.00037   0.00037  -1.65656
   D50       -1.64431   0.00000   0.00000   0.00035   0.00035  -1.64396
   D51        2.58450   0.00000   0.00000   0.00040   0.00040   2.58489
   D52        0.47611   0.00000   0.00000   0.00039   0.00039   0.47650
   D53        0.26808  -0.00000   0.00000   0.00015   0.00015   0.26823
   D54       -1.82237   0.00000   0.00000   0.00020   0.00020  -1.82218
   D55        2.38827   0.00000   0.00000   0.00017   0.00017   2.38844
   D56       -2.94342  -0.00000   0.00000   0.00013   0.00013  -2.94329
   D57        1.24932   0.00000   0.00000   0.00017   0.00017   1.24949
   D58       -0.82323  -0.00000   0.00000   0.00015   0.00015  -0.82308
   D59       -0.38603   0.00000   0.00000  -0.00025  -0.00025  -0.38628
   D60        1.66771   0.00000   0.00000  -0.00029  -0.00029   1.66742
   D61       -2.51176  -0.00000   0.00000  -0.00028  -0.00028  -2.51204
   D62        1.64433   0.00000   0.00000  -0.00026  -0.00026   1.64407
   D63       -2.58511   0.00000   0.00000  -0.00031  -0.00031  -2.58542
   D64       -0.48140   0.00000   0.00000  -0.00029  -0.00029  -0.48169
   D65       -2.44883  -0.00000   0.00000  -0.00029  -0.00029  -2.44912
   D66       -0.39508  -0.00000   0.00000  -0.00034  -0.00034  -0.39542
   D67        1.70863  -0.00000   0.00000  -0.00032  -0.00032   1.70830
         Item               Value     Threshold  Converged?
 Maximum Force            0.000024     0.000450     YES
 RMS     Force            0.000003     0.000300     YES
 Maximum Displacement     0.001150     0.001800     YES
 RMS     Displacement     0.000226     0.001200     YES
 Predicted change in Energy=-5.911155D-09
 Optimization completed.
    -- Stationary point found.
                           ----------------------------
                           !   Optimized Parameters   !
                           ! (Angstroms and Degrees)  !
 --------------------------                            --------------------------
 ! Name  Definition              Value          Derivative Info.                !
 --------------------------------------------------------------------------------
 ! R1    R(1,2)                  1.3979         -DE/DX =    0.0                 !
 ! R2    R(1,6)                  1.405          -DE/DX =    0.0                 !
 ! R3    R(1,11)                 1.3464         -DE/DX =    0.0                 !
 ! R4    R(2,3)                  1.3864         -DE/DX =    0.0                 !
 ! R5    R(2,8)                  1.0829         -DE/DX =    0.0                 !
 ! R6    R(3,4)                  1.402          -DE/DX =    0.0                 !
 ! R7    R(3,9)                  1.0843         -DE/DX =    0.0                 !
 ! R8    R(4,5)                  1.4109         -DE/DX =    0.0                 !
 ! R9    R(4,16)                 1.4462         -DE/DX =    0.0                 !
 ! R10   R(5,6)                  1.3758         -DE/DX =    0.0                 !
 ! R11   R(5,10)                 1.0854         -DE/DX =    0.0                 !
 ! R12   R(6,7)                  1.0852         -DE/DX =    0.0                 !
 ! R13   R(11,12)                1.4302         -DE/DX =    0.0                 !
 ! R14   R(12,13)                1.094          -DE/DX =    0.0                 !
 ! R15   R(12,14)                1.094          -DE/DX =    0.0                 !
 ! R16   R(12,15)                1.0898         -DE/DX =    0.0                 !
 ! R17   R(16,17)                1.5021         -DE/DX =    0.0                 !
 ! R18   R(16,18)                1.2995         -DE/DX =    0.0                 !
 ! R19   R(17,20)                1.5374         -DE/DX =    0.0                 !
 ! R20   R(17,21)                1.0914         -DE/DX =    0.0                 !
 ! R21   R(17,22)                1.0974         -DE/DX =    0.0                 !
 ! R22   R(18,19)                1.4701         -DE/DX =    0.0                 !
 ! R23   R(18,27)                1.0168         -DE/DX =    0.0                 !
 ! R24   R(19,20)                1.5301         -DE/DX =    0.0                 !
 ! R25   R(19,23)                1.0943         -DE/DX =    0.0                 !
 ! R26   R(19,24)                1.0909         -DE/DX =    0.0                 !
 ! R27   R(20,25)                1.0933         -DE/DX =    0.0                 !
 ! R28   R(20,26)                1.0908         -DE/DX =    0.0                 !
 ! A1    A(2,1,6)              120.0888         -DE/DX =    0.0                 !
 ! A2    A(2,1,11)             124.1853         -DE/DX =    0.0                 !
 ! A3    A(6,1,11)             115.7259         -DE/DX =    0.0                 !
 ! A4    A(1,2,3)              119.2323         -DE/DX =    0.0                 !
 ! A5    A(1,2,8)              121.2912         -DE/DX =    0.0                 !
 ! A6    A(3,2,8)              119.4763         -DE/DX =    0.0                 !
 ! A7    A(2,3,4)              121.4851         -DE/DX =    0.0                 !
 ! A8    A(2,3,9)              118.3579         -DE/DX =    0.0                 !
 ! A9    A(4,3,9)              120.1567         -DE/DX =    0.0                 !
 ! A10   A(3,4,5)              118.3634         -DE/DX =    0.0                 !
 ! A11   A(3,4,16)             119.2025         -DE/DX =    0.0                 !
 ! A12   A(5,4,16)             122.4337         -DE/DX =    0.0                 !
 ! A13   A(4,5,6)              120.6726         -DE/DX =    0.0                 !
 ! A14   A(4,5,10)             121.2528         -DE/DX =    0.0                 !
 ! A15   A(6,5,10)             118.0746         -DE/DX =    0.0                 !
 ! A16   A(1,6,5)              120.1567         -DE/DX =    0.0                 !
 ! A17   A(1,6,7)              118.888          -DE/DX =    0.0                 !
 ! A18   A(5,6,7)              120.9553         -DE/DX =    0.0                 !
 ! A19   A(1,11,12)            119.0825         -DE/DX =    0.0                 !
 ! A20   A(11,12,13)           110.6802         -DE/DX =    0.0                 !
 ! A21   A(11,12,14)           110.6453         -DE/DX =    0.0                 !
 ! A22   A(11,12,15)           105.5079         -DE/DX =    0.0                 !
 ! A23   A(13,12,14)           110.3483         -DE/DX =    0.0                 !
 ! A24   A(13,12,15)           109.7817         -DE/DX =    0.0                 !
 ! A25   A(14,12,15)           109.7686         -DE/DX =    0.0                 !
 ! A26   A(4,16,17)            125.7254         -DE/DX =    0.0                 !
 ! A27   A(4,16,18)            124.9465         -DE/DX =    0.0                 !
 ! A28   A(17,16,18)           109.3069         -DE/DX =    0.0                 !
 ! A29   A(16,17,20)           103.7699         -DE/DX =    0.0                 !
 ! A30   A(16,17,21)           111.9419         -DE/DX =    0.0                 !
 ! A31   A(16,17,22)           107.7432         -DE/DX =    0.0                 !
 ! A32   A(20,17,21)           113.318          -DE/DX =    0.0                 !
 ! A33   A(20,17,22)           112.4375         -DE/DX =    0.0                 !
 ! A34   A(21,17,22)           107.5418         -DE/DX =    0.0                 !
 ! A35   A(16,18,19)           115.0612         -DE/DX =    0.0                 !
 ! A36   A(16,18,27)           123.9222         -DE/DX =    0.0                 !
 ! A37   A(19,18,27)           120.8854         -DE/DX =    0.0                 !
 ! A38   A(18,19,20)           102.1855         -DE/DX =    0.0                 !
 ! A39   A(18,19,23)           108.3788         -DE/DX =    0.0                 !
 ! A40   A(18,19,24)           109.538          -DE/DX =    0.0                 !
 ! A41   A(20,19,23)           113.2085         -DE/DX =    0.0                 !
 ! A42   A(20,19,24)           114.2317         -DE/DX =    0.0                 !
 ! A43   A(23,19,24)           108.9474         -DE/DX =    0.0                 !
 ! A44   A(17,20,19)           104.2023         -DE/DX =    0.0                 !
 ! A45   A(17,20,25)           109.8597         -DE/DX =    0.0                 !
 ! A46   A(17,20,26)           112.4446         -DE/DX =    0.0                 !
 ! A47   A(19,20,25)           109.9127         -DE/DX =    0.0                 !
 ! A48   A(19,20,26)           111.9853         -DE/DX =    0.0                 !
 ! A49   A(25,20,26)           108.3867         -DE/DX =    0.0                 !
 ! D1    D(6,1,2,3)             -0.3215         -DE/DX =    0.0                 !
 ! D2    D(6,1,2,8)            179.8461         -DE/DX =    0.0                 !
 ! D3    D(11,1,2,3)           179.7117         -DE/DX =    0.0                 !
 ! D4    D(11,1,2,8)            -0.1206         -DE/DX =    0.0                 !
 ! D5    D(2,1,6,5)              0.1336         -DE/DX =    0.0                 !
 ! D6    D(2,1,6,7)           -179.8426         -DE/DX =    0.0                 !
 ! D7    D(11,1,6,5)          -179.8969         -DE/DX =    0.0                 !
 ! D8    D(11,1,6,7)             0.1268         -DE/DX =    0.0                 !
 ! D9    D(2,1,11,12)           -0.263          -DE/DX =    0.0                 !
 ! D10   D(6,1,11,12)          179.7689         -DE/DX =    0.0                 !
 ! D11   D(1,2,3,4)              0.1966         -DE/DX =    0.0                 !
 ! D12   D(1,2,3,9)           -179.9815         -DE/DX =    0.0                 !
 ! D13   D(8,2,3,4)           -179.9679         -DE/DX =    0.0                 !
 ! D14   D(8,2,3,9)             -0.1461         -DE/DX =    0.0                 !
 ! D15   D(2,3,4,5)              0.1135         -DE/DX =    0.0                 !
 ! D16   D(2,3,4,16)           179.883          -DE/DX =    0.0                 !
 ! D17   D(9,3,4,5)           -179.7052         -DE/DX =    0.0                 !
 ! D18   D(9,3,4,16)             0.0643         -DE/DX =    0.0                 !
 ! D19   D(3,4,5,6)             -0.3054         -DE/DX =    0.0                 !
 ! D20   D(3,4,5,10)           179.685          -DE/DX =    0.0                 !
 ! D21   D(16,4,5,6)           179.933          -DE/DX =    0.0                 !
 ! D22   D(16,4,5,10)           -0.0766         -DE/DX =    0.0                 !
 ! D23   D(3,4,16,17)           -0.3464         -DE/DX =    0.0                 !
 ! D24   D(3,4,16,18)         -178.4894         -DE/DX =    0.0                 !
 ! D25   D(5,4,16,17)          179.4133         -DE/DX =    0.0                 !
 ! D26   D(5,4,16,18)            1.2703         -DE/DX =    0.0                 !
 ! D27   D(4,5,6,1)              0.1841         -DE/DX =    0.0                 !
 ! D28   D(4,5,6,7)           -179.8401         -DE/DX =    0.0                 !
 ! D29   D(10,5,6,1)          -179.8066         -DE/DX =    0.0                 !
 ! D30   D(10,5,6,7)             0.1692         -DE/DX =    0.0                 !
 ! D31   D(1,11,12,13)          61.3094         -DE/DX =    0.0                 !
 ! D32   D(1,11,12,14)         -61.3337         -DE/DX =    0.0                 !
 ! D33   D(1,11,12,15)        -179.9953         -DE/DX =    0.0                 !
 ! D34   D(4,16,17,20)         168.0991         -DE/DX =    0.0                 !
 ! D35   D(4,16,17,21)          45.5448         -DE/DX =    0.0                 !
 ! D36   D(4,16,17,22)         -72.4939         -DE/DX =    0.0                 !
 ! D37   D(18,16,17,20)        -13.5137         -DE/DX =    0.0                 !
 ! D38   D(18,16,17,21)       -136.068          -DE/DX =    0.0                 !
 ! D39   D(18,16,17,22)        105.8933         -DE/DX =    0.0                 !
 ! D40   D(4,16,18,19)         177.1942         -DE/DX =    0.0                 !
 ! D41   D(4,16,18,27)           1.3367         -DE/DX =    0.0                 !
 ! D42   D(17,16,18,19)         -1.2085         -DE/DX =    0.0                 !
 ! D43   D(17,16,18,27)       -177.066          -DE/DX =    0.0                 !
 ! D44   D(16,17,20,19)         21.9343         -DE/DX =    0.0                 !
 ! D45   D(16,17,20,25)        -95.773          -DE/DX =    0.0                 !
 ! D46   D(16,17,20,26)        143.4254         -DE/DX =    0.0                 !
 ! D47   D(21,17,20,19)        143.574          -DE/DX =    0.0                 !
 ! D48   D(21,17,20,25)         25.8666         -DE/DX =    0.0                 !
 ! D49   D(21,17,20,26)        -94.935          -DE/DX =    0.0                 !
 ! D50   D(22,17,20,19)        -94.212          -DE/DX =    0.0                 !
 ! D51   D(22,17,20,25)        148.0807         -DE/DX =    0.0                 !
 ! D52   D(22,17,20,26)         27.2791         -DE/DX =    0.0                 !
 ! D53   D(16,18,19,20)         15.3596         -DE/DX =    0.0                 !
 ! D54   D(16,18,19,23)       -104.4142         -DE/DX =    0.0                 !
 ! D55   D(16,18,19,24)        136.8377         -DE/DX =    0.0                 !
 ! D56   D(27,18,19,20)       -168.6455         -DE/DX =    0.0                 !
 ! D57   D(27,18,19,23)         71.5806         -DE/DX =    0.0                 !
 ! D58   D(27,18,19,24)        -47.1675         -DE/DX =    0.0                 !
 ! D59   D(18,19,20,17)        -22.1179         -DE/DX =    0.0                 !
 ! D60   D(18,19,20,25)         95.5529         -DE/DX =    0.0                 !
 ! D61   D(18,19,20,26)       -143.9134         -DE/DX =    0.0                 !
 ! D62   D(23,19,20,17)         94.2133         -DE/DX =    0.0                 !
 ! D63   D(23,19,20,25)       -148.116          -DE/DX =    0.0                 !
 ! D64   D(23,19,20,26)        -27.5822         -DE/DX =    0.0                 !
 ! D65   D(24,19,20,17)       -140.3074         -DE/DX =    0.0                 !
 ! D66   D(24,19,20,25)        -22.6367         -DE/DX =    0.0                 !
 ! D67   D(24,19,20,26)         97.8971         -DE/DX =    0.0                 !
 --------------------------------------------------------------------------------
 GradGradGradGradGradGradGradGradGradGradGradGradGradGradGradGradGradGrad

 Leave Link  103 at Tue Jul  7 16:51:37 2026, MaxMem=  4026531840 cpu:               0.2 elap:               0.3
 (Enter /opt/packages/gaussian/g16RevC.01/g16/l9999.exe)

 ----------------------------------------------------------------------

 Electric dipole moment (input orientation):
 (Debye = 10**-18 statcoulomb cm , SI units = C m)
                  (au)            (Debye)         (10**-30 SI)
   Tot        0.286059D+01      0.727089D+01      0.242531D+02
   x          0.285255D+01      0.725047D+01      0.241850D+02
   y         -0.159512D+00     -0.405440D+00     -0.135240D+01
   z          0.143063D+00      0.363629D+00      0.121293D+01

 Dipole polarizability, Alpha (input orientation).
 (esu units = cm**3 , SI units = C**2 m**2 J**-1)
 Alpha(0;0):
               (au)            (10**-24 esu)      (10**-40 SI)
   iso        0.196253D+03      0.290817D+02      0.323578D+02
   aniso      0.155121D+03      0.229865D+02      0.255760D+02
   xx         0.290860D+03      0.431011D+02      0.479564D+02
   yx         0.124131D+02      0.183943D+01      0.204664D+01
   yy         0.182817D+03      0.270907D+02      0.301425D+02
   zx         0.190897D+01      0.282880D+00      0.314747D+00
   zy        -0.178784D+01     -0.264930D+00     -0.294775D+00
   zz         0.115082D+03      0.170534D+02      0.189745D+02

 ----------------------------------------------------------------------

 Dipole orientation:
     6         -0.19976603          0.25505149         -4.69483985
     6         -0.35121292         -2.02792118         -3.37457800
     6         -0.23620759         -2.00238545         -0.75736831
     6          0.02076071          0.26171070          0.59437892
     6          0.15758242          2.54568060         -0.77451698
     6          0.05298185          2.54326533         -3.37228911
     1          0.16232290          4.29441447         -4.43404762
     1         -0.55113384         -3.81227156         -4.35636446
     1         -0.35566925         -3.78860403          0.23956159
     1          0.34728139          4.34998393          0.18221963
     8         -0.28067478          0.44815766         -7.23061399
     6         -0.52635668         -1.79887480         -8.71200977
     1         -2.29541137         -2.77389628         -8.27164946
     1          1.08456493         -3.05684272         -8.40090205
     1         -0.54811932         -1.16671325        -10.67178909
     6          0.12633135          0.18032904          3.32400542
     6         -0.02980185         -2.16218334          4.91966476
     7          0.30799857          2.14660542          4.78395898
     6          0.26072112          1.59874967          7.50713241
     6          0.75159776         -1.25022154          7.56514604
     1          1.16926919         -3.67311536          4.18981077
     1         -1.98999494         -2.83671801          4.86191588
     1         -1.59935171          2.12038989          8.24496313
     1          1.69944890          2.72481772          8.46199846
     1          2.76340551         -1.61165254          7.86633341
     1         -0.30877406         -2.18562292          9.06511776
     1          0.35751058          3.95720771          4.14288406

 Electric dipole moment (dipole orientation):
 (Debye = 10**-18 statcoulomb cm , SI units = C m)
                  (au)            (Debye)         (10**-30 SI)
   Tot        0.286059D+01      0.727089D+01      0.242531D+02
   x          0.000000D+00      0.000000D+00      0.000000D+00
   y          0.000000D+00      0.000000D+00      0.000000D+00
   z          0.286059D+01      0.727089D+01      0.242531D+02

 Dipole polarizability, Alpha (dipole orientation).
 (esu units = cm**3 , SI units = C**2 m**2 J**-1)
 Alpha(0;0):
               (au)            (10**-24 esu)      (10**-40 SI)
   iso        0.196253D+03      0.290817D+02      0.323578D+02
   aniso      0.155121D+03      0.229865D+02      0.255760D+02
   xx         0.115822D+03      0.171630D+02      0.190965D+02
   yx         0.643704D+01      0.953871D+00      0.106132D+01
   yy         0.184033D+03      0.272708D+02      0.303429D+02
   zx         0.770680D+01      0.114203D+01      0.127068D+01
   zy         0.178492D+02      0.264498D+01      0.294294D+01
   zz         0.288905D+03      0.428113D+02      0.476339D+02

 ----------------------------------------------------------------------
 Unable to Open any file for archive entry.
 1\1\GINC-R190\Freq\RCAM-B3LYP\6-31+G(d)\C11H14N1O1(1+)\ZLAB\07-Jul-202
 6\0\\#P Geom=AllCheck Guess=TCheck SCRF=Check GenChk RCAM-B3LYP/6-31+G
 (d) Freq\\Ground-state geometry optimization (S0) with CAM-B3LYP\\1,1\
 C,-2.4758753781,0.2675050653,-0.0113081267\C,-1.8474081192,-0.98021690
 91,0.0361836593\C,-0.4623916515,-1.0407498378,0.0455143419\C,0.3215642
 355,0.1211240595,0.0124975605\C,-0.3329487865,1.3703974324,-0.02853432
 33\C,-1.7067686501,1.442846965,-0.0421588488\H,-2.2149100584,2.4011655
 638,-0.0762835514\H,-2.4210958045,-1.8982902114,0.0630444246\H,0.01027
 38323,-2.0159420841,0.0822290777\H,0.2277929388,2.2994508265,-0.050075
 2334\O,-3.8108361365,0.4419481882,-0.0300243721\C,-4.6624117827,-0.706
 7807798,-0.0058909525\H,-4.5069516279,-1.2837815108,0.9105057971\H,-4.
 4883385623,-1.3345337271,-0.8848458898\H,-5.6794635578,-0.3160265657,-
 0.0276186937\C,1.7626413142,0.0005988427,0.0266270288\C,2.534633367,-1
 .2867946578,0.0821232289\N,2.5932398344,1.0000368414,0.0274215319\C,4.
 0135547477,0.6293022151,0.1082719935\C,3.9780897562,-0.8617996418,-0.2
 33291212\H,2.1407668601,-2.0288388526,-0.6145155278\H,2.4303086967,-1.
 6959136671,1.0950662419\H,4.3653777207,0.8306269635,1.1247342505\H,4.5
 893156077,1.2355693049,-0.5924326105\H,4.1832899791,-1.0050035951,-1.2
 975975109\H,4.7136730475,-1.4293035856,0.3383519344\H,2.3070781775,1.9
 756333577,0.037755782\\Version=ES64L-G16RevC.01\State=1-A\HF=-557.1564
 787\RMSD=2.641e-09\RMSF=7.605e-06\ZeroPoint=0.2363256\Thermal=0.247830
 4\ETot=-556.9086483\HTot=-556.9077041\GTot=-556.9581615\Dipole=2.85255
 28,-0.1595124,0.1430625\DipoleDeriv=3.2140839,0.0436856,0.0321219,-0.3
 60785,0.4973496,-0.0132489,0.0385627,-0.0052431,0.2594573,-1.0614437,0
 .1023155,-0.0149231,0.8416276,-0.1963845,0.0074393,-0.0408517,-0.00517
 29,-0.2719331,1.0926799,0.0882764,0.0134085,0.5235534,0.1244174,-0.000
 3274,0.010396,-0.007017,-0.084398,-2.3053617,-0.1132543,-0.0334794,0.2
 748723,-0.2705725,0.0058718,-0.0012742,-0.0034043,-0.0975343,0.8451786
 ,-0.0286352,0.014293,-0.5625347,0.1049715,-0.016114,0.0081378,-0.00479
 ,-0.108814,-1.0590095,-0.1718962,-0.0048443,-0.730043,-0.1146049,-0.01
 27628,0.0167376,-0.0079947,-0.2418595,0.0733959,0.0650697,-0.0030984,0
 .0882795,0.0087314,0.007313,-0.0040004,0.0078382,0.207593,0.0702953,-0
 .0589439,0.0010206,-0.0823349,0.0466947,0.0054159,0.0004708,0.0062467,
 0.224071,0.1063715,0.073109,-0.0047994,0.0705438,0.0144875,0.0055629,-
 0.0006816,0.0025789,0.1791218,0.0501702,-0.1210343,0.0018118,-0.080299
 4,0.0207398,0.0045581,0.004881,0.0074793,0.1783794,-3.3575443,-0.36723
 63,-0.0235459,-0.1281409,-0.7299873,0.0077486,-0.0206127,0.0054626,-0.
 4163951,0.923758,0.3630243,-0.0045654,0.7421377,0.6954209,0.0008483,-0
 .0174201,-0.0047591,0.373006,0.0241601,0.0063863,-0.073346,-0.1541992,
 -0.0074184,0.0542369,-0.0010749,0.1041656,-0.0731268,0.0234685,0.01482
 4,0.0751788,-0.1547463,-0.0188174,-0.0623614,0.0121013,-0.107466,-0.06
 22052,-0.1272968,0.0077602,-0.0029391,0.0535103,0.0406955,0.0029235,-0
 .0041224,0.0024745,0.1249446,3.4164106,0.2679672,0.0479917,0.774799,1.
 0036777,-0.021396,-0.0010061,-0.063726,0.2835633,-0.0658541,0.0760671,
 -0.0099723,0.0993721,-0.2548058,0.0327839,-0.0728122,0.0938096,0.05989
 76,-1.6941953,-0.1901535,-0.028984,-1.2130629,-0.9378728,0.0046711,0.1
 489552,0.0786996,-0.3953858,0.7533152,-0.0106077,0.0377639,-0.3032909,
 0.1628644,-0.0226392,-0.0925657,-0.0593454,0.3194814,0.0130295,-0.0870
 782,0.0035959,0.002857,0.0103252,-0.0078221,-0.0255519,-0.0062144,0.16
 31155,0.0134345,-0.044602,-0.0385727,-0.0507662,0.0679831,-0.0437702,-
 0.0492329,-0.0712015,0.0775601,0.0120453,0.0396355,0.0335999,-0.006251
 9,0.0911187,0.0348864,0.0922492,0.0251823,-0.010329,-0.1069259,-0.0308
 609,-0.015251,0.0860639,0.0839359,-0.051528,-0.0622243,-0.0642373,-0.0
 730086,-0.0565521,-0.0457125,0.0187453,-0.0100165,0.0249441,0.0613048,
 0.0799124,0.0836246,0.0420129,0.0447321,-0.0006427,0.0272283,-0.002449
 4,0.0671969,-0.0203164,0.0754641,-0.0458397,-0.1246862,-0.0455434,0.07
 97608,-0.0459058,0.0998448,0.0425438,0.0380024,-0.0701312,0.0613326,0.
 0545699,0.2031976,0.0427763,-0.0025327,0.1814597,0.4223655,-0.0012804,
 -0.0243059,-0.0224832,0.412902\Polar=290.8603343,12.4131066,182.817034
 3,1.9089702,-1.7878385,115.0819735\Quadrupole=21.2689746,-3.6826549,-1
 7.5863197,9.2169851,0.62092,-0.2050328\PG=C01 [X(C11H14N1O1)]\NImag=0\
 \0.67243976,0.00431171,0.72063420,0.00495890,-0.01786834,0.17363996,-0
 .14952987,0.02148781,-0.00163169,0.73239323,0.08453943,-0.29970982,0.0
 0857251,0.04665640,0.73553267,-0.00352288,0.00835007,-0.07023300,0.002
 30121,-0.02057021,0.12636518,-0.03092740,0.09094309,-0.00321344,-0.364
 79938,-0.02982280,-0.00058911,0.72048422,0.03358001,0.03669956,-0.0010
 4088,0.04257453,-0.13460130,0.00277862,-0.03502640,0.74125455,-0.00162
 472,-0.00066314,-0.00002342,-0.00256420,0.00218900,-0.06265127,0.00460
 488,-0.02036474,0.15145865,0.02712661,-0.00755277,0.00055964,-0.045025
 14,-0.01169276,-0.00014242,-0.16675963,-0.11120634,0.00369743,0.674669
 63,-0.00875424,-0.07002794,0.00211997,-0.06359529,0.03472873,-0.001312
 65,-0.06560750,-0.27658356,0.00655575,0.00899367,0.69812134,0.00022724
 ,0.00177165,-0.00628341,0.00157496,-0.00070733,0.00937102,0.00180295,0
 .00598508,-0.06610589,0.00415945,-0.01667145,0.14497832,-0.04410406,-0
 .07500547,0.00211804,-0.04384903,0.02206664,-0.00083438,0.05646122,0.0
 1340397,-0.00028348,-0.14354411,0.04271829,-0.00232683,0.74310220,-0.0
 2030274,0.04907943,-0.00179078,0.03222762,-0.01850331,0.00068070,-0.02
 624779,-0.05792556,0.00199610,0.08685440,-0.27701866,0.00671385,0.0449
 4497,0.71676966,0.00046770,-0.00206537,0.00103351,-0.00130662,0.000741
 15,-0.00290347,0.00145017,0.00231547,0.00751209,-0.00396138,0.00619774
 ,-0.06645287,0.00348963,-0.01606480,0.14650564,-0.15016737,-0.04038544
 ,0.00053669,0.06105980,-0.02007566,0.00089241,-0.04842558,-0.02785341,
 0.00075490,-0.03767889,0.07245749,-0.00231168,-0.39493788,-0.01869189,
 -0.00225379,0.76348127,-0.10329934,-0.27916709,0.00571552,0.01196341,-
 0.04337440,0.00164184,-0.02024147,-0.01411660,0.00038688,0.01996518,0.
 02860621,-0.00023695,0.05068636,-0.13730560,0.00279362,-0.04908301,0.7
 2519617,0.00265292,0.00618316,-0.07141396,0.00007138,0.00159862,0.0084
 0606,0.00019879,0.00022019,-0.00305093,-0.00086507,-0.00024242,0.00880
 402,-0.00428179,0.00239516,-0.06147387,0.00684543,-0.01927460,0.129307
 16,0.01020784,-0.01667653,0.00057297,-0.00192894,-0.00284200,0.0000321
 1,-0.00079624,-0.00048096,0.00002369,-0.00455189,-0.00142573,-0.000084
 23,-0.01044443,0.02858031,-0.00099391,-0.12065287,0.11979439,-0.004487
 24,0.12419645,0.01386151,-0.01858126,0.00085419,-0.00346891,-0.0029910
 6,0.00020273,-0.00119383,0.00005509,-0.00003427,-0.00038030,0.00157577
 ,0.00018242,-0.00185592,0.00485143,-0.00005826,0.11888857,-0.28971199,
 0.00887076,-0.12816406,0.30238565,-0.00036761,0.00067474,0.00464393,0.
 00007971,0.00019229,0.00478862,-0.00001707,-0.00006238,-0.00068704,-0.
 00006193,0.00023375,0.00795696,0.00004892,0.00016400,0.00330381,-0.004
 54175,0.00881707,-0.03644758,0.00484332,-0.00969951,0.02543653,0.01326
 391,0.01303361,-0.00037713,-0.13968415,-0.13195465,0.00371235,-0.01337
 604,-0.02769372,0.00081748,-0.00444583,0.00193838,-0.00009878,-0.00058
 909,0.00058552,-0.00002685,-0.00154366,0.00280712,-0.00014709,0.000476
 57,0.00072710,-0.00001042,0.14992283,-0.01611928,-0.01786138,0.0006050
 1,-0.13188432,-0.27599029,0.00715395,0.00332840,0.00711364,-0.00011319
 ,0.00114352,0.00145028,0.00019908,0.00110086,-0.00014485,-0.00001107,0
 .00326687,-0.00319389,0.00031526,-0.00078826,-0.00077345,0.00000850,0.
 14185020,0.28583323,0.00062463,0.00073386,0.00358767,0.00371587,0.0071
 3095,-0.03470613,-0.00010372,-0.00023319,0.00271468,-0.00014549,0.0001
 1879,0.00724036,-0.00008213,0.00000636,-0.00054025,-0.00015498,0.00033
 646,0.00540279,0.00003788,0.00002988,-0.00021099,-0.00374112,-0.007975
 82,0.02476094,-0.00476472,-0.00144787,-0.00002819,-0.01035082,0.029167
 63,-0.00113963,-0.11620524,0.11399567,-0.00469414,0.01268251,-0.016284
 50,0.00066890,-0.00219221,-0.00307971,0.00012622,-0.00053593,-0.000270
 17,0.00002343,0.00009486,0.00009546,-0.00000588,0.00155440,-0.00014545
 ,0.00004245,0.12287267,-0.00117033,0.00130973,0.00025443,-0.00159706,0
 .00396103,0.00015519,0.11402353,-0.29867597,0.00965636,0.01227103,-0.0
 1732440,0.00074042,-0.00406458,-0.00234432,0.00020232,-0.00024210,0.00
 046755,-0.00006464,0.00010831,-0.00000829,-0.00001628,0.00007350,0.000
 89902,-0.00020515,-0.12281814,0.31115463,-0.00004456,0.00008856,0.0084
 4229,-0.00016645,0.00023582,0.00630793,-0.00439441,0.00983221,-0.04182
 066,-0.00042604,0.00037078,0.00400550,0.00001486,0.00033583,0.00555491
 ,0.00014497,-0.00002085,-0.00119840,0.00000442,-0.00001754,-0.00061682
 ,0.00004465,-0.00019003,-0.00479716,0.00453103,-0.01065259,0.02718056,
 -0.00390463,0.00237188,-0.00019436,-0.00045966,0.00013100,0.00000037,-
 0.00159198,0.00291285,-0.00014404,0.01367371,0.01251366,-0.00031513,-0
 .13834757,-0.12504160,0.00288561,-0.01349038,-0.02935711,0.00071287,0.
 00151690,0.00021588,0.00005936,0.00006735,-0.00010655,0.00001036,0.000
 52602,0.00064179,-0.00003494,0.14765543,0.00163367,0.00095233,0.000246
 30,0.00021226,0.00043519,-0.00004435,0.00410281,-0.00300856,0.00024164
 ,-0.01505091,-0.01676194,0.00048734,-0.12906345,-0.27421164,0.00554715
 ,0.00293070,0.00591716,0.00004728,-0.00006831,0.00087779,-0.00017885,-
 0.00010625,0.00001363,-0.00002194,-0.00081628,-0.00078625,0.00004175,0
 .13620505,0.28311756,-0.00018078,0.00028252,0.00910426,0.00003021,-0.0
 0003064,-0.00111943,-0.00016856,0.00021299,0.00535090,0.00067640,0.000
 69361,0.00335524,0.00310797,0.00550106,-0.04102283,-0.00022992,-0.0001
 7896,0.00636750,0.00006245,-0.00019395,-0.00528028,0.00001100,-0.00002
 676,-0.00075609,-0.00000865,0.00006729,0.00073877,-0.00208800,-0.00622
 739,0.02646517,-0.29043604,0.04712570,-0.00393283,-0.05038914,0.024241
 56,-0.00138857,0.01598857,0.00545796,0.00012100,-0.02997826,0.00531764
 ,-0.00010995,0.01672533,-0.00920149,0.00017331,-0.06861049,-0.01808114
 ,-0.00021693,0.00216556,0.00174261,-0.00001054,0.00045200,-0.00140422,
 0.00006876,-0.00129056,0.00020482,0.00001334,-0.00157212,-0.00025917,0
 .00003526,0.54235811,0.01073323,-0.12112375,0.00234978,0.04397914,0.00
 162532,0.00068811,-0.00540475,-0.00913689,0.00054782,0.00154526,0.0040
 1108,-0.00014959,0.00115409,-0.00897073,0.00043088,-0.04628815,0.01161
 145,-0.00057187,0.00041505,0.00180700,-0.00014063,-0.00187059,0.001345
 21,-0.00013422,0.00171368,0.00014320,-0.00002875,-0.00183395,0.0001968
 4,-0.00001542,0.07980829,0.35274253,-0.00293424,0.00271633,-0.04886130
 ,-0.00208479,0.00050079,0.01195753,0.00029465,0.00066617,0.00729883,-0
 .00026899,-0.00013935,-0.00086721,0.00001190,0.00035571,0.00454278,0.0
 0081255,-0.00026937,0.00668656,0.00002448,-0.00012190,-0.00272858,0.00
 008678,-0.00014454,-0.00247685,-0.00004750,-0.00006154,-0.00098573,0.0
 0004192,-0.00001247,-0.00008583,0.00266285,-0.00759799,0.07224262,-0.0
 4808852,-0.03112378,0.00042269,0.00519211,-0.00231792,-0.00001624,-0.0
 0326287,-0.00254679,0.00001511,0.00521705,-0.00023149,0.00000589,-0.00
 226132,-0.00032858,0.00001533,0.00157879,0.00489566,-0.00018808,0.0001
 4856,-0.00013113,0.00000866,-0.00278718,-0.00076996,-0.00001010,0.0003
 9886,-0.00006119,-0.00000300,-0.00009552,0.00014355,-0.00000411,-0.117
 13338,-0.04243813,0.00061296,0.58101544,-0.01297557,0.00919790,-0.0005
 6068,0.01117081,-0.00061479,0.00021425,-0.00450863,-0.00227130,-0.0000
 0800,0.00606441,0.00049516,-0.00002110,-0.00117018,0.00113423,0.000048
 51,0.00690879,0.00167677,0.00013139,-0.00004302,0.00015058,-0.00002563
 ,0.00098281,0.00003990,0.00001373,0.00030760,-0.00009251,0.00000869,0.
 00046098,0.00008098,-0.00002053,-0.07136464,-0.18549120,0.00297222,-0.
 09205903,0.51709423,-0.00006234,-0.00077593,-0.00535334,-0.00038395,0.
 00000184,-0.00117984,0.00009467,0.00003159,0.00057753,-0.00012252,0.00
 001396,-0.00003024,0.00001935,0.00000156,0.00159495,-0.00022967,0.0001
 0893,0.00393523,0.00000635,-0.00002443,-0.00058775,-0.00022660,0.00021
 286,-0.00106029,-0.00001149,0.00001039,0.00010661,-0.00000602,-0.00001
 569,-0.00047281,0.00137537,0.00327640,-0.06130735,0.00247817,0.0011384
 3,0.60674374,0.00479085,-0.00116118,0.00213298,-0.00028002,0.00108879,
 0.00050243,-0.00062235,-0.00034587,-0.00043072,-0.00019361,0.00071095,
 -0.00002057,0.00077689,-0.00051495,-0.00016830,-0.00127011,-0.00055546
 ,-0.00069479,0.00001784,0.00005498,0.00010671,-0.00128157,0.00011720,0
 .00081737,-0.00001201,0.00000364,0.00003729,-0.00002014,-0.00000364,0.
 00007669,-0.00323004,-0.02012147,0.02019697,-0.06200189,0.02728692,-0.
 04315225,0.06238990,0.00679101,-0.00038475,0.00061491,-0.00101595,0.00
 094281,-0.00025790,0.00065389,0.00027763,0.00005719,-0.00122214,0.0001
 8031,0.00001651,0.00061533,-0.00028726,-0.00019912,-0.00148309,-0.0005
 6869,-0.00045036,0.00002662,0.00007225,0.00011461,0.00021753,0.0001135
 4,-0.00001797,-0.00005078,0.00001638,-0.00002353,-0.00006491,-0.000013
 69,0.00005650,-0.00989427,-0.02659666,0.02284271,0.02332885,-0.1173948
 9,0.11177035,-0.01822398,0.13552187,-0.00116148,0.00035638,0.00079313,
 0.00032954,0.00080205,-0.00014465,-0.00043360,-0.00042966,-0.00016070,
 0.00036207,0.00004695,-0.00001379,-0.00016174,0.00000069,-0.00002321,0
 .00043984,0.00003874,-0.00024869,-0.00002790,-0.00002937,0.00001262,-0
 .00005015,-0.00066142,0.00021536,0.00000363,0.00000011,0.00001585,0.00
 001328,0.00000193,0.00001456,0.00454624,0.00125316,0.00686089,-0.03810
 166,0.11639965,-0.25179777,0.04017100,-0.12931603,0.26121832,0.0049230
 8,-0.00126369,-0.00194196,0.00013393,0.00092934,-0.00056044,-0.0006417
 2,-0.00030883,0.00044386,-0.00015817,0.00072002,-0.00001798,0.00077279
 ,-0.00050878,0.00020766,-0.00127471,-0.00051124,0.00070933,0.00001716,
 0.00004824,-0.00011102,-0.00143254,-0.00002612,-0.00109515,-0.00001215
 ,0.00000225,-0.00003334,-0.00001742,-0.00000751,-0.00007606,-0.0027661
 4,-0.02122079,-0.01921197,-0.06363955,0.03240633,0.04541159,0.00197973
 ,-0.00244261,-0.00536906,0.06370721,0.00697175,-0.00041416,-0.00039365
 ,-0.00123741,0.00095238,0.00011774,0.00069779,0.00028681,-0.00005190,-
 0.00127836,0.00017276,-0.00002204,0.00062515,-0.00027886,0.00020340,-0
 .00152279,-0.00055016,0.00044586,0.00002896,0.00006500,-0.00011621,0.0
 0038443,0.00018137,0.00023766,-0.00005267,0.00001932,0.00002228,-0.000
 06560,-0.00001740,-0.00005346,-0.00978295,-0.02790376,-0.02109378,0.02
 794063,-0.13032949,-0.11808478,-0.00241452,0.01213964,0.01309671,-0.02
 330057,0.15015948,0.00082320,-0.00030431,0.00079946,-0.00027319,-0.000
 77863,-0.00011707,0.00037722,0.00039296,-0.00015824,-0.00029793,-0.000
 04378,-0.00001021,0.00014641,0.00000272,-0.00002669,-0.00038120,-0.000
 03694,-0.00027245,0.00002705,0.00002761,0.00001548,-0.00000880,0.00064
 882,0.00017686,0.00000038,-0.00000005,0.00001302,-0.00001020,0.,0.0000
 1627,-0.00417801,0.00026311,0.00763619,0.04047564,-0.12251169,-0.23652
 038,0.00592752,-0.01491476,-0.01895226,-0.04294283,0.13499759,0.244244
 31,0.00225491,-0.00348808,0.00010914,-0.00024992,0.00001484,0.00000501
 ,0.00029101,0.00021997,-0.00000107,-0.00063245,0.00008027,0.00000059,0
 .00021551,-0.00047015,0.00000945,-0.00137208,0.00014671,-0.00002162,0.
 00002146,-0.00001931,0.00000087,0.00007966,-0.00001483,0.00000177,-0.0
 0004906,0.00000775,-0.00000002,-0.00011332,0.00000451,0.00000118,-0.02
 709263,0.00010109,-0.00027846,-0.29168984,0.09955649,-0.00525885,-0.00
 118398,0.00216717,-0.00034082,-0.00171533,0.00238126,0.00012660,0.3208
 8493,-0.00182628,-0.00416928,0.00011721,-0.00015679,-0.00092026,0.0000
 3767,0.00017326,0.00048913,-0.00000351,-0.00036565,0.00012501,-0.00000
 561,0.00023861,-0.00054375,0.00001558,-0.00159018,0.00027649,-0.000021
 52,0.00005241,-0.00001673,0.00000090,0.00042126,0.00070758,-0.00001918
 ,-0.00005205,0.00000305,0.00000155,-0.00013288,0.00000963,-0.00000128,
 -0.04104942,0.00497898,-0.00054631,0.11514219,-0.09438445,0.00235670,0
 .01404282,-0.00390418,-0.00157727,0.01544744,-0.00436059,0.00226567,-0
 .10062693,0.10171005,0.00007209,0.00010871,0.00056730,-0.00000509,0.00
 003385,0.00012574,-0.00000556,-0.00001247,0.00009936,0.00000433,-0.000
 00229,-0.00005685,-0.00000278,0.00000923,-0.00000293,0.00002672,0.0000
 0027,0.00022003,-0.00000126,0.00000017,0.00000179,-0.00000243,-0.00003
 138,-0.00014035,0.00000068,0.00000110,0.00003330,0.00000294,-0.0000014
 5,-0.00004127,0.00088943,-0.00011686,0.00060956,-0.00571679,0.00222598
 ,-0.05438790,-0.02557793,0.00969198,0.00217807,0.02467303,-0.00928884,
 0.00312824,0.00564819,-0.00261776,0.04767031,-0.02407195,0.00161500,-0
 .00036734,0.01596959,-0.01429639,0.00076198,-0.04788551,-0.02108907,-0
 .00009602,-0.23626551,0.02159199,-0.00186121,-0.04334297,0.02643822,-0
 .00069269,0.02041153,0.01347220,-0.00045272,0.00001471,-0.00064828,0.0
 0000129,0.00012355,0.00045838,0.00002086,0.00036260,0.00162087,-0.0000
 3448,-0.00009826,-0.00227172,-0.00003802,0.02693865,-0.00090874,0.0002
 4326,-0.00472993,-0.00556911,0.00012815,0.00022661,0.00108928,-0.00035
 032,0.00020445,0.00114197,0.00029213,0.00065468,0.00047431,-0.00000647
 ,0.74676736,-0.00445750,-0.00539912,0.00015477,-0.00294047,-0.00556615
 ,0.00054310,-0.03379083,0.00583100,-0.00064970,0.03428166,-0.12171345,
 0.00128466,0.02782697,0.01096102,-0.00036716,0.00781176,-0.00363273,0.
 00043182,0.00168655,0.00010705,0.00003392,-0.00131599,0.00035368,0.000
 00200,-0.00042208,-0.00009758,-0.00028058,-0.00076527,-0.00035512,-0.0
 0023581,0.00400237,0.00039109,-0.00004960,-0.00070073,-0.00069985,0.00
 001220,0.00009716,0.00017030,-0.00006636,0.00008772,0.00017510,0.00006
 077,0.00011009,0.00011260,-0.00000213,0.10750659,0.69948696,-0.0001996
 1,0.00007110,-0.00047471,0.00017085,0.00023626,0.00728321,0.00055671,-
 0.00063849,-0.00312145,-0.00182387,0.00217689,-0.06980247,-0.00173339,
 0.00005518,-0.00131380,0.00002676,0.00050789,0.00651465,-0.00004667,0.
 00002066,0.00075453,0.00003954,0.00002450,0.00093266,0.00008467,-0.000
 14093,-0.00405621,0.00003809,-0.00011133,-0.00336513,0.00022294,-0.000
 03278,-0.00070489,-0.00004115,-0.00006588,-0.00038634,0.00011291,0.000
 03402,0.00004259,-0.00011215,-0.00001200,0.00004297,0.00000594,0.00000
 163,-0.00001132,0.00739673,-0.00309926,0.21180822,0.00032438,0.0003237
 6,-0.00000777,0.00021796,0.00035664,-0.00003458,-0.00128679,0.00049542
 ,-0.00049270,-0.00927699,0.02299115,-0.00211224,-0.00325831,-0.0020672
 6,-0.00030280,-0.00044834,0.00107251,0.00008411,-0.00030874,-0.0000294
 3,0.00002969,0.00002668,-0.00002400,0.00000127,-0.00128059,0.00096826,
 -0.00011825,0.00007742,0.00005819,-0.00004391,-0.00047068,-0.00004813,
 0.00001294,0.00007415,0.00010516,-0.00001218,-0.00000551,-0.00001774,0
 .00000205,-0.00000721,-0.00002278,-0.00000120,-0.00001691,-0.00001219,
 -0.00000103,-0.11922450,0.06064899,-0.00177223,0.46853992,-0.00051599,
 -0.00081925,-0.00005562,-0.00035049,-0.00035644,-0.00020134,-0.0011079
 3,-0.00079924,-0.00018881,0.00867594,0.00604325,0.00010364,-0.00483814
 ,0.00133554,-0.00011550,0.00096274,0.00144384,-0.00002014,-0.00023415,
 0.00001264,0.00000340,-0.00006849,0.00001584,0.00000567,0.00011153,0.0
 0021157,0.00028257,0.00001301,0.00000805,-0.00002532,0.00056948,0.0000
 0283,0.00008043,-0.00009282,-0.00008665,-0.00000906,0.00001341,0.00002
 093,-0.00000864,0.00001310,0.00001912,0.00000964,0.00001002,0.00001080
 ,0.00000016,0.03959987,-0.16438506,-0.00172428,0.06313681,0.58075060,0
 .00082233,0.00057257,0.00005930,0.00007144,-0.00010837,-0.00047480,0.0
 0089191,0.00102606,-0.00228899,-0.00347922,0.00014322,0.00766406,0.001
 59226,-0.00086166,0.00377973,-0.00095776,-0.00075158,-0.00072733,0.000
 02752,-0.00000585,-0.00039988,0.00000002,-0.00001473,0.00004563,-0.000
 16467,-0.00048321,0.00110225,0.00004818,-0.00000777,-0.00002813,-0.000
 78194,-0.00005285,0.00014910,0.00013618,0.00015629,-0.00001105,-0.0000
 1101,-0.00003512,0.00001477,-0.00001290,-0.00002900,-0.00000971,-0.000
 01823,-0.00001509,0.00000053,0.00068781,-0.00401418,-0.08693116,0.0159
 7412,0.02819200,0.58710401,0.00889857,-0.00327966,0.00025058,-0.007907
 20,0.00321554,-0.00024720,0.00442398,0.01152434,-0.00018595,-0.0527304
 5,-0.03766709,-0.00001177,0.00918620,-0.00825729,0.00041557,-0.0047793
 5,-0.00391585,0.00023472,-0.00008940,0.00025354,-0.00001229,-0.0007405
 5,0.00002271,-0.00001100,0.00039060,-0.00019868,0.00001721,0.00050137,
 0.00077897,-0.00026271,-0.00990298,0.00050694,-0.00009826,0.00175803,0
 .00210101,-0.00005241,-0.00006619,-0.00040312,0.00010634,-0.00005734,-
 0.00042481,-0.00008489,-0.00025367,-0.00015641,0.00000120,-0.27583151,
 -0.18763325,-0.00063014,0.01146460,0.00050116,0.00166681,0.68241175,0.
 00832682,-0.00064511,0.00007273,-0.00515728,0.00498043,-0.00036268,0.0
 1174497,0.00650323,0.00011195,-0.03312668,0.01153680,0.00033721,0.0095
 8294,-0.00712231,0.00034682,-0.00668292,-0.00408650,-0.00000615,-0.000
 11602,0.00016343,-0.00000620,-0.00001163,-0.00012310,-0.00000539,0.000
 48233,-0.00000677,0.00006743,0.00124971,0.00089752,0.00057570,-0.00897
 211,0.00034847,-0.00004394,0.00160831,0.00181909,-0.00003710,-0.000085
 64,-0.00036846,0.00011421,-0.00007236,-0.00038376,-0.00009610,-0.00022
 170,-0.00015546,0.00000227,-0.15771386,-0.37368052,-0.00178352,-0.0106
 8201,-0.06049165,0.00293139,0.05442276,0.97297489,-0.00085512,0.000302
 66,-0.00018472,0.00069845,-0.00065994,-0.00077200,-0.00128839,-0.00040
 126,0.00339744,0.00224891,-0.00058599,0.01087865,-0.00023186,0.0005004
 5,0.00019633,0.00046566,0.00030560,-0.00059323,0.00000943,-0.00002038,
 0.00006236,0.00000131,0.00000467,-0.00029413,-0.00006006,0.00000723,0.
 00028639,-0.00009757,-0.00008433,0.00119454,0.00101228,-0.00005060,0.0
 0013596,-0.00018137,-0.00021079,0.00007748,-0.00001629,0.00003840,-0.0
 0002254,0.00002910,0.00004549,0.00000234,0.00002457,0.00001767,0.00000
 310,-0.00702377,-0.00646651,-0.06299912,0.00112473,0.00556007,0.013218
 93,0.01843829,0.00775387,0.11740186,-0.00180044,0.00036654,-0.00004010
 ,0.00142705,-0.00074161,0.00011662,-0.00203894,-0.00176523,-0.00006445
 ,0.00786174,0.00018817,-0.00029709,-0.00127940,0.00114682,0.00006198,0
 .00116508,0.00093938,-0.00003623,0.00005917,-0.00005074,-0.00000336,0.
 00007310,0.00002580,0.00001737,-0.00003965,0.00021062,-0.00003603,-0.0
 0038365,0.00045759,0.00004326,0.00197392,-0.00002698,0.00001400,-0.000
 35198,-0.00041877,0.00000383,0.00001856,0.00008122,-0.00002265,0.00001
 360,0.00008536,0.00001914,0.00005340,0.00003582,-0.00000095,-0.0525319
 9,-0.01998326,-0.00368100,-0.00911649,-0.02473660,-0.00881193,-0.18976
 860,0.01898365,-0.00754232,0.51505489,0.00147019,-0.00044580,0.0000662
 1,-0.00115503,0.00039237,0.00008129,-0.00012469,0.00139640,-0.00000397
 ,-0.00388461,-0.00514042,-0.00024364,0.00128486,-0.00138029,0.00000965
 ,-0.00077291,-0.00037874,0.00008545,-0.00003974,0.00003791,0.00000085,
 -0.00014407,-0.00000088,-0.00001006,-0.00000302,0.00000745,-0.00010078
 ,-0.00001478,0.00030819,-0.00003169,-0.00163144,0.00009142,-0.00005298
 ,0.00028729,0.00034234,-0.00000789,-0.00001121,-0.00006578,0.00001670,
 -0.00001149,-0.00006936,-0.00001267,-0.00004073,-0.00002444,0.00000029
 ,-0.01748039,0.01459350,-0.00167794,-0.01541908,-0.02139379,-0.0005474
 1,0.02401963,-0.11224173,0.00173844,0.09780866,0.52941702,0.00059263,-
 0.00017716,0.00020706,-0.00039928,0.00035793,-0.00093083,0.00062501,0.
 00045262,0.00122120,-0.00102316,0.00042518,0.00905804,0.00032542,-0.00
 047641,-0.00041915,-0.00028678,-0.00026557,0.00003652,-0.00000086,0.00
 001460,-0.00004839,-0.00000526,-0.00001285,-0.00015969,0.00001692,-0.0
 0003427,0.00036043,-0.00002909,0.00006782,-0.00019144,-0.00073725,0.00
 003163,-0.00001195,0.00013029,0.00015756,0.00001778,-0.00001583,-0.000
 02507,0.00000388,0.00000807,-0.00003503,-0.00001604,-0.00001707,-0.000
 01150,0.00000309,0.00292532,0.00243934,0.00196376,-0.00065915,0.006547
 74,-0.00280342,-0.01098910,-0.00150981,-0.07071639,-0.01142722,-0.0240
 1150,0.62791855,0.00017026,-0.00004209,-0.00002572,-0.00010290,-0.0000
 4562,0.00006220,0.00069011,0.00026441,-0.00004184,0.00041007,0.0021998
 2,-0.00000635,-0.00080184,-0.00010779,0.00007893,-0.00007766,0.0000764
 7,-0.00006852,-0.00005301,-0.00000070,-0.00000815,-0.00001497,0.000002
 03,0.00001065,-0.00002789,-0.00014236,-0.00004299,0.00007233,-0.000139
 50,0.00003124,-0.00019724,-0.00001910,0.00000346,0.00002773,0.00004261
 ,0.00000198,-0.00000150,-0.00000829,0.00000193,-0.00000183,-0.00000763
 ,0.00000024,-0.00000595,-0.00000496,0.00000034,-0.03466183,0.01377804,
 0.00411782,-0.17178733,-0.02521172,0.02212038,-0.01453964,0.03263461,0
 .00720865,-0.07439464,-0.01369862,-0.00028727,0.54194496,-0.00025687,-
 0.00016106,-0.00001045,0.00001577,0.00020624,-0.00008080,-0.00036237,-
 0.00065697,-0.00005555,0.00012020,-0.00478604,0.00053741,0.00110868,0.
 00027843,0.00035048,0.00028443,-0.00026293,-0.00008266,0.00011082,-0.0
 0000091,-0.00003225,0.00002535,0.00000399,0.00001420,-0.00018014,0.000
 27530,0.00004473,-0.00004937,0.00007892,0.00001413,0.00018879,0.000042
 40,0.00002896,-0.00002915,-0.00003785,-0.00000231,0.00000443,0.0000073
 7,-0.00000118,0.00000396,0.00000792,0.00000064,0.00000617,0.00000504,-
 0.00000037,0.02115440,0.00593381,-0.00618288,-0.03368231,-0.08564885,0
 .00269703,0.01988304,-0.03088807,-0.00196781,0.00213400,-0.18771242,-0
 .02689205,-0.09263403,0.50296971,0.00011699,-0.00015614,0.00004785,-0.
 00021299,0.00013805,0.00010983,-0.00015840,-0.00006476,-0.00001095,-0.
 00008371,0.00087753,0.00117934,-0.00046328,0.00004576,0.00038390,-0.00
 002737,0.00013907,-0.00014482,-0.00004595,0.00000528,-0.00004427,-0.00
 002500,0.00000041,0.00000086,0.00009267,0.00018390,-0.00021540,0.00005
 168,-0.00004133,0.00002397,-0.00018084,0.00002066,-0.00004324,0.000027
 41,0.00004073,0.00001186,-0.00000214,-0.00001033,-0.00000099,0.0000003
 2,-0.00000568,0.00000060,-0.00000614,-0.00000371,0.00000125,-0.0033684
 2,0.00102420,0.00118487,0.02513682,0.00584043,-0.08907098,-0.00260802,
 0.00436612,0.00212740,0.00095712,-0.03259392,-0.09497634,0.02425534,-0
 .01588518,0.61843608,0.00032403,0.00025081,0.00004813,-0.00000649,0.00
 005181,0.00032164,-0.00175351,0.00092038,0.00045227,-0.00134639,-0.000
 33127,-0.00056565,0.00066816,-0.00039247,-0.00046359,-0.00043922,-0.00
 032222,0.00013163,0.00001058,0.00000594,0.00004067,0.00000100,-0.00000
 966,-0.00001436,-0.00205202,0.00011108,0.00059418,0.00003929,-0.000029
 99,0.00002836,-0.00032857,-0.00001609,-0.00010477,0.00005396,0.0000605
 1,0.00001601,-0.00000416,-0.00001294,0.00000391,-0.00000615,-0.0000130
 6,-0.00000419,-0.00000727,-0.00000723,-0.00000028,0.00993888,0.0088315
 2,0.01604145,-0.08629773,-0.06595322,-0.06619617,-0.00145727,0.0038620
 2,-0.00144169,-0.00555808,0.00043747,0.00153079,-0.00845258,-0.0206778
 8,-0.01743644,0.09364015,-0.00009301,0.00014612,0.00004746,0.00019724,
 0.00014404,0.00011872,-0.00016537,-0.00035635,0.00013610,-0.00045367,0
 .00039318,0.00060573,0.00009056,-0.00010678,0.00045377,-0.00007973,0.0
 0003156,-0.00012299,0.00000352,-0.00000415,-0.00004863,0.00000140,-0.0
 0000314,0.00000103,-0.00037539,0.00074552,0.00008861,-0.00004046,0.000
 04802,0.00001976,0.00001364,0.00000864,-0.00003944,-0.00000263,-0.0000
 0313,0.00000608,-0.00000150,0.00000028,-0.00000178,-0.00000125,0.00000
 319,0.00000198,-0.00000057,0.,-0.00000011,-0.01108103,-0.01870905,-0.0
 1773651,-0.06541873,-0.17576612,-0.12419587,0.00204389,-0.00337808,0.0
 0017990,-0.00004789,-0.00100663,-0.00065363,-0.00131396,-0.00231104,-0
 .00210974,0.07335312,0.19032396,-0.00000731,-0.00001126,0.00001215,-0.
 00002234,0.00028997,0.00004890,-0.00051132,-0.00062979,0.00043581,0.00
 012761,-0.00036159,0.00006216,0.00010476,0.00002963,-0.00004228,-0.000
 04339,0.00003242,-0.00000185,-0.00000016,0.00000528,0.00000227,-0.0000
 0904,-0.00000212,0.00000937,0.00059871,0.00058869,-0.00004383,-0.00000
 843,0.00002456,0.00001848,-0.00009720,0.00003830,-0.00003362,0.0000180
 0,0.00001949,0.00000696,-0.00000173,-0.00000490,-0.00000265,-0.0000013
 7,-0.00000339,0.00000223,-0.00000441,-0.00000112,-0.00000013,0.0011695
 5,0.00497786,0.00181811,-0.06460441,-0.12841500,-0.16535057,-0.0001539
 6,0.00022268,-0.00000133,0.00221516,0.00123782,0.00049267,0.00314388,0
 .00758042,0.00534615,0.06768240,0.13353231,0.17424660,0.00067448,0.000
 39005,-0.00000795,-0.00006764,0.00003590,-0.00010942,0.00019498,0.0007
 0609,-0.00031188,-0.00215831,0.00060648,0.00113740,0.00082739,-0.00067
 060,0.00072264,-0.00076773,-0.00042799,-0.00017244,-0.00001308,0.00000
 939,-0.00007244,-0.00001784,-0.00001115,0.00000094,-0.00036970,-0.0000
 8497,-0.00009427,0.00005346,-0.00000581,0.00000894,-0.00068365,-0.0000
 1728,0.00003473,0.00011460,0.00013121,-0.00000733,-0.00001171,-0.00002
 851,0.00000842,-0.00000974,-0.00002715,-0.00000614,-0.00001700,-0.0000
 1341,0.00000106,0.00328622,0.00435216,-0.01915115,-0.04820034,-0.00586
 830,0.01902316,-0.00097035,0.00130409,0.00095012,-0.00059117,-0.000510
 53,-0.00000175,-0.00326010,-0.00913664,0.02908948,0.00091008,0.0043574
 1,-0.00967201,0.05315551,-0.00017861,0.00018740,-0.00002374,0.00030763
 ,-0.00015459,0.00005814,-0.00021157,0.00014100,0.00019071,-0.00002213,
 0.00001156,-0.00108045,0.00007797,-0.00007334,-0.00067413,0.00000772,0
 .00002479,0.00014661,0.00001142,-0.00000596,0.00007521,0.00000895,0.00
 000014,-0.00000504,0.00013032,-0.00001229,-0.00011103,-0.00004581,0.00
 002876,0.00000729,0.00018051,-0.00002193,-0.00001781,-0.00003529,-0.00
 003857,0.00000167,0.00000115,0.00000915,-0.00000254,0.,0.00000822,0.00
 000107,0.00000482,0.00000293,-0.00000014,-0.00253468,-0.01380336,0.028
 80876,-0.00890038,-0.08372463,0.09353075,0.00186392,-0.00236568,-0.000
 91585,0.00034216,-0.00048046,0.00104814,0.00057447,-0.00165066,0.00501
 296,0.00128475,0.01038713,-0.02055394,0.00756973,0.09052387,-0.0002787
 8,-0.00016161,0.00004168,-0.00000982,-0.00014708,0.00015565,-0.0000089
 7,-0.00001389,0.00029395,0.00118516,0.00025108,0.00019586,-0.00058168,
 0.00035279,-0.00005980,0.00036881,0.00020995,0.00000216,-0.00000367,-0
 .00000651,0.00000302,0.00000655,0.00000715,-0.00000662,-0.00000103,-0.
 00020430,-0.00026784,-0.00001012,-0.00001083,0.00002347,0.00034404,-0.
 00001081,-0.00005503,-0.00005776,-0.00006605,0.00001092,0.00000464,0.0
 0001226,-0.00000256,0.00000496,0.00001497,0.00000173,0.00000886,0.0000
 0625,-0.00000009,-0.00196322,0.00306323,-0.00012558,0.02089882,0.09126
 392,-0.27683870,-0.00139406,-0.00139851,0.00019006,0.00101744,0.000178
 73,-0.00004634,0.00140883,0.00017456,-0.00323278,0.00117868,0.00815875
 ,-0.01824157,-0.02293815,-0.10243229,0.29660824,0.00093315,-0.00024373
 ,0.00005231,-0.00070948,0.00040983,-0.00021061,0.00066851,0.00081761,0
 .00025849,-0.00265322,-0.00060409,0.00199291,0.00060406,-0.00073004,-0
 .00005004,-0.00055092,-0.00035501,-0.00000224,-0.00003242,0.00002510,-
 0.00001235,-0.00005078,-0.00000867,-0.00003885,0.00003056,-0.00001110,
 0.00006759,0.00008475,-0.00000958,-0.00003329,-0.00107837,0.00004239,-
 0.00000865,0.00018754,0.00022726,0.00000163,-0.00001139,-0.00004373,0.
 00001098,-0.00000371,-0.00004606,-0.00001120,-0.00002760,-0.00001802,0
 .00000093,0.00256007,0.00583350,-0.00224333,-0.00007651,0.00007171,-0.
 00051264,-0.02692199,-0.00833698,-0.03305123,-0.07218637,-0.01656797,-
 0.07056838,0.00078109,0.00107297,0.00211743,0.00034116,-0.00025559,0.0
 0000582,-0.00003164,0.00003134,0.00001665,0.08852730,-0.00045403,0.000
 09185,-0.00005353,0.00030192,-0.00022075,0.00001234,-0.00036870,-0.000
 38493,-0.00009508,0.00112099,0.00017497,-0.00032063,-0.00030833,0.0003
 4981,0.00007693,0.00027597,0.00020079,-0.00005769,0.00000992,-0.000011
 74,0.00000011,0.00001686,0.00000599,0.00001564,-0.00000628,0.00002880,
 0.00004500,-0.00002171,-0.00000822,0.00003388,0.00054194,-0.00001890,0
 .00002925,-0.00009363,-0.00011337,0.00000169,0.00000442,0.00002143,-0.
 00000626,0.00000330,0.00002330,0.00000583,0.00001345,0.00000924,-0.000
 00004,-0.00181696,-0.00252246,0.00031601,-0.00040181,-0.00013734,-0.00
 082253,0.00676706,0.00530463,0.00976968,-0.01717561,-0.06166766,-0.044
 88227,-0.00659997,-0.00402638,-0.02946438,-0.00073219,-0.00016795,0.00
 045031,0.00010215,0.00009252,0.00024677,0.01416970,0.06184306,0.000030
 75,-0.00002963,-0.00000259,-0.00005808,0.00001904,0.00004758,0.0001086
 0,0.00006365,-0.00003874,-0.00038376,-0.00003469,-0.00042287,0.0000548
 6,-0.00005833,0.00002431,-0.00001910,0.00000279,-0.00000593,-0.0000033
 3,0.00000044,-0.00000146,-0.00000183,0.00000114,0.00000223,0.00001132,
 0.00000308,-0.00001458,0.00001341,-0.00001250,-0.00000158,-0.00000717,
 0.00000212,-0.00000048,0.00000438,0.00000187,-0.00000166,0.00000044,-0
 .00000120,0.00000047,-0.00000075,-0.00000065,0.00000051,-0.00000091,0.
 00000009,-0.00000017,0.00106510,0.00116385,0.00062399,-0.00028489,-0.0
 0091168,-0.00012974,-0.00307125,0.00172381,0.00542465,-0.07657688,-0.0
 4482431,-0.29265078,0.00046080,-0.00109797,-0.00341303,-0.00010780,0.0
 0003968,-0.00003853,-0.00023219,-0.00005970,-0.00030102,0.08592427,0.0
 4941991,0.30701138,0.00064915,-0.00017923,-0.00001583,-0.00050676,0.00
 022373,0.00012041,0.00024938,0.00060254,-0.00025326,-0.00174459,-0.001
 08231,-0.00129046,0.00041425,-0.00049415,0.00009372,-0.00036827,-0.000
 21098,0.00001467,-0.00002844,0.00001816,0.00000581,-0.00005183,-0.0000
 0118,0.00002846,0.00002186,-0.00001040,-0.00004216,0.00006649,-0.00000
 329,0.00000830,-0.00073725,0.00002971,-0.00000601,0.00012852,0.0001551
 0,-0.00000847,-0.00000321,-0.00003011,0.00000869,-0.00000733,-0.000031
 24,-0.00000506,-0.00001920,-0.00001197,-0.00000022,-0.00147267,0.00413
 971,0.00156145,-0.00109077,0.00067357,0.00114522,-0.02673835,-0.021109
 76,0.02060502,-0.12231373,-0.07486820,0.08919993,0.00395789,0.00090084
 ,-0.00248161,0.00023880,-0.00010310,-0.00005182,0.00014642,-0.00032898
 ,-0.00012002,0.00815080,0.00588182,-0.00622393,0.14021175,-0.00029093,
 0.00010048,0.00002356,0.00022196,-0.00012617,-0.00003474,-0.00021600,-
 0.00027325,0.00010529,0.00063495,0.00051377,0.00062784,-0.00019498,0.0
 0017539,-0.00010162,0.00013184,0.00012984,0.00001153,0.00000255,-0.000
 00781,0.00000224,0.00001585,0.00000174,-0.00001622,-0.00000188,0.00005
 580,-0.00002776,-0.00000743,-0.00001932,-0.00000449,0.00035865,-0.0000
 1439,-0.00000982,-0.00006123,-0.00007611,0.00000587,0.00000086,0.00001
 439,-0.00000536,0.00000294,0.00001471,0.00000329,0.00000832,0.00000592
 ,0.00000022,0.00076099,-0.00253916,-0.00008567,0.00091199,-0.00431025,
 -0.00090966,0.00940791,0.00963875,-0.00947215,-0.08230764,-0.13880792,
 0.10418689,-0.01632695,-0.01301031,0.01743266,-0.00100817,-0.00019426,
 0.00029125,-0.00070801,-0.00011071,0.00007107,0.00333362,0.00439347,-0
 .00393444,0.08595231,0.14382055,-0.00007813,0.00001811,-0.00000226,0.0
 0004139,-0.00005163,0.00004866,-0.00014522,-0.00007304,-0.00001573,0.0
 0013538,-0.00014183,-0.00033191,-0.00004218,0.00006212,-0.00002147,0.0
 0004218,0.00004312,0.00000902,0.00000041,-0.00000183,0.00000149,-0.000
 00201,0.00000106,0.00000063,-0.00000381,0.00001733,-0.00003215,0.00000
 215,0.00000065,0.00000369,0.00009605,-0.00000282,-0.00000546,-0.000017
 64,-0.00002041,0.00000121,0.00000084,0.00000391,-0.00000140,0.00000031
 ,0.00000422,0.00000150,0.00000256,0.00000151,-0.00000002,-0.00141877,-
 0.00076824,0.00020849,-0.00067924,-0.00210854,0.00058047,-0.00322892,-
 0.00373139,0.00529087,0.09829624,0.10487122,-0.17563775,-0.00638375,-0
 .00581119,0.00598200,-0.00019180,-0.00003929,-0.00001733,-0.00041546,-
 0.00015652,-0.00006263,0.01552200,0.01647634,-0.01789548,-0.10184153,-
 0.10831521,0.17995393,0.00013526,0.00004351,0.00000884,-0.00003327,0.0
 0002457,-0.00000768,0.00008708,0.00009873,-0.00001966,-0.00032743,0.00
 048366,-0.00029199,-0.00000044,-0.00014038,-0.00008099,-0.00014324,-0.
 00001787,0.00002638,-0.00001756,0.00000334,0.00000996,-0.00000990,-0.0
 0000198,0.00000134,0.00005879,0.00001428,0.00002837,0.00001209,0.00000
 140,-0.00000960,-0.00015090,-0.00000077,-0.00000294,0.00002555,0.00003
 151,-0.00000229,-0.00000124,-0.00000599,0.00000095,-0.00000259,-0.0000
 0709,-0.00000141,-0.00000434,-0.00000258,-0.00000025,-0.00023940,-0.00
 193400,0.00097455,-0.00742388,0.00221783,0.03068216,-0.00004476,0.0004
 2243,-0.00039803,0.00015247,-0.00190939,-0.00283795,-0.06032503,0.0099
 7308,0.04594784,0.00211342,0.00021789,-0.00006348,-0.00482138,-0.00016
 503,0.00115819,0.00077794,-0.00126975,-0.00030881,0.00049964,0.0001171
 8,-0.00036920,0.06389121,-0.00000340,0.00006358,-0.00000245,0.00005774
 ,-0.00002403,-0.00000450,-0.00003031,0.00000955,-0.00002176,-0.0000487
 9,0.00021017,-0.00012348,0.00003696,-0.00005548,-0.00001785,-0.0000418
 7,0.00000447,0.00000617,-0.00000175,-0.00000121,0.00000495,0.00000096,
 -0.00000073,0.00000054,0.00002005,0.00000757,0.00001166,-0.00000737,0.
 00001473,-0.00000131,0.00001146,-0.00000432,0.00000231,-0.00000164,-0.
 00000306,-0.00000033,-0.00000083,0.00000026,-0.00000007,-0.00000049,0.
 00000094,-0.00000007,0.00000030,0.00000010,-0.00000011,-0.00029398,-0.
 00152708,0.00072636,-0.00380497,0.00101089,0.01074502,-0.00063251,-0.0
 0029656,-0.00024951,0.00400942,-0.00649710,-0.03384164,0.01008984,-0.0
 5455185,-0.03118608,0.00045009,0.00058111,0.00039321,-0.00265048,0.000
 40355,0.00065191,0.00108372,-0.00517840,-0.00131756,-0.00007898,0.0020
 9110,0.00005546,-0.00420037,0.06043529,-0.00011767,0.00001785,-0.00000
 654,0.00007794,-0.00005124,0.00000873,-0.00008077,-0.00006271,0.000016
 98,0.00024034,-0.00014745,-0.00010251,-0.00001262,0.00006857,-0.000000
 06,0.00007696,0.00002357,0.00001461,0.00001044,-0.00000338,-0.00000110
 ,0.00000910,0.00000109,-0.00000022,-0.00002357,-0.00001845,-0.00001291
 ,-0.00001476,0.00000392,-0.00000229,0.00013949,-0.00000381,0.00000158,
 -0.00002440,-0.00003069,-0.00000092,0.00000129,0.00000588,-0.00000121,
 0.00000107,0.00000649,0.00000166,0.00000421,0.00000226,-0.00000010,-0.
 00009367,0.00019124,-0.00014428,0.00083152,0.00025127,-0.00393226,0.00
 050198,-0.00032431,-0.00008015,-0.00049966,-0.00074424,-0.00502549,0.0
 4791605,-0.03342766,-0.31246352,-0.00028537,0.00012510,0.00139473,0.00
 122508,-0.00007967,0.00098427,0.00036887,-0.00136569,0.00099485,-0.000
 17370,0.00030110,0.00151279,-0.05316066,0.03731761,0.33182363,0.000285
 36,-0.00002117,0.00000883,-0.00016448,0.00009137,0.00000876,0.00018250
 ,0.00019614,-0.00000577,-0.00034802,0.00142314,0.00006512,-0.00029460,
 -0.00026795,0.00002603,-0.00019682,0.00005199,-0.00001290,-0.00004948,
 0.00000606,-0.00000262,-0.00002421,-0.00000261,-0.00000011,0.00009720,
 0.00004575,-0.00002588,0.00003006,-0.00000310,-0.00000299,-0.00032294,
 0.00000356,-0.00000434,0.00005632,0.00006940,-0.00000273,-0.00000341,-
 0.00001352,0.00000297,-0.00000299,-0.00001370,-0.00000204,-0.00000959,
 -0.00000575,0.00000005,-0.00429376,-0.00222229,0.00020697,-0.01736968,
 0.01511880,-0.01385897,-0.00023712,-0.00051786,-0.00007215,0.00248018,
 -0.00258735,0.00220382,-0.17401812,0.09847306,-0.09943975,-0.00123131,
 -0.00018017,0.00012307,0.00232964,0.00036874,-0.00017005,0.00072617,0.
 00015878,0.00023141,-0.00040826,-0.00005868,0.00012946,0.00578576,-0.0
 0434889,0.00296102,0.18679738,-0.00014779,0.00004551,-0.00000297,0.000
 12254,-0.00007630,0.00001100,-0.00011593,-0.00011110,0.00001800,0.0003
 9450,0.00062562,0.00000237,-0.00019191,0.00002624,-0.00002215,0.000078
 49,0.00013529,0.00001595,-0.00000787,-0.00000524,-0.00000106,0.0000055
 1,0.00000165,-0.00000023,0.00002932,0.00001094,-0.00001744,-0.00002486
 ,0.00005070,-0.00000581,0.00018311,-0.00000490,-0.00000174,-0.00003206
 ,-0.00003919,0.00000060,0.00000123,0.00000783,-0.00000248,0.00000103,0
 .00000781,0.00000217,0.00000474,0.00000308,0.00000005,-0.00314616,-0.0
 0243197,0.00009633,-0.00858884,0.00686881,-0.00614535,0.00158573,-0.00
 577904,-0.00050371,0.01982355,-0.01237413,0.01645836,0.09801856,-0.124
 70113,0.07641302,-0.00027456,-0.00031646,-0.00009463,0.00067150,0.0007
 7738,-0.00032589,0.00008783,0.00215683,0.00002965,-0.00011827,-0.00149
 644,-0.00022470,-0.00404532,0.00328455,-0.00209655,-0.10572111,0.13298
 463,-0.00010301,0.00001368,-0.00000144,0.00007317,-0.00002350,0.000006
 32,-0.00007525,-0.00008528,-0.00000478,0.00015262,-0.00045137,0.000000
 05,0.00013865,0.00006098,-0.00000048,0.00007805,-0.00000241,0.00000184
 ,0.00001652,-0.00000333,0.00000034,0.00000830,0.00000087,0.00000006,-0
 .00001644,0.00000383,0.00000310,-0.00001687,0.00002567,0.00000180,0.00
 011619,-0.00000015,0.00000139,-0.00001879,-0.00002488,-0.00000029,0.00
 000123,0.00000469,-0.00000088,0.00000105,0.00000488,0.00000060,0.00000
 319,0.00000230,-0.00000003,0.00202819,-0.00099132,0.00010347,0.0064517
 0,-0.00493130,0.00380354,0.00216287,-0.00250976,0.00011293,0.00620825,
 -0.00461839,0.00393244,-0.10434432,0.08057064,-0.13256605,0.00001382,0
 .00006260,0.00023345,-0.00012333,-0.00044489,0.00114563,0.00041596,0.0
 0025931,0.00102503,-0.00006566,-0.00012439,0.00028940,-0.02127504,0.01
 658624,-0.01484278,0.10761061,-0.08338393,0.13670571,0.00039341,-0.000
 39277,0.00000454,-0.00034937,0.00054442,-0.00003436,0.00065164,0.00054
 601,0.00002480,-0.00182244,0.00064872,0.00008652,-0.00050672,-0.003262
 26,0.00007702,0.00003505,0.00077747,-0.00005801,0.00001885,-0.00001327
 ,0.00000244,0.00000910,0.00000226,-0.00000299,0.00009163,0.00009344,-0
 .00000109,-0.00428203,0.00130983,-0.00097466,-0.00023074,0.00018248,-0
 .00000254,0.00006481,0.00004004,0.00000199,0.00000366,-0.00000920,0.00
 000754,0.00000469,-0.00000892,-0.00000726,0.00000459,0.00000455,0.0000
 0006,0.01719089,-0.02482911,-0.00012269,-0.00377781,-0.00271113,-0.000
 08408,-0.10599840,0.10818215,-0.00055667,0.00202199,0.02556717,0.00172
 721,-0.00533037,0.00154876,-0.00125306,0.00066124,-0.00066462,0.000063
 42,0.00029861,-0.00034311,-0.00006430,-0.00003870,-0.00011932,-0.00062
 468,0.00075572,-0.00068002,0.00054870,0.00000616,0.00038611,0.00012147
 ,0.00020422,0.00140703,0.00055835,0.09992034,-0.00137344,0.00040168,-0
 .00001146,0.00106221,-0.00067155,0.00002368,-0.00112087,-0.00115601,0.
 00006082,0.00421941,0.00038047,-0.00001298,-0.00087025,0.00131159,-0.0
 0003645,0.00078778,0.00062694,0.00000985,0.00005758,-0.00004178,0.0000
 0108,0.00006904,0.00001131,-0.00000237,-0.00004719,0.00003150,-0.00000
 661,0.00086382,0.00214615,-0.00041193,0.00169233,-0.00005902,0.0000077
 0,-0.00028930,-0.00035478,0.00000637,0.00001228,0.00006797,-0.00001887
 ,0.00001006,0.00007044,0.00001510,0.00004433,0.00002951,-0.00000032,0.
 00192630,-0.02105343,0.00021588,-0.00194922,0.00016456,-0.00099407,0.1
 0367053,-0.41215444,-0.00463530,0.00061557,0.00310095,0.00064096,-0.00
 137753,0.00059733,-0.00001954,0.00016145,-0.00048962,0.00036353,-0.000
 07532,-0.00015622,0.00011439,0.00002399,-0.00023858,-0.00018847,0.0000
 8467,0.00003020,-0.00010841,0.00005112,0.00002194,0.00003988,-0.000042
 65,0.00034905,-0.00000083,-0.10820670,0.42703385,0.00014886,-0.0000490
 7,-0.00013887,-0.00011764,0.00008844,0.00020153,0.00018821,0.00013490,
 -0.00023862,-0.00046387,-0.00009036,-0.00426933,-0.00013488,-0.0000864
 9,-0.00012879,-0.00007453,-0.00006651,-0.00012910,-0.00000389,0.000006
 51,0.00007038,-0.00000457,-0.00000046,0.00005868,0.00000404,-0.0000102
 6,-0.00008921,-0.00091068,0.00003423,-0.00031152,-0.00017532,0.0000071
 8,0.00004452,0.00003037,0.00003755,0.00001367,0.00000125,-0.00000764,0
 .00000278,-0.00000336,-0.00000687,-0.00000094,-0.00000451,-0.00000316,
 -0.00000050,0.00104675,0.00160787,0.00015490,0.00057882,0.00057429,0.0
 1147440,-0.00075364,-0.00681134,-0.02433769,0.00006947,0.00119475,-0.0
 0158140,0.00038619,-0.00048292,0.00134642,-0.00127185,0.00137039,-0.00
 035633,0.00111393,-0.00232359,-0.00041607,-0.00001302,-0.00009088,-0.0
 0023639,-0.00021196,-0.00002130,0.00013946,-0.00000860,0.00026525,-0.0
 0013747,0.00002214,-0.00021884,0.00004961,0.00056231,0.00494835,0.0188
 1588\\0.00002074,-0.00000574,0.00000406,-0.00000520,0.00000285,-0.0000
 0614,0.00001125,0.00000110,-0.00000248,-0.00000897,-0.00000382,0.00000
 168,0.00000436,-0.00000033,0.00000057,-0.00000827,-0.00000472,-0.00000
 152,-0.00000165,-0.00000287,-0.00000030,0.00000243,-0.00000276,-0.0000
 0665,-0.00000039,-0.00000012,-0.00000293,-0.00000456,-0.00000161,0.000
 00364,-0.00002446,-0.00002075,-0.00001038,0.00001988,0.00002748,-0.000
 00595,-0.00000092,-0.00001191,-0.00000739,0.00000104,-0.00000977,-0.00
 000971,-0.00000228,-0.00000813,-0.00000843,-0.00000049,-0.00000095,-0.
 00000039,0.00000088,0.00000680,0.00000821,-0.00000831,0.00000633,0.000
 00449,0.00000966,-0.00000066,0.00001038,-0.00000077,0.00000322,0.00000
 051,0.00000173,0.00000361,-0.00000135,-0.00000042,-0.00000122,-0.00000
 004,-0.00000407,0.00000423,0.00000653,-0.00000339,0.00000598,0.0000065
 7,0.00000299,0.00000531,0.00000474,-0.00000037,0.00000568,0.00000686,-
 0.00000043,0.00000276,0.00000543\\\@
 The archive entry for this job was punched.


 BOOKS ARE LIGHTHOUSES ERECTED IN THE GREAT SEA OF TIME.
     -- E.P.WHIPPLE
 Job cpu time:       0 days  0 hours 29 minutes  9.4 seconds.
 Elapsed time:       0 days  0 hours  3 minutes 41.4 seconds.
 File lengths (MBytes):  RWF=    284 Int=      0 D2E=      0 Chk=     14 Scr=      1
 Normal termination of Gaussian 16 at Tue Jul  7 16:51:38 2026.
