 Entering Gaussian System, Link 0=g16
 Initial command:
 /opt/packages/gaussian/g16RevC.01/g16/l1.exe "/ocean/projects/che200051p/zlab/tmp/Gau-31940.inp" -scrdir="/ocean/projects/che200051p/zlab/tmp/"
 Entering Link 1 = /opt/packages/gaussian/g16RevC.01/g16/l1.exe PID=     31941.
  
 Copyright (c) 1988-2019, Gaussian, Inc.  All Rights Reserved.
  
 This is part of the Gaussian(R) 16 program.  It is based on
 the Gaussian(R) 09 system (copyright 2009, Gaussian, Inc.),
 the Gaussian(R) 03 system (copyright 2003, Gaussian, Inc.),
 the Gaussian(R) 98 system (copyright 1998, Gaussian, Inc.),
 the Gaussian(R) 94 system (copyright 1995, Gaussian, Inc.),
 the Gaussian 92(TM) system (copyright 1992, Gaussian, Inc.),
 the Gaussian 90(TM) system (copyright 1990, Gaussian, Inc.),
 the Gaussian 88(TM) system (copyright 1988, Gaussian, Inc.),
 the Gaussian 86(TM) system (copyright 1986, Carnegie Mellon
 University), and the Gaussian 82(TM) system (copyright 1983,
 Carnegie Mellon University). Gaussian is a federally registered
 trademark of Gaussian, Inc.
  
 This software contains proprietary and confidential information,
 including trade secrets, belonging to Gaussian, Inc.
  
 This software is provided under written license and may be
 used, copied, transmitted, or stored only in accord with that
 written license.
  
 The following legend is applicable only to US Government
 contracts under FAR:
  
                    RESTRICTED RIGHTS LEGEND
  
 Use, reproduction and disclosure by the US Government is
 subject to restrictions as set forth in subparagraphs (a)
 and (c) of the Commercial Computer Software - Restricted
 Rights clause in FAR 52.227-19.
  
 Gaussian, Inc.
 340 Quinnipiac St., Bldg. 40, Wallingford CT 06492
  
  
 ---------------------------------------------------------------
 Warning -- This program may not be used in any manner that
 competes with the business of Gaussian, Inc. or will provide
 assistance to any competitor of Gaussian, Inc.  The licensee
 of this program is prohibited from giving any competitor of
 Gaussian, Inc. access to this program.  By using this program,
 the user acknowledges that Gaussian, Inc. is engaged in the
 business of creating and licensing software in the field of
 computational chemistry and represents and warrants to the
 licensee that it is not a competitor of Gaussian, Inc. and that
 it will not use this program in any manner prohibited above.
 ---------------------------------------------------------------
  

 Cite this work as:
 Gaussian 16, Revision C.01,
 M. J. Frisch, G. W. Trucks, H. B. Schlegel, G. E. Scuseria, 
 M. A. Robb, J. R. Cheeseman, G. Scalmani, V. Barone, 
 G. A. Petersson, H. Nakatsuji, X. Li, M. Caricato, A. V. Marenich, 
 J. Bloino, B. G. Janesko, R. Gomperts, B. Mennucci, H. P. Hratchian, 
 J. V. Ortiz, A. F. Izmaylov, J. L. Sonnenberg, D. Williams-Young, 
 F. Ding, F. Lipparini, F. Egidi, J. Goings, B. Peng, A. Petrone, 
 T. Henderson, D. Ranasinghe, V. G. Zakrzewski, J. Gao, N. Rega, 
 G. Zheng, W. Liang, M. Hada, M. Ehara, K. Toyota, R. Fukuda, 
 J. Hasegawa, M. Ishida, T. Nakajima, Y. Honda, O. Kitao, H. Nakai, 
 T. Vreven, K. Throssell, J. A. Montgomery, Jr., J. E. Peralta, 
 F. Ogliaro, M. J. Bearpark, J. J. Heyd, E. N. Brothers, K. N. Kudin, 
 V. N. Staroverov, T. A. Keith, R. Kobayashi, J. Normand, 
 K. Raghavachari, A. P. Rendell, J. C. Burant, S. S. Iyengar, 
 J. Tomasi, M. Cossi, J. M. Millam, M. Klene, C. Adamo, R. Cammi, 
 J. W. Ochterski, R. L. Martin, K. Morokuma, O. Farkas, 
 J. B. Foresman, and D. J. Fox, Gaussian, Inc., Wallingford CT, 2019.
 
 ******************************************
 Gaussian 16:  ES64L-G16RevC.01  3-Jul-2019
                 8-Jul-2026 
 ******************************************
 %chk=iminium_ground_opt_wb97.chk
 %mem=30GB
 %nprocshared=8
 Will use up to    8 processors via shared memory.
 --------------------------------------------------------
 #p wB97XD/6-31+G(d) Opt Freq SCRF=(SMD,Solvent=Methanol)
 --------------------------------------------------------
 1/18=20,19=15,26=3,38=1/1,3;
 2/9=110,12=2,17=6,18=5,40=1/2;
 3/5=1,6=6,7=11,11=2,25=1,30=1,70=32201,71=1,72=3,74=-58/1,2,3;
 4//1;
 5/5=2,38=5,53=3/2;
 6/7=2,8=2,9=2,10=2,28=1/1;
 7//1,2,3,16;
 1/18=20,19=15,26=3/3(2);
 2/9=110/2;
 99//99;
 2/9=110/2;
 3/5=1,6=6,7=11,11=2,25=1,30=1,70=32205,71=1,72=3,74=-58/1,2,3;
 4/5=5,16=3,69=1/1;
 5/5=2,38=5,53=3/2;
 7//1,2,3,16;
 1/18=20,19=15,26=3/3(-5);
 2/9=110/2;
 6/7=2,8=2,9=2,10=2,19=2,28=1/1;
 99/9=1/99;
 Leave Link    1 at Wed Jul  8 17:46:54 2026, MaxMem=  4026531840 cpu:              11.9 elap:               1.7
 (Enter /opt/packages/gaussian/g16RevC.01/g16/l101.exe)
 ---------------------------------------------------
 Ground-state geometry optimization (S0) with wB97XD
 ---------------------------------------------------
 Symbolic Z-matrix:
 Charge =  1 Multiplicity = 1
 C                    -2.47659   0.26667  -0.01068 
 C                    -1.8477   -0.98089   0.03555 
 C                    -0.46267  -1.04098   0.04461 
 C                     0.3209    0.12118   0.01256 
 C                    -0.33403   1.37028  -0.02721 
 C                    -1.70787   1.44229  -0.04055 
 H                    -2.21633   2.40047  -0.0737 
 H                    -2.42109  -1.89918   0.06164 
 H                     0.01033  -2.01605   0.08034 
 H                     0.22641   2.29954  -0.04797 
 O                    -3.81161   0.44069  -0.02903 
 C                    -4.6628   -0.70834  -0.00584 
 H                    -4.50701  -1.28615   0.91 
 H                    -4.48866  -1.33522  -0.8854 
 H                    -5.67999  -0.3179   -0.02704 
 C                     1.76202   0.00112   0.02635 
 C                     2.53444  -1.28607   0.08053 
 N                     2.59229   1.00083   0.02795 
 C                     4.01274   0.63048   0.10824 
 C                     3.97771  -0.86031  -0.23471 
 H                     2.14072  -2.02759  -0.61674 
 H                     2.43041  -1.69617   1.0931 
 H                     4.36465   0.83098   1.12484 
 H                     4.58819   1.2376   -0.59199 
 H                     4.1828   -1.00245  -1.29918 
 H                     4.71357  -1.4281    0.33629 
 H                     2.30581   1.97632   0.03924 
 
 ITRead=  0  0  0  0  0  0  0  0  0  0  0  0  0  0  0  0  0  0  0  0
 ITRead=  0  0  0  0  0  0  0
 MicOpt= -1 -1 -1 -1 -1 -1 -1 -1 -1 -1 -1 -1 -1 -1 -1 -1 -1 -1 -1 -1
 MicOpt= -1 -1 -1 -1 -1 -1 -1
 NAtoms=     27 NQM=       27 NQMF=       0 NMMI=      0 NMMIF=      0
                NMic=       0 NMicF=      0.
                    Isotopes and Nuclear Properties:
 (Nuclear quadrupole moments (NQMom) in fm**2, nuclear magnetic moments (NMagM)
  in nuclear magnetons)

  Atom         1           2           3           4           5           6           7           8           9          10
 IAtWgt=          12          12          12          12          12          12           1           1           1           1
 AtmWgt=  12.0000000  12.0000000  12.0000000  12.0000000  12.0000000  12.0000000   1.0078250   1.0078250   1.0078250   1.0078250
 NucSpn=           0           0           0           0           0           0           1           1           1           1
 AtZEff=  -0.0000000  -0.0000000  -0.0000000  -0.0000000  -0.0000000  -0.0000000  -0.0000000  -0.0000000  -0.0000000  -0.0000000
 NQMom=    0.0000000   0.0000000   0.0000000   0.0000000   0.0000000   0.0000000   0.0000000   0.0000000   0.0000000   0.0000000
 NMagM=    0.0000000   0.0000000   0.0000000   0.0000000   0.0000000   0.0000000   2.7928460   2.7928460   2.7928460   2.7928460
 AtZNuc=   6.0000000   6.0000000   6.0000000   6.0000000   6.0000000   6.0000000   1.0000000   1.0000000   1.0000000   1.0000000

  Atom        11          12          13          14          15          16          17          18          19          20
 IAtWgt=          16          12           1           1           1          12          12          14          12          12
 AtmWgt=  15.9949146  12.0000000   1.0078250   1.0078250   1.0078250  12.0000000  12.0000000  14.0030740  12.0000000  12.0000000
 NucSpn=           0           0           1           1           1           0           0           2           0           0
 AtZEff=  -0.0000000  -0.0000000  -0.0000000  -0.0000000  -0.0000000  -0.0000000  -0.0000000  -0.0000000  -0.0000000  -0.0000000
 NQMom=    0.0000000   0.0000000   0.0000000   0.0000000   0.0000000   0.0000000   0.0000000   2.0440000   0.0000000   0.0000000
 NMagM=    0.0000000   0.0000000   2.7928460   2.7928460   2.7928460   0.0000000   0.0000000   0.4037610   0.0000000   0.0000000
 AtZNuc=   8.0000000   6.0000000   1.0000000   1.0000000   1.0000000   6.0000000   6.0000000   7.0000000   6.0000000   6.0000000

  Atom        21          22          23          24          25          26          27
 IAtWgt=           1           1           1           1           1           1           1
 AtmWgt=   1.0078250   1.0078250   1.0078250   1.0078250   1.0078250   1.0078250   1.0078250
 NucSpn=           1           1           1           1           1           1           1
 AtZEff=  -0.0000000  -0.0000000  -0.0000000  -0.0000000  -0.0000000  -0.0000000  -0.0000000
 NQMom=    0.0000000   0.0000000   0.0000000   0.0000000   0.0000000   0.0000000   0.0000000
 NMagM=    2.7928460   2.7928460   2.7928460   2.7928460   2.7928460   2.7928460   2.7928460
 AtZNuc=   1.0000000   1.0000000   1.0000000   1.0000000   1.0000000   1.0000000   1.0000000
 Leave Link  101 at Wed Jul  8 17:46:55 2026, MaxMem=  4026531840 cpu:               1.2 elap:               0.2
 (Enter /opt/packages/gaussian/g16RevC.01/g16/l103.exe)

 GradGradGradGradGradGradGradGradGradGradGradGradGradGradGradGradGradGrad
 Berny optimization.
 Initialization pass.
                           ----------------------------
                           !    Initial Parameters    !
                           ! (Angstroms and Degrees)  !
 --------------------------                            --------------------------
 ! Name  Definition              Value          Derivative Info.                !
 --------------------------------------------------------------------------------
 ! R1    R(1,2)                  1.3979         estimate D2E/DX2                !
 ! R2    R(1,6)                  1.405          estimate D2E/DX2                !
 ! R3    R(1,11)                 1.3464         estimate D2E/DX2                !
 ! R4    R(2,3)                  1.3864         estimate D2E/DX2                !
 ! R5    R(2,8)                  1.0829         estimate D2E/DX2                !
 ! R6    R(3,4)                  1.402          estimate D2E/DX2                !
 ! R7    R(3,9)                  1.0843         estimate D2E/DX2                !
 ! R8    R(4,5)                  1.4109         estimate D2E/DX2                !
 ! R9    R(4,16)                 1.4462         estimate D2E/DX2                !
 ! R10   R(5,6)                  1.3758         estimate D2E/DX2                !
 ! R11   R(5,10)                 1.0854         estimate D2E/DX2                !
 ! R12   R(6,7)                  1.0852         estimate D2E/DX2                !
 ! R13   R(11,12)                1.4302         estimate D2E/DX2                !
 ! R14   R(12,13)                1.094          estimate D2E/DX2                !
 ! R15   R(12,14)                1.094          estimate D2E/DX2                !
 ! R16   R(12,15)                1.0898         estimate D2E/DX2                !
 ! R17   R(16,17)                1.5021         estimate D2E/DX2                !
 ! R18   R(16,18)                1.2995         estimate D2E/DX2                !
 ! R19   R(17,20)                1.5374         estimate D2E/DX2                !
 ! R20   R(17,21)                1.0914         estimate D2E/DX2                !
 ! R21   R(17,22)                1.0974         estimate D2E/DX2                !
 ! R22   R(18,19)                1.4701         estimate D2E/DX2                !
 ! R23   R(18,27)                1.0167         estimate D2E/DX2                !
 ! R24   R(19,20)                1.5301         estimate D2E/DX2                !
 ! R25   R(19,23)                1.0943         estimate D2E/DX2                !
 ! R26   R(19,24)                1.0909         estimate D2E/DX2                !
 ! R27   R(20,25)                1.0933         estimate D2E/DX2                !
 ! R28   R(20,26)                1.0908         estimate D2E/DX2                !
 ! A1    A(2,1,6)              120.0884         estimate D2E/DX2                !
 ! A2    A(2,1,11)             124.1854         estimate D2E/DX2                !
 ! A3    A(6,1,11)             115.7262         estimate D2E/DX2                !
 ! A4    A(1,2,3)              119.2327         estimate D2E/DX2                !
 ! A5    A(1,2,8)              121.2907         estimate D2E/DX2                !
 ! A6    A(3,2,8)              119.4764         estimate D2E/DX2                !
 ! A7    A(2,3,4)              121.4851         estimate D2E/DX2                !
 ! A8    A(2,3,9)              118.3585         estimate D2E/DX2                !
 ! A9    A(4,3,9)              120.1562         estimate D2E/DX2                !
 ! A10   A(3,4,5)              118.3633         estimate D2E/DX2                !
 ! A11   A(3,4,16)             119.2028         estimate D2E/DX2                !
 ! A12   A(5,4,16)             122.4334         estimate D2E/DX2                !
 ! A13   A(4,5,6)              120.6725         estimate D2E/DX2                !
 ! A14   A(4,5,10)             121.2526         estimate D2E/DX2                !
 ! A15   A(6,5,10)             118.0748         estimate D2E/DX2                !
 ! A16   A(1,6,5)              120.1569         estimate D2E/DX2                !
 ! A17   A(1,6,7)              118.8878         estimate D2E/DX2                !
 ! A18   A(5,6,7)              120.9553         estimate D2E/DX2                !
 ! A19   A(1,11,12)            119.0824         estimate D2E/DX2                !
 ! A20   A(11,12,13)           110.6803         estimate D2E/DX2                !
 ! A21   A(11,12,14)           110.6459         estimate D2E/DX2                !
 ! A22   A(11,12,15)           105.5079         estimate D2E/DX2                !
 ! A23   A(13,12,14)           110.3479         estimate D2E/DX2                !
 ! A24   A(13,12,15)           109.7812         estimate D2E/DX2                !
 ! A25   A(14,12,15)           109.7688         estimate D2E/DX2                !
 ! A26   A(4,16,17)            125.7251         estimate D2E/DX2                !
 ! A27   A(4,16,18)            124.9466         estimate D2E/DX2                !
 ! A28   A(17,16,18)           109.307          estimate D2E/DX2                !
 ! A29   A(16,17,20)           103.7699         estimate D2E/DX2                !
 ! A30   A(16,17,21)           111.9421         estimate D2E/DX2                !
 ! A31   A(16,17,22)           107.7437         estimate D2E/DX2                !
 ! A32   A(20,17,21)           113.3175         estimate D2E/DX2                !
 ! A33   A(20,17,22)           112.4373         estimate D2E/DX2                !
 ! A34   A(21,17,22)           107.5419         estimate D2E/DX2                !
 ! A35   A(16,18,19)           115.0609         estimate D2E/DX2                !
 ! A36   A(16,18,27)           123.9222         estimate D2E/DX2                !
 ! A37   A(19,18,27)           120.8857         estimate D2E/DX2                !
 ! A38   A(18,19,20)           102.1856         estimate D2E/DX2                !
 ! A39   A(18,19,23)           108.3785         estimate D2E/DX2                !
 ! A40   A(18,19,24)           109.5372         estimate D2E/DX2                !
 ! A41   A(20,19,23)           113.209          estimate D2E/DX2                !
 ! A42   A(20,19,24)           114.2321         estimate D2E/DX2                !
 ! A43   A(23,19,24)           108.9473         estimate D2E/DX2                !
 ! A44   A(17,20,19)           104.2022         estimate D2E/DX2                !
 ! A45   A(17,20,25)           109.8601         estimate D2E/DX2                !
 ! A46   A(17,20,26)           112.445          estimate D2E/DX2                !
 ! A47   A(19,20,25)           109.9126         estimate D2E/DX2                !
 ! A48   A(19,20,26)           111.9849         estimate D2E/DX2                !
 ! A49   A(25,20,26)           108.3866         estimate D2E/DX2                !
 ! D1    D(6,1,2,3)             -0.3216         estimate D2E/DX2                !
 ! D2    D(6,1,2,8)            179.8462         estimate D2E/DX2                !
 ! D3    D(11,1,2,3)           179.7116         estimate D2E/DX2                !
 ! D4    D(11,1,2,8)            -0.1206         estimate D2E/DX2                !
 ! D5    D(2,1,6,5)              0.134          estimate D2E/DX2                !
 ! D6    D(2,1,6,7)           -179.8426         estimate D2E/DX2                !
 ! D7    D(11,1,6,5)          -179.8965         estimate D2E/DX2                !
 ! D8    D(11,1,6,7)             0.127          estimate D2E/DX2                !
 ! D9    D(2,1,11,12)           -0.263          estimate D2E/DX2                !
 ! D10   D(6,1,11,12)          179.7689         estimate D2E/DX2                !
 ! D11   D(1,2,3,4)              0.1968         estimate D2E/DX2                !
 ! D12   D(1,2,3,9)           -179.9815         estimate D2E/DX2                !
 ! D13   D(8,2,3,4)           -179.9679         estimate D2E/DX2                !
 ! D14   D(8,2,3,9)             -0.1461         estimate D2E/DX2                !
 ! D15   D(2,3,4,5)              0.1131         estimate D2E/DX2                !
 ! D16   D(2,3,4,16)           179.8832         estimate D2E/DX2                !
 ! D17   D(9,3,4,5)           -179.7055         estimate D2E/DX2                !
 ! D18   D(9,3,4,16)             0.0646         estimate D2E/DX2                !
 ! D19   D(3,4,5,6)             -0.3048         estimate D2E/DX2                !
 ! D20   D(3,4,5,10)           179.6851         estimate D2E/DX2                !
 ! D21   D(16,4,5,6)           179.933          estimate D2E/DX2                !
 ! D22   D(16,4,5,10)           -0.0771         estimate D2E/DX2                !
 ! D23   D(3,4,16,17)           -0.347          estimate D2E/DX2                !
 ! D24   D(3,4,16,18)         -178.4895         estimate D2E/DX2                !
 ! D25   D(5,4,16,17)          179.4133         estimate D2E/DX2                !
 ! D26   D(5,4,16,18)            1.2708         estimate D2E/DX2                !
 ! D27   D(4,5,6,1)              0.1835         estimate D2E/DX2                !
 ! D28   D(4,5,6,7)           -179.8405         estimate D2E/DX2                !
 ! D29   D(10,5,6,1)          -179.8067         estimate D2E/DX2                !
 ! D30   D(10,5,6,7)             0.1693         estimate D2E/DX2                !
 ! D31   D(1,11,12,13)          61.3094         estimate D2E/DX2                !
 ! D32   D(1,11,12,14)         -61.3336         estimate D2E/DX2                !
 ! D33   D(1,11,12,15)        -179.9957         estimate D2E/DX2                !
 ! D34   D(4,16,17,20)         168.0994         estimate D2E/DX2                !
 ! D35   D(4,16,17,21)          45.5456         estimate D2E/DX2                !
 ! D36   D(4,16,17,22)         -72.4936         estimate D2E/DX2                !
 ! D37   D(18,16,17,20)        -13.5138         estimate D2E/DX2                !
 ! D38   D(18,16,17,21)       -136.0676         estimate D2E/DX2                !
 ! D39   D(18,16,17,22)        105.8931         estimate D2E/DX2                !
 ! D40   D(4,16,18,19)         177.1938         estimate D2E/DX2                !
 ! D41   D(4,16,18,27)           1.3365         estimate D2E/DX2                !
 ! D42   D(17,16,18,19)         -1.2084         estimate D2E/DX2                !
 ! D43   D(17,16,18,27)       -177.0657         estimate D2E/DX2                !
 ! D44   D(16,17,20,19)         21.9345         estimate D2E/DX2                !
 ! D45   D(16,17,20,25)        -95.7728         estimate D2E/DX2                !
 ! D46   D(16,17,20,26)        143.4253         estimate D2E/DX2                !
 ! D47   D(21,17,20,19)        143.5742         estimate D2E/DX2                !
 ! D48   D(21,17,20,25)         25.8669         estimate D2E/DX2                !
 ! D49   D(21,17,20,26)        -94.9351         estimate D2E/DX2                !
 ! D50   D(22,17,20,19)        -94.2122         estimate D2E/DX2                !
 ! D51   D(22,17,20,25)        148.0805         estimate D2E/DX2                !
 ! D52   D(22,17,20,26)         27.2785         estimate D2E/DX2                !
 ! D53   D(16,18,19,20)         15.3598         estimate D2E/DX2                !
 ! D54   D(16,18,19,23)       -104.4146         estimate D2E/DX2                !
 ! D55   D(16,18,19,24)        136.838          estimate D2E/DX2                !
 ! D56   D(27,18,19,20)       -168.6456         estimate D2E/DX2                !
 ! D57   D(27,18,19,23)         71.58           estimate D2E/DX2                !
 ! D58   D(27,18,19,24)        -47.1674         estimate D2E/DX2                !
 ! D59   D(18,19,20,17)        -22.1181         estimate D2E/DX2                !
 ! D60   D(18,19,20,25)         95.5531         estimate D2E/DX2                !
 ! D61   D(18,19,20,26)       -143.9138         estimate D2E/DX2                !
 ! D62   D(23,19,20,17)         94.213          estimate D2E/DX2                !
 ! D63   D(23,19,20,25)       -148.1158         estimate D2E/DX2                !
 ! D64   D(23,19,20,26)        -27.5826         estimate D2E/DX2                !
 ! D65   D(24,19,20,17)       -140.307          estimate D2E/DX2                !
 ! D66   D(24,19,20,25)        -22.6359         estimate D2E/DX2                !
 ! D67   D(24,19,20,26)         97.8973         estimate D2E/DX2                !
 --------------------------------------------------------------------------------
 Trust Radius=3.00D-01 FncErr=1.00D-07 GrdErr=1.00D-06 EigMax=2.50D+02 EigMin=1.00D-04
 Number of steps in this run=    154 maximum allowed number of steps=    162.
 GradGradGradGradGradGradGradGradGradGradGradGradGradGradGradGradGradGrad

 Leave Link  103 at Wed Jul  8 17:46:55 2026, MaxMem=  4026531840 cpu:               0.1 elap:               0.6
 (Enter /opt/packages/gaussian/g16RevC.01/g16/l202.exe)
                          Input orientation:                          
 ---------------------------------------------------------------------
 Center     Atomic      Atomic             Coordinates (Angstroms)
 Number     Number       Type             X           Y           Z
 ---------------------------------------------------------------------
      1          6           0       -2.476590    0.266670   -0.010680
      2          6           0       -1.847700   -0.980890    0.035550
      3          6           0       -0.462670   -1.040980    0.044610
      4          6           0        0.320900    0.121180    0.012560
      5          6           0       -0.334030    1.370280   -0.027210
      6          6           0       -1.707870    1.442290   -0.040550
      7          1           0       -2.216330    2.400470   -0.073700
      8          1           0       -2.421090   -1.899180    0.061640
      9          1           0        0.010330   -2.016050    0.080340
     10          1           0        0.226410    2.299540   -0.047970
     11          8           0       -3.811610    0.440690   -0.029030
     12          6           0       -4.662800   -0.708340   -0.005840
     13          1           0       -4.507010   -1.286150    0.910000
     14          1           0       -4.488660   -1.335220   -0.885400
     15          1           0       -5.679990   -0.317900   -0.027040
     16          6           0        1.762020    0.001120    0.026350
     17          6           0        2.534440   -1.286070    0.080530
     18          7           0        2.592290    1.000830    0.027950
     19          6           0        4.012740    0.630480    0.108240
     20          6           0        3.977710   -0.860310   -0.234710
     21          1           0        2.140720   -2.027590   -0.616740
     22          1           0        2.430410   -1.696170    1.093100
     23          1           0        4.364650    0.830980    1.124840
     24          1           0        4.588190    1.237600   -0.591990
     25          1           0        4.182800   -1.002450   -1.299180
     26          1           0        4.713570   -1.428100    0.336290
     27          1           0        2.305810    1.976320    0.039240
 ---------------------------------------------------------------------
                    Distance matrix (angstroms):
                    1          2          3          4          5
     1  C    0.000000
     2  C    1.397872   0.000000
     3  C    2.401849   1.386363   0.000000
     4  C    2.801367   2.432676   1.402007   0.000000
     5  C    2.410143   2.796987   2.415757   1.410945   0.000000
     6  C    1.404957   2.428404   2.779281   2.421582   1.375791
     7  H    2.150537   3.403148   3.864311   3.411765   2.146277
     8  H    2.167768   1.082919   2.138272   3.406284   3.879830
     9  H    3.376961   2.127402   1.084328   2.160741   3.405493
    10  H    3.382331   3.882026   3.412107   2.181248   1.085379
    11  O    1.346439   2.425284   3.662809   4.145052   3.599681
    12  C    2.393780   2.828566   4.213584   5.052297   4.802017
    13  H    2.716893   2.815986   4.143150   5.108296   5.034754
    14  H    2.716544   2.819285   4.142474   5.104831   5.031617
    15  H    3.256342   3.889720   5.267676   6.017062   5.606179
    16  C    4.247082   3.740923   2.456736   1.446178   2.504175
    17  C    5.246879   4.392984   3.007329   2.623877   3.911000
    18  N    5.121916   4.862179   3.674513   2.435823   2.950065
    19  C    6.500608   6.078368   4.777774   3.728032   4.411356
    20  C    6.555781   5.832922   4.452823   3.794302   4.858980
    21  H    5.191386   4.174752   2.861542   2.885303   4.244697
    22  H    5.399048   4.464556   3.146191   2.986697   4.277890
    23  H    6.957759   6.562219   5.289059   4.253575   4.867819
    24  H    7.154841   6.836387   5.577488   4.452150   4.956292
    25  H    6.900607   6.176480   4.836078   4.230541   5.258280
    26  H    7.395339   6.583366   5.198884   4.669113   5.782848
    27  H    5.079050   5.098701   4.094949   2.717006   2.709327
                    6          7          8          9         10
     6  C    0.000000
     7  H    1.085237   0.000000
     8  H    3.418267   4.306650   0.000000
     9  H    3.863540   4.948474   2.434299   0.000000
    10  H    2.115744   2.444960   4.964929   4.322901   0.000000
    11  O    2.330034   2.527380   2.723373   4.544751   4.445367
    12  C    3.654863   3.956579   2.539275   4.853419   5.740513
    13  H    4.022824   4.450399   2.333791   4.650532   6.014993
    14  H    4.020090   4.447215   2.343028   4.651569   6.012042
    15  H    4.344674   4.403255   3.623360   5.939275   6.460417
    16  C    3.757870   4.646952   4.594648   2.672135   2.765205
    17  C    5.045374   6.015329   4.993349   2.627547   4.266159
    18  N    4.323304   5.009207   5.791819   3.971250   2.699963
    19  C    5.779840   6.478216   6.913430   4.798352   4.140828
    20  C    6.137221   7.001767   6.489354   4.144285   4.908337
    21  H    5.213800   6.235904   4.613762   2.241565   4.765725
    22  H    5.316056   6.303656   4.964089   2.642876   4.703760
    23  H    6.213480   6.870887   7.391240   5.306285   4.545017
    24  H    6.323477   6.922599   7.706921   5.656418   4.522035
    25  H    6.500838   7.350546   6.802008   4.509985   5.302988
    26  H    7.043865   7.927771   7.155468   4.746753   5.846158
    27  H    4.049837   4.543392   6.112576   4.605425   2.106177
                   11         12         13         14         15
    11  O    0.000000
    12  C    1.430151   0.000000
    13  H    2.085026   1.094028   0.000000
    14  H    2.084616   1.094043   1.796164   0.000000
    15  H    2.016509   1.089756   1.786459   1.786334   0.000000
    16  C    5.591211   6.463952   6.460545   6.456632   7.449036
    17  C    6.577694   7.220907   7.090137   7.089384   8.271988
    18  N    6.428603   7.453773   7.510549   7.512070   8.376914
    19  C    7.827855   8.778978   8.769403   8.782090   9.739956
    20  C    7.899899   8.644876   8.572174   8.504608   9.675149
    21  H    6.470552   6.957119   6.860975   6.670850   8.027097
    22  H    6.692396   7.245489   6.951938   7.205434   8.302586
    23  H    8.266497   9.227285   9.123308   9.333519  10.175537
    24  H    8.456278   9.471593   9.557612   9.438999  10.400686
    25  H    8.222319   8.944488   8.970717   8.687702   9.968028
    26  H    8.735246   9.410177   9.239502   9.283436  10.458998
    27  H    6.307587   7.467996   7.603713   7.614859   8.309082
                   16         17         18         19         20
    16  C    0.000000
    17  C    1.502141   0.000000
    18  N    1.299527   2.288236   0.000000
    19  C    2.338491   2.420600   1.470131   0.000000
    20  C    2.391547   1.537425   2.334999   1.530130   0.000000
    21  H    2.161630   1.091354   3.129036   3.330974   2.209756
    22  H    2.113172   1.097407   2.904231   2.981110   2.203606
    23  H    2.944322   2.986997   2.091238   1.094311   2.204214
    24  H    3.146182   3.322511   2.103331   1.090898   2.213947
    25  H    2.936726   2.168209   2.881688   2.162455   1.093326
    26  H    3.293992   2.198680   3.239538   2.186532   1.090833
    27  H    2.048729   3.270652   1.016749   2.174777   3.304053
                   21         22         23         24         25
    21  H    0.000000
    22  H    1.765591   0.000000
    23  H    4.018755   3.182574   0.000000
    24  H    4.080709   4.012798   1.778431   0.000000
    25  H    2.384686   3.045508   3.044734   2.383754   0.000000
    26  H    2.808418   2.420215   2.418057   2.825488   1.771343
    27  H    4.060648   3.822738   2.594061   2.480608   3.766634
                   26         27
    26  H    0.000000
    27  H    4.180385   0.000000
 Stoichiometry    C11H14NO(1+)
 Framework group  C1[X(C11H14NO)]
 Deg. of freedom    75
 Full point group                 C1      NOp   1
 Largest Abelian subgroup         C1      NOp   1
 Largest concise Abelian subgroup C1      NOp   1
                         Standard orientation:                         
 ---------------------------------------------------------------------
 Center     Atomic      Atomic             Coordinates (Angstroms)
 Number     Number       Type             X           Y           Z
 ---------------------------------------------------------------------
      1          6           0       -2.476589    0.266670   -0.010679
      2          6           0       -1.847699   -0.980890    0.035551
      3          6           0       -0.462669   -1.040980    0.044611
      4          6           0        0.320901    0.121180    0.012561
      5          6           0       -0.334028    1.370280   -0.027209
      6          6           0       -1.707868    1.442290   -0.040549
      7          1           0       -2.216328    2.400470   -0.073699
      8          1           0       -2.421089   -1.899180    0.061641
      9          1           0        0.010331   -2.016050    0.080341
     10          1           0        0.226412    2.299540   -0.047969
     11          8           0       -3.811609    0.440690   -0.029029
     12          6           0       -4.662799   -0.708340   -0.005839
     13          1           0       -4.507009   -1.286150    0.910001
     14          1           0       -4.488659   -1.335220   -0.885399
     15          1           0       -5.679989   -0.317900   -0.027039
     16          6           0        1.762021    0.001120    0.026351
     17          6           0        2.534441   -1.286070    0.080531
     18          7           0        2.592292    1.000830    0.027951
     19          6           0        4.012741    0.630480    0.108241
     20          6           0        3.977711   -0.860310   -0.234709
     21          1           0        2.140721   -2.027590   -0.616739
     22          1           0        2.430411   -1.696170    1.093101
     23          1           0        4.364652    0.830980    1.124841
     24          1           0        4.588192    1.237600   -0.591989
     25          1           0        4.182801   -1.002450   -1.299179
     26          1           0        4.713571   -1.428100    0.336291
     27          1           0        2.305812    1.976320    0.039241
 ---------------------------------------------------------------------
 Rotational constants (GHZ):           2.8721515           0.3539996           0.3181956
 Leave Link  202 at Wed Jul  8 17:46:57 2026, MaxMem=  4026531840 cpu:               0.1 elap:               0.2
 (Enter /opt/packages/gaussian/g16RevC.01/g16/l301.exe)
 Standard basis: 6-31+G(d) (6D, 7F)
 Ernie: Thresh=  0.10000D-02 Tol=  0.10000D-05 Strict=F.
 There are   275 symmetry adapted cartesian basis functions of A   symmetry.
 There are   275 symmetry adapted basis functions of A   symmetry.
   275 basis functions,   472 primitive gaussians,   275 cartesian basis functions
    47 alpha electrons       47 beta electrons
       nuclear repulsion energy       757.8706005614 Hartrees.
 IExCor= 4639 DFT=T Ex+Corr=wB97XD ExCW=0 ScaHFX=  1.000000
 ScaDFX=  1.000000  1.000000  1.000000  1.000000 ScalE2=  1.000000  1.000000
 IRadAn=      5 IRanWt=     -1 IRanGd=            0 ICorTp=0 IEmpDi=121
 HFx  wShort=  0.000000 wLong=  0.200000 cFull=  0.222036 cShort=  0.000000 cLong=  0.777964
 DFx  wShort=  0.000000 wLong=  0.200000 cFull=  0.000000 cShort=  0.000000 cLong=  1.000000
 NAtoms=   27 NActive=   27 NUniq=   27 SFac= 1.00D+00 NAtFMM=   60 NAOKFM=F Big=F
 Integral buffers will be    131072 words long.
 Raffenetti 2 integral format.
 Two-electron integral symmetry is turned on.
 R6Disp:  Grimme-D2 Dispersion energy=       -0.0165898337 Hartrees.
 Nuclear repulsion after empirical dispersion term =      757.8540107278 Hartrees.
 ------------------------------------------------------------------------------
 Polarizable Continuum Model (PCM)
 =================================
 Model                : PCM.
 Atomic radii         : SMD-Coulomb.
 Polarization charges : Total charges.
 Charge compensation  : None.
 Solution method      : On-the-fly selection.
 Cavity type          : VdW (van der Waals Surface) (Alpha=1.000).
 Cavity algorithm     : GePol (No added spheres)
                        Default sphere list used, NSphG=   27.
                        Lebedev-Laikov grids with approx.  5.0 points / Ang**2.
                        Smoothing algorithm: York/Karplus (Gamma=1.0000).
                        Polarization charges: spherical gaussians, with
                                              point-specific exponents (IZeta= 3).
                        Self-potential: point-specific (ISelfS= 7).
                        Self-field    : sphere-specific E.n sum rule (ISelfD= 2).
 1st derivatives      : Analytical E(r).r(x)/FMM algorithm (CHGder, D1EAlg=3).
                        Cavity 1st derivative terms included.
 Solvent              : Methanol, Eps=  32.613000 Eps(inf)=   1.765709
 ------------------------------------------------------------------------------
 GePol: Number of generator spheres                  =      27
 GePol: Total number of spheres                      =      27
 GePol: Number of exposed spheres                    =      27 (100.00%)
 GePol: Number of points                             =    1974
 GePol: Average weight of points                     =       0.11
 GePol: Minimum weight of points                     =   0.51D-10
 GePol: Maximum weight of points                     =    0.21991
 GePol: Number of points with low weight             =     108
 GePol: Fraction of low-weight points (<1% of avg)   =       5.47%
 GePol: Cavity surface area                          =    215.041 Ang**2
 GePol: Cavity volume                                =    191.254 Ang**3
 ------------------------------------------------------------------------------
 Atomic radii for non-electrostatic terms: SMD-CDS.
 ------------------------------------------------------------------------------
 PCM non-electrostatic energy =        -0.0004873142 Hartrees.
 Nuclear repulsion after PCM non-electrostatic terms =      757.8535234136 Hartrees.
 Leave Link  301 at Wed Jul  8 17:46:59 2026, MaxMem=  4026531840 cpu:               1.5 elap:               0.3
 (Enter /opt/packages/gaussian/g16RevC.01/g16/l302.exe)
 NPDir=0 NMtPBC=     1 NCelOv=     1 NCel=       1 NClECP=     1 NCelD=      1
         NCelK=      1 NCelE2=     1 NClLst=     1 CellRange=     0.0.
 One-electron integrals computed using PRISM.
 One-electron integral symmetry used in STVInt
 NBasis=   275 RedAO= T EigKep=  2.07D-06  NBF=   275
 NBsUse=   273 1.00D-06 EigRej=  8.55D-07 NBFU=   273
 Precomputing XC quadrature grid using
 IXCGrd= 4 IRadAn=           5 IRanWt=          -1 IRanGd=           0 AccXCQ= 0.00D+00.
 Generated NRdTot=       0 NPtTot=           0 NUsed=           0 NTot=          32
 NSgBfM=   274   274   274   274   274 MxSgAt=    27 MxSgA2=    27.
 Leave Link  302 at Wed Jul  8 17:47:00 2026, MaxMem=  4026531840 cpu:               1.8 elap:               0.4
 (Enter /opt/packages/gaussian/g16RevC.01/g16/l303.exe)
 DipDrv:  MaxL=1.
 Leave Link  303 at Wed Jul  8 17:47:00 2026, MaxMem=  4026531840 cpu:               0.2 elap:               0.1
 (Enter /opt/packages/gaussian/g16RevC.01/g16/l401.exe)
 ExpMin= 4.38D-02 ExpMax= 5.48D+03 ExpMxC= 8.25D+02 IAcc=3 IRadAn=         5 AccDes= 0.00D+00
 Harris functional with IExCor= 4639 and IRadAn=       5 diagonalized for initial guess.
 HarFok:  IExCor= 4639 AccDes= 0.00D+00 IRadAn=         5 IDoV= 1 UseB2=F ITyADJ=14
 ICtDFT=  3500011 ScaDFX=  1.000000  1.000000  1.000000  1.000000
 FoFCou: FMM=F IPFlag=           0 FMFlag=      100000 FMFlg1=           0
         NFxFlg=           0 DoJE=T BraDBF=F KetDBF=T FulRan=T
         wScrn=  0.000000 ICntrl=       500 IOpCl=  0 I1Cent=   200000004 NGrid=           0
         NMat0=    1 NMatS0=      1 NMatT0=    0 NMatD0=    1 NMtDS0=    0 NMtDT0=    0
 Petite list used in FoFCou.
 Harris En= -532.518009477435    
 JPrj=0 DoOrth=F DoCkMO=F.
 Leave Link  401 at Wed Jul  8 17:47:01 2026, MaxMem=  4026531840 cpu:               7.1 elap:               0.9
 (Enter /opt/packages/gaussian/g16RevC.01/g16/l502.exe)
 Integral symmetry usage will be decided dynamically.
 Closed shell SCF:
 Using DIIS extrapolation, IDIIS=  1040.
 NGot=  4026531840 LenX=  4026374748 LenY=  4026298682
 Requested convergence on RMS density matrix=1.00D-08 within 128 cycles.
 Requested convergence on MAX density matrix=1.00D-06.
 Requested convergence on             energy=1.00D-06.
 No special actions if energy rises.
 Fock matrices will be formed incrementally for  20 cycles.

 Cycle   1  Pass 1  IDiag  1:
 FoFJK:  IHMeth= 1 ICntrl=       0 DoSepK=T KAlg= 0 I1Cent=           0 FoldK=F
 IRaf=         1 NMat=       1 IRICut=       1 DoRegI=T DoRafI=F ISym2E= 0 IDoP0=0 IntGTp=1.
 FoFCou: FMM=F IPFlag=           0 FMFlag=      100000 FMFlg1=           0
         NFxFlg=           0 DoJE=T BraDBF=F KetDBF=F FulRan=T
         wScrn=  0.000000 ICntrl=       500 IOpCl=  0 I1Cent=           0 NGrid=           0
         NMat0=    1 NMatS0=      1 NMatT0=    0 NMatD0=    1 NMtDS0=    0 NMtDT0=    0
 Symmetry not used in FoFCou.
 Inv3:  Mode=1 IEnd=    11690028.
 Iteration    1 A*A^-1 deviation from unit magnitude is 3.55D-15 for   1511.
 Iteration    1 A*A^-1 deviation from orthogonality  is 2.67D-15 for    974    236.
 Iteration    1 A^-1*A deviation from unit magnitude is 3.77D-15 for   1511.
 Iteration    1 A^-1*A deviation from orthogonality  is 5.37D-14 for   1310   1218.
 E= -557.076188657908    
 DIIS: error= 5.43D-02 at cycle   1 NSaved=   1.
 NSaved= 1 IEnMin= 1 EnMin= -557.076188657908     IErMin= 1 ErrMin= 5.43D-02
 ErrMax= 5.43D-02  0.00D+00 EMaxC= 1.00D-01 BMatC= 6.09D-01 BMatP= 6.09D-01
 IDIUse=3 WtCom= 4.57D-01 WtEn= 5.43D-01
 Coeff-Com:  0.100D+01
 Coeff-En:   0.100D+01
 Coeff:      0.100D+01
 Gap=     0.318 Goal=   None    Shift=    0.000
 GapD=    0.318 DampG=1.000 DampE=0.500 DampFc=0.5000 IDamp=-1.
 Damping current iteration by 5.00D-01
 RMSDP=1.92D-02 MaxDP=1.30D+00              OVMax= 1.37D-01

 Cycle   2  Pass 1  IDiag  1:
 RMSU=  7.88D-03    CP:  9.00D-01
 E= -557.171530802950     Delta-E=       -0.095342145042 Rises=F Damp=T
 DIIS: error= 2.68D-02 at cycle   2 NSaved=   2.
 NSaved= 2 IEnMin= 2 EnMin= -557.171530802950     IErMin= 2 ErrMin= 2.68D-02
 ErrMax= 2.68D-02  0.00D+00 EMaxC= 1.00D-01 BMatC= 1.15D-01 BMatP= 6.09D-01
 IDIUse=3 WtCom= 7.32D-01 WtEn= 2.68D-01
 Coeff-Com: -0.343D+00 0.134D+01
 Coeff-En:   0.000D+00 0.100D+01
 Coeff:     -0.251D+00 0.125D+01
 Gap=     0.356 Goal=   None    Shift=    0.000
 RMSDP=1.13D-02 MaxDP=9.22D-01 DE=-9.53D-02 OVMax= 1.17D-01

 Cycle   3  Pass 1  IDiag  1:
 RMSU=  4.53D-03    CP:  7.24D-01  1.44D+00
 E= -557.256377467871     Delta-E=       -0.084846664921 Rises=F Damp=F
 DIIS: error= 8.42D-03 at cycle   3 NSaved=   3.
 NSaved= 3 IEnMin= 3 EnMin= -557.256377467871     IErMin= 3 ErrMin= 8.42D-03
 ErrMax= 8.42D-03  0.00D+00 EMaxC= 1.00D-01 BMatC= 2.93D-02 BMatP= 1.15D-01
 IDIUse=3 WtCom= 9.16D-01 WtEn= 8.42D-02
 Coeff-Com: -0.262D+00 0.550D+00 0.712D+00
 Coeff-En:   0.000D+00 0.000D+00 0.100D+01
 Coeff:     -0.240D+00 0.504D+00 0.736D+00
 Gap=     0.305 Goal=   None    Shift=    0.000
 RMSDP=2.86D-03 MaxDP=1.98D-01 DE=-8.48D-02 OVMax= 3.52D-02

 Cycle   4  Pass 1  IDiag  1:
 RMSU=  1.19D-03    CP:  6.92D-01  1.67D+00  8.67D-01
 E= -557.277879525179     Delta-E=       -0.021502057307 Rises=F Damp=F
 DIIS: error= 1.41D-03 at cycle   4 NSaved=   4.
 NSaved= 4 IEnMin= 4 EnMin= -557.277879525179     IErMin= 4 ErrMin= 1.41D-03
 ErrMax= 1.41D-03  0.00D+00 EMaxC= 1.00D-01 BMatC= 1.34D-03 BMatP= 2.93D-02
 IDIUse=3 WtCom= 9.86D-01 WtEn= 1.41D-02
 Coeff-Com: -0.101D+00 0.205D+00 0.355D+00 0.540D+00
 Coeff-En:   0.000D+00 0.000D+00 0.000D+00 0.100D+01
 Coeff:     -0.995D-01 0.202D+00 0.350D+00 0.547D+00
 Gap=     0.297 Goal=   None    Shift=    0.000
 RMSDP=5.00D-04 MaxDP=3.43D-02 DE=-2.15D-02 OVMax= 4.38D-03

 Cycle   5  Pass 1  IDiag  1:
 RMSU=  3.78D-04    CP:  6.88D-01  1.68D+00  9.20D-01  9.07D-01
 E= -557.278864739713     Delta-E=       -0.000985214534 Rises=F Damp=F
 DIIS: error= 2.11D-04 at cycle   5 NSaved=   5.
 NSaved= 5 IEnMin= 5 EnMin= -557.278864739713     IErMin= 5 ErrMin= 2.11D-04
 ErrMax= 2.11D-04  0.00D+00 EMaxC= 1.00D-01 BMatC= 1.65D-05 BMatP= 1.34D-03
 IDIUse=3 WtCom= 9.98D-01 WtEn= 2.11D-03
 Coeff-Com:  0.169D-01-0.369D-01-0.305D-01 0.333D-02 0.105D+01
 Coeff-En:   0.000D+00 0.000D+00 0.000D+00 0.000D+00 0.100D+01
 Coeff:      0.169D-01-0.368D-01-0.304D-01 0.333D-02 0.105D+01
 Gap=     0.298 Goal=   None    Shift=    0.000
 RMSDP=3.84D-04 MaxDP=3.49D-02 DE=-9.85D-04 OVMax= 2.91D-03

 Cycle   6  Pass 1  IDiag  1:
 RMSU=  1.03D-04    CP:  6.83D-01  1.69D+00  9.45D-01  9.91D-01  1.21D+00
 E= -557.278899885316     Delta-E=       -0.000035145603 Rises=F Damp=F
 DIIS: error= 9.52D-05 at cycle   6 NSaved=   6.
 NSaved= 6 IEnMin= 6 EnMin= -557.278899885316     IErMin= 6 ErrMin= 9.52D-05
 ErrMax= 9.52D-05  0.00D+00 EMaxC= 1.00D-01 BMatC= 2.95D-06 BMatP= 1.65D-05
 IDIUse=1 WtCom= 1.00D+00 WtEn= 0.00D+00
 Coeff-Com:  0.141D-01-0.291D-01-0.394D-01-0.534D-01 0.330D+00 0.778D+00
 Coeff:      0.141D-01-0.291D-01-0.394D-01-0.534D-01 0.330D+00 0.778D+00
 Gap=     0.298 Goal=   None    Shift=    0.000
 RMSDP=8.91D-05 MaxDP=7.47D-03 DE=-3.51D-05 OVMax= 9.71D-04

 Cycle   7  Pass 1  IDiag  1:
 RMSU=  2.49D-05    CP:  6.81D-01  1.69D+00  9.49D-01  1.01D+00  1.28D+00
                    CP:  1.17D+00
 E= -557.278904466107     Delta-E=       -0.000004580791 Rises=F Damp=F
 DIIS: error= 3.87D-05 at cycle   7 NSaved=   7.
 NSaved= 7 IEnMin= 7 EnMin= -557.278904466107     IErMin= 7 ErrMin= 3.87D-05
 ErrMax= 3.87D-05  0.00D+00 EMaxC= 1.00D-01 BMatC= 2.67D-07 BMatP= 2.95D-06
 IDIUse=1 WtCom= 1.00D+00 WtEn= 0.00D+00
 Coeff-Com:  0.119D-02-0.222D-02-0.483D-02-0.133D-01-0.324D-01 0.191D+00
 Coeff-Com:  0.860D+00
 Coeff:      0.119D-02-0.222D-02-0.483D-02-0.133D-01-0.324D-01 0.191D+00
 Coeff:      0.860D+00
 Gap=     0.298 Goal=   None    Shift=    0.000
 RMSDP=2.06D-05 MaxDP=1.31D-03 DE=-4.58D-06 OVMax= 5.68D-04

 Cycle   8  Pass 1  IDiag  1:
 RMSU=  1.12D-05    CP:  6.81D-01  1.69D+00  9.51D-01  1.01D+00  1.30D+00
                    CP:  1.24D+00  1.09D+00
 E= -557.278905062325     Delta-E=       -0.000000596218 Rises=F Damp=F
 DIIS: error= 1.38D-05 at cycle   8 NSaved=   8.
 NSaved= 8 IEnMin= 8 EnMin= -557.278905062325     IErMin= 8 ErrMin= 1.38D-05
 ErrMax= 1.38D-05  0.00D+00 EMaxC= 1.00D-01 BMatC= 6.97D-08 BMatP= 2.67D-07
 IDIUse=1 WtCom= 1.00D+00 WtEn= 0.00D+00
 Coeff-Com: -0.166D-02 0.350D-02 0.418D-02 0.235D-02-0.588D-01-0.400D-01
 Coeff-Com:  0.358D+00 0.733D+00
 Coeff:     -0.166D-02 0.350D-02 0.418D-02 0.235D-02-0.588D-01-0.400D-01
 Coeff:      0.358D+00 0.733D+00
 Gap=     0.298 Goal=   None    Shift=    0.000
 RMSDP=7.33D-06 MaxDP=4.05D-04 DE=-5.96D-07 OVMax= 2.11D-04

 Cycle   9  Pass 1  IDiag  1:
 RMSU=  4.80D-06    CP:  6.81D-01  1.69D+00  9.51D-01  1.01D+00  1.30D+00
                    CP:  1.24D+00  1.20D+00  1.17D+00
 E= -557.278905187984     Delta-E=       -0.000000125659 Rises=F Damp=F
 DIIS: error= 7.33D-06 at cycle   9 NSaved=   9.
 NSaved= 9 IEnMin= 9 EnMin= -557.278905187984     IErMin= 9 ErrMin= 7.33D-06
 ErrMax= 7.33D-06  0.00D+00 EMaxC= 1.00D-01 BMatC= 7.77D-09 BMatP= 6.97D-08
 IDIUse=1 WtCom= 1.00D+00 WtEn= 0.00D+00
 Coeff-Com: -0.796D-03 0.162D-02 0.238D-02 0.303D-02-0.138D-01-0.555D-01
 Coeff-Com: -0.302D-01 0.187D+00 0.906D+00
 Coeff:     -0.796D-03 0.162D-02 0.238D-02 0.303D-02-0.138D-01-0.555D-01
 Coeff:     -0.302D-01 0.187D+00 0.906D+00
 Gap=     0.298 Goal=   None    Shift=    0.000
 RMSDP=4.30D-06 MaxDP=1.89D-04 DE=-1.26D-07 OVMax= 1.43D-04

 Cycle  10  Pass 1  IDiag  1:
 RMSU=  1.46D-06    CP:  6.81D-01  1.69D+00  9.51D-01  1.01D+00  1.31D+00
                    CP:  1.24D+00  1.26D+00  1.39D+00  1.37D+00
 E= -557.278905213493     Delta-E=       -0.000000025509 Rises=F Damp=F
 DIIS: error= 2.34D-06 at cycle  10 NSaved=  10.
 NSaved=10 IEnMin=10 EnMin= -557.278905213493     IErMin=10 ErrMin= 2.34D-06
 ErrMax= 2.34D-06  0.00D+00 EMaxC= 1.00D-01 BMatC= 1.13D-09 BMatP= 7.77D-09
 IDIUse=1 WtCom= 1.00D+00 WtEn= 0.00D+00
 Coeff-Com:  0.723D-04-0.157D-03-0.133D-03 0.567D-04 0.410D-02-0.857D-02
 Coeff-Com: -0.280D-01-0.625D-01 0.184D+00 0.911D+00
 Coeff:      0.723D-04-0.157D-03-0.133D-03 0.567D-04 0.410D-02-0.857D-02
 Coeff:     -0.280D-01-0.625D-01 0.184D+00 0.911D+00
 Gap=     0.298 Goal=   None    Shift=    0.000
 RMSDP=1.26D-06 MaxDP=6.02D-05 DE=-2.55D-08 OVMax= 5.42D-05

 Cycle  11  Pass 1  IDiag  1:
 RMSU=  4.92D-07    CP:  6.81D-01  1.69D+00  9.50D-01  1.01D+00  1.31D+00
                    CP:  1.24D+00  1.27D+00  1.42D+00  1.53D+00  1.25D+00
 E= -557.278905217127     Delta-E=       -0.000000003634 Rises=F Damp=F
 DIIS: error= 8.90D-07 at cycle  11 NSaved=  11.
 NSaved=11 IEnMin=11 EnMin= -557.278905217127     IErMin=11 ErrMin= 8.90D-07
 ErrMax= 8.90D-07  0.00D+00 EMaxC= 1.00D-01 BMatC= 2.41D-10 BMatP= 1.13D-09
 IDIUse=1 WtCom= 1.00D+00 WtEn= 0.00D+00
 Coeff-Com:  0.141D-03-0.292D-03-0.401D-03-0.396D-03 0.355D-02 0.589D-02
 Coeff-Com:  0.419D-02-0.583D-01-0.138D+00 0.230D+00 0.954D+00
 Coeff:      0.141D-03-0.292D-03-0.401D-03-0.396D-03 0.355D-02 0.589D-02
 Coeff:      0.419D-02-0.583D-01-0.138D+00 0.230D+00 0.954D+00
 Gap=     0.298 Goal=   None    Shift=    0.000
 RMSDP=7.46D-07 MaxDP=3.53D-05 DE=-3.63D-09 OVMax= 2.67D-05

 Cycle  12  Pass 1  IDiag  1:
 RMSU=  2.99D-07    CP:  6.81D-01  1.69D+00  9.50D-01  1.01D+00  1.31D+00
                    CP:  1.24D+00  1.28D+00  1.44D+00  1.61D+00  1.40D+00
                    CP:  1.28D+00
 E= -557.278905217921     Delta-E=       -0.000000000794 Rises=F Damp=F
 DIIS: error= 3.20D-07 at cycle  12 NSaved=  12.
 NSaved=12 IEnMin=12 EnMin= -557.278905217921     IErMin=12 ErrMin= 3.20D-07
 ErrMax= 3.20D-07  0.00D+00 EMaxC= 1.00D-01 BMatC= 1.97D-11 BMatP= 2.41D-10
 IDIUse=1 WtCom= 1.00D+00 WtEn= 0.00D+00
 Coeff-Com: -0.165D-05 0.450D-05-0.843D-05-0.548D-05-0.193D-03 0.991D-03
 Coeff-Com:  0.675D-02-0.135D-03-0.362D-01-0.676D-01 0.715D-01 0.102D+01
 Coeff:     -0.165D-05 0.450D-05-0.843D-05-0.548D-05-0.193D-03 0.991D-03
 Coeff:      0.675D-02-0.135D-03-0.362D-01-0.676D-01 0.715D-01 0.102D+01
 Gap=     0.298 Goal=   None    Shift=    0.000
 RMSDP=1.89D-07 MaxDP=8.26D-06 DE=-7.94D-10 OVMax= 7.72D-06

 Cycle  13  Pass 1  IDiag  1:
 RMSU=  1.04D-07    CP:  6.81D-01  1.69D+00  9.50D-01  1.01D+00  1.31D+00
                    CP:  1.24D+00  1.28D+00  1.44D+00  1.62D+00  1.42D+00
                    CP:  1.39D+00  1.27D+00
 E= -557.278905217986     Delta-E=       -0.000000000065 Rises=F Damp=F
 DIIS: error= 1.38D-07 at cycle  13 NSaved=  13.
 NSaved=13 IEnMin=13 EnMin= -557.278905217986     IErMin=13 ErrMin= 1.38D-07
 ErrMax= 1.38D-07  0.00D+00 EMaxC= 1.00D-01 BMatC= 4.88D-12 BMatP= 1.97D-11
 IDIUse=1 WtCom= 1.00D+00 WtEn= 0.00D+00
 Coeff-Com: -0.184D-04 0.385D-04 0.459D-04 0.462D-04-0.505D-03-0.455D-03
 Coeff-Com:  0.241D-02 0.598D-02 0.120D-02-0.585D-01-0.980D-01 0.410D+00
 Coeff-Com:  0.738D+00
 Coeff:     -0.184D-04 0.385D-04 0.459D-04 0.462D-04-0.505D-03-0.455D-03
 Coeff:      0.241D-02 0.598D-02 0.120D-02-0.585D-01-0.980D-01 0.410D+00
 Coeff:      0.738D+00
 Gap=     0.298 Goal=   None    Shift=    0.000
 RMSDP=9.67D-08 MaxDP=6.57D-06 DE=-6.51D-11 OVMax= 2.42D-06

 Cycle  14  Pass 1  IDiag  1:
 RMSU=  3.03D-08    CP:  6.81D-01  1.69D+00  9.50D-01  1.01D+00  1.31D+00
                    CP:  1.24D+00  1.28D+00  1.44D+00  1.62D+00  1.43D+00
                    CP:  1.40D+00  1.41D+00  1.27D+00
 E= -557.278905217998     Delta-E=       -0.000000000011 Rises=F Damp=F
 DIIS: error= 3.34D-08 at cycle  14 NSaved=  14.
 NSaved=14 IEnMin=14 EnMin= -557.278905217998     IErMin=14 ErrMin= 3.34D-08
 ErrMax= 3.34D-08  0.00D+00 EMaxC= 1.00D-01 BMatC= 2.99D-13 BMatP= 4.88D-12
 IDIUse=1 WtCom= 1.00D+00 WtEn= 0.00D+00
 Coeff-Com: -0.301D-05 0.614D-05 0.870D-05 0.346D-05-0.656D-04-0.270D-03
 Coeff-Com: -0.192D-03 0.843D-03 0.561D-02-0.138D-02-0.221D-01-0.701D-01
 Coeff-Com:  0.117D+00 0.971D+00
 Coeff:     -0.301D-05 0.614D-05 0.870D-05 0.346D-05-0.656D-04-0.270D-03
 Coeff:     -0.192D-03 0.843D-03 0.561D-02-0.138D-02-0.221D-01-0.701D-01
 Coeff:      0.117D+00 0.971D+00
 Gap=     0.298 Goal=   None    Shift=    0.000
 RMSDP=3.40D-08 MaxDP=1.96D-06 DE=-1.13D-11 OVMax= 5.30D-07

 Cycle  15  Pass 1  IDiag  1:
 RMSU=  9.55D-09    CP:  6.81D-01  1.69D+00  9.50D-01  1.01D+00  1.31D+00
                    CP:  1.24D+00  1.28D+00  1.44D+00  1.62D+00  1.42D+00
                    CP:  1.41D+00  1.45D+00  1.40D+00  1.08D+00
 E= -557.278905218002     Delta-E=       -0.000000000005 Rises=F Damp=F
 DIIS: error= 1.00D-08 at cycle  15 NSaved=  15.
 NSaved=15 IEnMin=15 EnMin= -557.278905218002     IErMin=15 ErrMin= 1.00D-08
 ErrMax= 1.00D-08  0.00D+00 EMaxC= 1.00D-01 BMatC= 2.07D-14 BMatP= 2.99D-13
 IDIUse=1 WtCom= 1.00D+00 WtEn= 0.00D+00
 Coeff-Com:  0.584D-07-0.194D-06 0.134D-06-0.170D-05 0.988D-05-0.566D-04
 Coeff-Com: -0.184D-03-0.142D-03 0.158D-02 0.299D-02 0.568D-03-0.452D-01
 Coeff-Com: -0.703D-02 0.248D+00 0.799D+00
 Coeff:      0.584D-07-0.194D-06 0.134D-06-0.170D-05 0.988D-05-0.566D-04
 Coeff:     -0.184D-03-0.142D-03 0.158D-02 0.299D-02 0.568D-03-0.452D-01
 Coeff:     -0.703D-02 0.248D+00 0.799D+00
 Gap=     0.298 Goal=   None    Shift=    0.000
 RMSDP=5.35D-09 MaxDP=1.58D-07 DE=-4.77D-12 OVMax= 1.12D-07

 Error on total polarization charges =  0.04776
 SCF Done:  E(RwB97XD) =  -557.278905218     A.U. after   15 cycles
            NFock= 15  Conv=0.54D-08     -V/T= 2.0095
 KE= 5.520379931568D+02 PE=-2.793744444874D+03 EE= 9.265740230854D+02
 SMD-CDS (non-electrostatic) energy       (kcal/mol) =      -0.31
 (included in total energy above)
 Leave Link  502 at Wed Jul  8 17:47:38 2026, MaxMem=  4026531840 cpu:             291.9 elap:              36.8
 (Enter /opt/packages/gaussian/g16RevC.01/g16/l601.exe)
 Copying SCF densities to generalized density rwf, IOpCl= 0 IROHF=0.

 **********************************************************************

            Population analysis using the SCF Density.

 **********************************************************************

 Orbital symmetries:
       Occupied  (A) (A) (A) (A) (A) (A) (A) (A) (A) (A) (A) (A)
                 (A) (A) (A) (A) (A) (A) (A) (A) (A) (A) (A) (A)
                 (A) (A) (A) (A) (A) (A) (A) (A) (A) (A) (A) (A)
                 (A) (A) (A) (A) (A) (A) (A) (A) (A) (A) (A)
       Virtual   (A) (A) (A) (A) (A) (A) (A) (A) (A) (A) (A) (A)
                 (A) (A) (A) (A) (A) (A) (A) (A) (A) (A) (A) (A)
                 (A) (A) (A) (A) (A) (A) (A) (A) (A) (A) (A) (A)
                 (A) (A) (A) (A) (A) (A) (A) (A) (A) (A) (A) (A)
                 (A) (A) (A) (A) (A) (A) (A) (A) (A) (A) (A) (A)
                 (A) (A) (A) (A) (A) (A) (A) (A) (A) (A) (A) (A)
                 (A) (A) (A) (A) (A) (A) (A) (A) (A) (A) (A) (A)
                 (A) (A) (A) (A) (A) (A) (A) (A) (A) (A) (A) (A)
                 (A) (A) (A) (A) (A) (A) (A) (A) (A) (A) (A) (A)
                 (A) (A) (A) (A) (A) (A) (A) (A) (A) (A) (A) (A)
                 (A) (A) (A) (A) (A) (A) (A) (A) (A) (A) (A) (A)
                 (A) (A) (A) (A) (A) (A) (A) (A) (A) (A) (A) (A)
                 (A) (A) (A) (A) (A) (A) (A) (A) (A) (A) (A) (A)
                 (A) (A) (A) (A) (A) (A) (A) (A) (A) (A) (A) (A)
                 (A) (A) (A) (A) (A) (A) (A) (A) (A) (A) (A) (A)
                 (A) (A) (A) (A) (A) (A) (A) (A) (A) (A) (A) (A)
                 (A) (A) (A) (A) (A) (A) (A) (A) (A) (A) (A) (A)
                 (A) (A) (A) (A) (A) (A) (A) (A) (A) (A) (A) (A)
                 (A) (A) (A) (A) (A) (A) (A) (A) (A) (A)
 The electronic state is 1-A.
 Alpha  occ. eigenvalues --  -19.32969 -14.54153 -10.41495 -10.39279 -10.34853
 Alpha  occ. eigenvalues --  -10.34700 -10.33665 -10.33462 -10.33396 -10.32267
 Alpha  occ. eigenvalues --  -10.31843 -10.31805 -10.31062  -1.19292  -1.11974
 Alpha  occ. eigenvalues --   -0.98564  -0.90740  -0.90388  -0.87378  -0.85013
 Alpha  occ. eigenvalues --   -0.80503  -0.73948  -0.72817  -0.70949  -0.70667
 Alpha  occ. eigenvalues --   -0.66009  -0.62812  -0.60569  -0.59103  -0.56836
 Alpha  occ. eigenvalues --   -0.56487  -0.54756  -0.53029  -0.52349  -0.51712
 Alpha  occ. eigenvalues --   -0.50877  -0.50369  -0.48923  -0.47461  -0.46391
 Alpha  occ. eigenvalues --   -0.45572  -0.45197  -0.42813  -0.42405  -0.40110
 Alpha  occ. eigenvalues --   -0.35502  -0.31902
 Alpha virt. eigenvalues --   -0.02114   0.04160   0.06533   0.08002   0.08099
 Alpha virt. eigenvalues --    0.08852   0.09119   0.09131   0.09653   0.10130
 Alpha virt. eigenvalues --    0.10837   0.11235   0.11501   0.12559   0.13066
 Alpha virt. eigenvalues --    0.13556   0.13791   0.14344   0.15488   0.16277
 Alpha virt. eigenvalues --    0.17154   0.17495   0.17896   0.18425   0.18841
 Alpha virt. eigenvalues --    0.19198   0.19581   0.20217   0.20772   0.21021
 Alpha virt. eigenvalues --    0.21070   0.21987   0.22351   0.23207   0.23347
 Alpha virt. eigenvalues --    0.24169   0.24479   0.25034   0.25222   0.25921
 Alpha virt. eigenvalues --    0.26456   0.26683   0.26975   0.27923   0.28338
 Alpha virt. eigenvalues --    0.29347   0.29775   0.30286   0.30422   0.30528
 Alpha virt. eigenvalues --    0.31149   0.32236   0.32532   0.32968   0.33474
 Alpha virt. eigenvalues --    0.34108   0.34272   0.34866   0.35393   0.36198
 Alpha virt. eigenvalues --    0.36789   0.37150   0.37709   0.38576   0.39214
 Alpha virt. eigenvalues --    0.39669   0.40213   0.40874   0.41634   0.42785
 Alpha virt. eigenvalues --    0.42983   0.43937   0.46048   0.46868   0.47126
 Alpha virt. eigenvalues --    0.50305   0.51793   0.52283   0.53562   0.55689
 Alpha virt. eigenvalues --    0.65893   0.68708   0.70710   0.73724   0.74149
 Alpha virt. eigenvalues --    0.75270   0.76002   0.76599   0.77002   0.77843
 Alpha virt. eigenvalues --    0.78170   0.79329   0.79853   0.80032   0.80695
 Alpha virt. eigenvalues --    0.81454   0.82036   0.83418   0.84781   0.86026
 Alpha virt. eigenvalues --    0.86673   0.88027   0.91011   0.91942   0.92886
 Alpha virt. eigenvalues --    0.97154   0.98281   1.00724   1.01626   1.02748
 Alpha virt. eigenvalues --    1.03491   1.04187   1.05081   1.06122   1.07434
 Alpha virt. eigenvalues --    1.07772   1.08842   1.12231   1.14084   1.14130
 Alpha virt. eigenvalues --    1.15780   1.17357   1.17915   1.18337   1.20818
 Alpha virt. eigenvalues --    1.21947   1.23364   1.24423   1.25394   1.27230
 Alpha virt. eigenvalues --    1.28937   1.29335   1.30213   1.31516   1.33307
 Alpha virt. eigenvalues --    1.35890   1.36481   1.38345   1.41237   1.43996
 Alpha virt. eigenvalues --    1.44411   1.47585   1.49706   1.50593   1.52064
 Alpha virt. eigenvalues --    1.52574   1.54270   1.56568   1.58492   1.61003
 Alpha virt. eigenvalues --    1.61781   1.66095   1.69535   1.72452   1.80043
 Alpha virt. eigenvalues --    1.81456   1.83768   1.89295   1.90712   1.91024
 Alpha virt. eigenvalues --    1.92729   1.94049   1.96311   2.00076   2.01183
 Alpha virt. eigenvalues --    2.03215   2.04339   2.05708   2.08421   2.09142
 Alpha virt. eigenvalues --    2.10694   2.12848   2.14764   2.16828   2.18260
 Alpha virt. eigenvalues --    2.18958   2.19752   2.23000   2.23899   2.25831
 Alpha virt. eigenvalues --    2.27805   2.28436   2.31470   2.33218   2.37706
 Alpha virt. eigenvalues --    2.38432   2.38980   2.40768   2.43690   2.48641
 Alpha virt. eigenvalues --    2.48978   2.52492   2.56773   2.59510   2.62352
 Alpha virt. eigenvalues --    2.64420   2.65354   2.70131   2.71921   2.73919
 Alpha virt. eigenvalues --    2.75727   2.79694   2.83516   2.86844   2.88993
 Alpha virt. eigenvalues --    2.91575   2.94753   2.97634   3.11344   3.13908
 Alpha virt. eigenvalues --    3.21687   3.34954   3.53063   4.19449   4.33714
 Alpha virt. eigenvalues --    4.34684   4.36072   4.39383   4.42411   4.45839
 Alpha virt. eigenvalues --    4.48423   4.52501   4.59874   4.67494   4.73683
 Alpha virt. eigenvalues --    4.89864
          Condensed to atoms (all electrons):
               1          2          3          4          5          6
     1  C    6.355414   0.579608  -0.105188  -0.606557  -0.556549   0.239099
     2  C    0.579608   7.052910   1.326473  -0.899482  -0.187277  -1.847031
     3  C   -0.105188   1.326473   8.933378   1.884409  -3.570748   0.027594
     4  C   -0.606557  -0.899482   1.884409  10.048115  -3.190530   0.878179
     5  C   -0.556549  -0.187277  -3.570748  -3.190530  12.883016  -2.769383
     6  C    0.239099  -1.847031   0.027594   0.878179  -2.769383  11.284576
     7  H   -0.003414  -0.000713  -0.007337   0.010057   0.008286   0.306438
     8  H   -0.037083   0.330197  -0.029892   0.045417  -0.004539   0.011268
     9  H    0.009105  -0.046833   0.266777  -0.014002   0.044108  -0.029049
    10  H    0.001029  -0.009051  -0.000990  -0.014895   0.280985  -0.020622
    11  O    0.442413   0.085988   0.011586  -0.036850   0.000674  -0.514262
    12  C   -0.110294  -0.110079  -0.024675  -0.025099   0.027593   0.092790
    13  H   -0.042852   0.023723   0.005162  -0.001151  -0.000932   0.001651
    14  H   -0.037167   0.019208   0.001086  -0.002232  -0.000040   0.005828
    15  H    0.023619  -0.008770   0.000318   0.001153  -0.001523   0.004234
    16  C   -0.103866  -0.045256  -0.980724  -0.887118   2.204193  -1.023068
    17  C    0.004033   0.008180  -0.737560  -1.215946   0.514376  -0.318461
    18  N   -0.013611  -0.053651  -0.097297   0.165108   0.006305   0.209943
    19  C   -0.000870  -0.000234  -0.031639  -0.078113  -0.052724  -0.032781
    20  C   -0.000726   0.002070  -0.057298   0.022141   0.057767   0.003404
    21  H   -0.001045  -0.003957   0.016661  -0.002892  -0.008076   0.005306
    22  H   -0.001782  -0.013173  -0.052221   0.024636   0.027147   0.005978
    23  H   -0.000087  -0.000554  -0.004858  -0.014758   0.011159   0.001542
    24  H   -0.000052  -0.000080   0.000601  -0.001473  -0.001209   0.000211
    25  H   -0.000096  -0.001316  -0.006444   0.001688   0.008184   0.001245
    26  H    0.000024   0.000203   0.003616   0.003468  -0.000094   0.000003
    27  H    0.001542  -0.003145  -0.036058  -0.085119   0.073713   0.025563
               7          8          9         10         11         12
     1  C   -0.003414  -0.037083   0.009105   0.001029   0.442413  -0.110294
     2  C   -0.000713   0.330197  -0.046833  -0.009051   0.085988  -0.110079
     3  C   -0.007337  -0.029892   0.266777  -0.000990   0.011586  -0.024675
     4  C    0.010057   0.045417  -0.014002  -0.014895  -0.036850  -0.025099
     5  C    0.008286  -0.004539   0.044108   0.280985   0.000674   0.027593
     6  C    0.306438   0.011268  -0.029049  -0.020622  -0.514262   0.092790
     7  H    0.422027  -0.000084   0.000010  -0.002759  -0.002506  -0.000512
     8  H   -0.000084   0.426532  -0.002778   0.000011  -0.009356   0.000870
     9  H    0.000010  -0.002778   0.429436  -0.000086  -0.000507   0.000390
    10  H   -0.002759   0.000011  -0.000086   0.434199  -0.000384   0.000409
    11  O   -0.002506  -0.009356  -0.000507  -0.000384   8.499668   0.064150
    12  C   -0.000512   0.000870   0.000390   0.000409   0.064150   5.313282
    13  H    0.000001  -0.001138   0.000002   0.000000  -0.030415   0.390150
    14  H    0.000001  -0.001158   0.000002   0.000000  -0.030711   0.389616
    15  H   -0.000005   0.000158  -0.000000  -0.000000  -0.057579   0.389964
    16  C    0.000044   0.001135   0.043385   0.041646  -0.003124   0.004206
    17  C   -0.000093   0.001639   0.024985   0.021840  -0.001157   0.000987
    18  N    0.000232   0.000099   0.000068  -0.002507   0.000029  -0.000302
    19  C    0.000070   0.000003   0.001866   0.005145  -0.000027   0.000156
    20  C   -0.000008  -0.000087   0.001973  -0.000960   0.000036  -0.000103
    21  H   -0.000000   0.000001  -0.000003   0.000001  -0.000000  -0.000014
    22  H   -0.000000   0.000000  -0.001181  -0.000004   0.000000  -0.000007
    23  H    0.000000   0.000000  -0.000000  -0.000005   0.000000  -0.000000
    24  H   -0.000000   0.000000   0.000000   0.000002   0.000000  -0.000000
    25  H    0.000000   0.000000  -0.000009  -0.000001   0.000000  -0.000001
    26  H    0.000000  -0.000000   0.000000   0.000000  -0.000000  -0.000000
    27  H   -0.000000   0.000000   0.000002   0.004771  -0.000001   0.000005
              13         14         15         16         17         18
     1  C   -0.042852  -0.037167   0.023619  -0.103866   0.004033  -0.013611
     2  C    0.023723   0.019208  -0.008770  -0.045256   0.008180  -0.053651
     3  C    0.005162   0.001086   0.000318  -0.980724  -0.737560  -0.097297
     4  C   -0.001151  -0.002232   0.001153  -0.887118  -1.215946   0.165108
     5  C   -0.000932  -0.000040  -0.001523   2.204193   0.514376   0.006305
     6  C    0.001651   0.005828   0.004234  -1.023068  -0.318461   0.209943
     7  H    0.000001   0.000001  -0.000005   0.000044  -0.000093   0.000232
     8  H   -0.001138  -0.001158   0.000158   0.001135   0.001639   0.000099
     9  H    0.000002   0.000002  -0.000000   0.043385   0.024985   0.000068
    10  H    0.000000   0.000000  -0.000000   0.041646   0.021840  -0.002507
    11  O   -0.030415  -0.030711  -0.057579  -0.003124  -0.001157   0.000029
    12  C    0.390150   0.389616   0.389964   0.004206   0.000987  -0.000302
    13  H    0.466692  -0.034484  -0.022853   0.000101  -0.000023  -0.000000
    14  H   -0.034484   0.466282  -0.022849  -0.000158  -0.000057  -0.000001
    15  H   -0.022853  -0.022849   0.444290  -0.000008   0.000002   0.000000
    16  C    0.000101  -0.000158  -0.000008   6.733324  -0.745405   0.323052
    17  C   -0.000023  -0.000057   0.000002  -0.745405   8.682441  -0.403759
    18  N   -0.000000  -0.000001   0.000000   0.323052  -0.403759   6.987537
    19  C    0.000001  -0.000001  -0.000000  -0.427641   0.416116   0.094788
    20  C   -0.000004   0.000002   0.000000   0.259391  -0.630555  -0.086628
    21  H   -0.000000   0.000000   0.000000  -0.055667   0.392314   0.008981
    22  H    0.000000  -0.000000   0.000000   0.007932   0.319752   0.005302
    23  H   -0.000000   0.000000   0.000000  -0.001760   0.003254  -0.032571
    24  H    0.000000  -0.000000   0.000000   0.000233   0.036140  -0.043779
    25  H    0.000000  -0.000000   0.000000   0.030895  -0.087295   0.012654
    26  H   -0.000000   0.000000   0.000000   0.056046  -0.091069   0.004895
    27  H    0.000000  -0.000000  -0.000000  -0.005432   0.009619   0.257294
              19         20         21         22         23         24
     1  C   -0.000870  -0.000726  -0.001045  -0.001782  -0.000087  -0.000052
     2  C   -0.000234   0.002070  -0.003957  -0.013173  -0.000554  -0.000080
     3  C   -0.031639  -0.057298   0.016661  -0.052221  -0.004858   0.000601
     4  C   -0.078113   0.022141  -0.002892   0.024636  -0.014758  -0.001473
     5  C   -0.052724   0.057767  -0.008076   0.027147   0.011159  -0.001209
     6  C   -0.032781   0.003404   0.005306   0.005978   0.001542   0.000211
     7  H    0.000070  -0.000008  -0.000000  -0.000000   0.000000  -0.000000
     8  H    0.000003  -0.000087   0.000001   0.000000   0.000000   0.000000
     9  H    0.001866   0.001973  -0.000003  -0.001181  -0.000000   0.000000
    10  H    0.005145  -0.000960   0.000001  -0.000004  -0.000005   0.000002
    11  O   -0.000027   0.000036  -0.000000   0.000000   0.000000   0.000000
    12  C    0.000156  -0.000103  -0.000014  -0.000007  -0.000000  -0.000000
    13  H    0.000001  -0.000004  -0.000000   0.000000  -0.000000   0.000000
    14  H   -0.000001   0.000002   0.000000  -0.000000   0.000000  -0.000000
    15  H   -0.000000   0.000000   0.000000   0.000000   0.000000   0.000000
    16  C   -0.427641   0.259391  -0.055667   0.007932  -0.001760   0.000233
    17  C    0.416116  -0.630555   0.392314   0.319752   0.003254   0.036140
    18  N    0.094788  -0.086628   0.008981   0.005302  -0.032571  -0.043779
    19  C    5.946860  -0.217754   0.021413   0.002894   0.387611   0.429706
    20  C   -0.217754   6.502941  -0.049859  -0.014358  -0.027130  -0.087125
    21  H    0.021413  -0.049859   0.414276  -0.020270  -0.000165  -0.000041
    22  H    0.002894  -0.014358  -0.020270   0.404234   0.000944  -0.000145
    23  H    0.387611  -0.027130  -0.000165   0.000944   0.432583  -0.025882
    24  H    0.429706  -0.087125  -0.000041  -0.000145  -0.025882   0.429997
    25  H   -0.079370   0.446342  -0.004476   0.002440   0.002431  -0.004543
    26  H   -0.061136   0.416385   0.000699  -0.003768  -0.002953   0.001051
    27  H   -0.016125   0.013460  -0.000063  -0.000183   0.000058  -0.000845
              25         26         27
     1  C   -0.000096   0.000024   0.001542
     2  C   -0.001316   0.000203  -0.003145
     3  C   -0.006444   0.003616  -0.036058
     4  C    0.001688   0.003468  -0.085119
     5  C    0.008184  -0.000094   0.073713
     6  C    0.001245   0.000003   0.025563
     7  H    0.000000   0.000000  -0.000000
     8  H    0.000000  -0.000000   0.000000
     9  H   -0.000009   0.000000   0.000002
    10  H   -0.000001   0.000000   0.004771
    11  O    0.000000  -0.000000  -0.000001
    12  C   -0.000001  -0.000000   0.000005
    13  H    0.000000  -0.000000   0.000000
    14  H   -0.000000   0.000000  -0.000000
    15  H    0.000000   0.000000  -0.000000
    16  C    0.030895   0.056046  -0.005432
    17  C   -0.087295  -0.091069   0.009619
    18  N    0.012654   0.004895   0.257294
    19  C   -0.079370  -0.061136  -0.016125
    20  C    0.446342   0.416385   0.013460
    21  H   -0.004476   0.000699  -0.000063
    22  H    0.002440  -0.003768  -0.000183
    23  H    0.002431  -0.002953   0.000058
    24  H   -0.004543   0.001051  -0.000845
    25  H    0.434245  -0.020541  -0.000136
    26  H   -0.020541   0.431218  -0.000057
    27  H   -0.000136  -0.000057   0.249897
 Mulliken charges:
               1
     1  C   -0.034648
     2  C   -0.197958
     3  C   -0.734733
     4  C   -0.008155
     5  C    0.196117
     6  C   -0.550194
     7  H    0.270263
     8  H    0.268783
     9  H    0.272337
    10  H    0.262224
    11  O   -0.417665
    12  C   -0.403484
    13  H    0.246368
    14  H    0.246832
    15  H    0.249848
    16  C    0.573644
    17  C   -0.204299
    18  N   -0.342182
    19  C   -0.308216
    20  C   -0.553318
    21  H    0.286875
    22  H    0.305832
    23  H    0.271142
    24  H    0.267233
    25  H    0.264103
    26  H    0.262009
    27  H    0.511241
 Sum of Mulliken charges =   1.00000
 Mulliken charges with hydrogens summed into heavy atoms:
               1
     1  C   -0.034648
     2  C    0.070825
     3  C   -0.462396
     4  C   -0.008155
     5  C    0.458341
     6  C   -0.279931
    11  O   -0.417665
    12  C    0.339564
    16  C    0.573644
    17  C    0.388408
    18  N    0.169059
    19  C    0.230159
    20  C   -0.027206
 Electronic spatial extent (au):  <R**2>=           3364.8834
 Charge=              1.0000 electrons
 Dipole moment (field-independent basis, Debye):
    X=              7.2887    Y=             -0.3920    Z=              0.3669  Tot=              7.3085
 Quadrupole moment (field-independent basis, Debye-Ang):
   XX=            -23.5039   YY=            -57.5842   ZZ=            -76.9672
   XY=             12.3732   XZ=              0.8594   YZ=             -0.2773
 Traceless Quadrupole moment (field-independent basis, Debye-Ang):
   XX=             29.1812   YY=             -4.8991   ZZ=            -24.2821
   XY=             12.3732   XZ=              0.8594   YZ=             -0.2773
 Octapole moment (field-independent basis, Debye-Ang**2):
  XXX=             42.7626  YYY=             14.6477  ZZZ=              0.7842  XYY=             14.3204
  XXY=            -23.4617  XXZ=              3.7072  XZZ=              8.5221  YZZ=             -2.7545
  YYZ=              0.0882  XYZ=             -0.2312
 Hexadecapole moment (field-independent basis, Debye-Ang**3):
 XXXX=          -2753.1943 YYYY=           -459.1468 ZZZZ=           -109.8657 XXXY=            207.2024
 XXXZ=             11.6213 YYYX=             29.7854 YYYZ=             -1.8989 ZZZX=              1.9975
 ZZZY=              0.6745 XXYY=           -619.4705 XXZZ=           -622.1005 YYZZ=           -111.3265
 XXYZ=             -4.2293 YYXZ=              1.5759 ZZXY=              3.8491
 N-N= 7.578535234136D+02 E-N=-2.793744445631D+03  KE= 5.520379931568D+02
 No NMR shielding tensors so no spin-rotation constants.
 Leave Link  601 at Wed Jul  8 17:47:39 2026, MaxMem=  4026531840 cpu:               0.8 elap:               0.1
 (Enter /opt/packages/gaussian/g16RevC.01/g16/l701.exe)
 ... and contract with generalized density number  0.
 Compute integral first derivatives.
 R6Disp: Adding Grimme-D2 dispersion energy 1st derivatives to the gradient.
 D1PCM: PCM CHGder 1st derivatives, ID1Alg=3 FixD1E=F DoIter=F DoCFld=F I1PDM=0.
 GePol: Maximum number of non-zero 1st derivatives   =     257
 Leave Link  701 at Wed Jul  8 17:47:40 2026, MaxMem=  4026531840 cpu:               6.7 elap:               0.9
 (Enter /opt/packages/gaussian/g16RevC.01/g16/l702.exe)
 L702 exits ... SP integral derivatives will be done elsewhere.
 Leave Link  702 at Wed Jul  8 17:47:40 2026, MaxMem=  4026531840 cpu:               0.1 elap:               0.0
 (Enter /opt/packages/gaussian/g16RevC.01/g16/l703.exe)
 Integral derivatives from FoFJK, PRISM(SPDF).
 Compute integral first derivatives, UseDBF=F ICtDFT=           0.
 Calling FoFJK, ICntrl=      2127 FMM=F ISym2X=0 I1Cent= 0 IOpClX= 0 NMat=1 NMatS=1 NMatT=0.
 FoFJK:  IHMeth= 1 ICntrl=    2127 DoSepK=T KAlg= 0 I1Cent=           0 FoldK=F
 IRaf=         1 NMat=       1 IRICut=       1 DoRegI=T DoRafI=F ISym2E= 0 IDoP0=0 IntGTp=1.
 FoFCou: FMM=F IPFlag=           0 FMFlag=      100000 FMFlg1=         800
         NFxFlg=           0 DoJE=F BraDBF=F KetDBF=F FulRan=T
         wScrn=  0.000000 ICntrl=      2527 IOpCl=  0 I1Cent=           0 NGrid=           0
         NMat0=    1 NMatS0=      1 NMatT0=    0 NMatD0=    1 NMtDS0=    0 NMtDT0=    0
 Symmetry not used in FoFCou.
 Leave Link  703 at Wed Jul  8 17:47:48 2026, MaxMem=  4026531840 cpu:              64.9 elap:               8.2
 (Enter /opt/packages/gaussian/g16RevC.01/g16/l716.exe)
 Dipole        = 2.86760526D+00-1.54234667D-01 1.44352862D-01
 ***** Axes restored to original set *****
 -------------------------------------------------------------------
 Center     Atomic                   Forces (Hartrees/Bohr)
 Number     Number              X              Y              Z
 -------------------------------------------------------------------
      1        6          -0.003273393   -0.000094812   -0.000031508
      2        6          -0.000167176   -0.000900350    0.000032028
      3        6           0.000800158   -0.000929693    0.000038288
      4        6          -0.000296428    0.000402576   -0.000041255
      5        6           0.001234252    0.000685723    0.000018476
      6        6          -0.001138200    0.001062414   -0.000035918
      7        1           0.000085346    0.000356056   -0.000010040
      8        1          -0.000040539   -0.000674202    0.000026061
      9        1          -0.000056488   -0.000627025    0.000125108
     10        1          -0.000228444    0.000425890   -0.000031656
     11        8           0.000720075   -0.000229644    0.000022957
     12        6           0.001273668    0.000817138    0.000002417
     13        1           0.000013441   -0.000153541    0.000460989
     14        1           0.000033813   -0.000190771   -0.000435449
     15        1          -0.000037693    0.000257582   -0.000000417
     16        6           0.000586927   -0.000892192   -0.000000991
     17        6          -0.000108963   -0.000478538    0.000200896
     18        7           0.001021361    0.001633384    0.000061412
     19        6          -0.000602158    0.000697044    0.000151752
     20        6           0.000194640   -0.000286585   -0.000457829
     21        1           0.000039318   -0.000097352   -0.000430049
     22        1          -0.000176372    0.000100176    0.000297423
     23        1          -0.000270512   -0.000028916    0.000176170
     24        1          -0.000200250   -0.000009420   -0.000210210
     25        1          -0.000097835    0.000011486   -0.000220599
     26        1          -0.000112649    0.000037173    0.000257052
     27        1           0.000804104   -0.000893602    0.000034892
 -------------------------------------------------------------------
 Cartesian Forces:  Max     0.003273393 RMS     0.000616741
 Leave Link  716 at Wed Jul  8 17:47:48 2026, MaxMem=  4026531840 cpu:               0.1 elap:               0.0
 (Enter /opt/packages/gaussian/g16RevC.01/g16/l103.exe)

 GradGradGradGradGradGradGradGradGradGradGradGradGradGradGradGradGradGrad
 Berny optimization.
 FormGI is forming the generalized inverse of G from B-inverse, IUseBI=4.
 GSVD:  received Info=                   1 from GESDD.
 Internal  Forces:  Max     0.001926745 RMS     0.000458194
 Search for a local minimum.
 Step number   1 out of a maximum of  154
 All quantities printed in internal units (Hartrees-Bohrs-Radians)
 RMS Force = .45819D-03 SwitMx=.10000D-02 MixMth= 2
 Mixed Optimization -- En-DIIS/RFO-DIIS
 Second derivative matrix not updated -- first step.
 ITU=  0
     Eigenvalues ---    0.00468   0.01119   0.01293   0.01360   0.01478
     Eigenvalues ---    0.01844   0.01848   0.02019   0.02098   0.02138
     Eigenvalues ---    0.02154   0.02181   0.02196   0.02213   0.02270
     Eigenvalues ---    0.02400   0.03362   0.03610   0.04989   0.05227
     Eigenvalues ---    0.05624   0.05906   0.06917   0.07507   0.08421
     Eigenvalues ---    0.08446   0.09402   0.10124   0.10704   0.10984
     Eigenvalues ---    0.15948   0.16000   0.16000   0.16000   0.16000
     Eigenvalues ---    0.16000   0.16000   0.16000   0.21504   0.22000
     Eigenvalues ---    0.22642   0.22962   0.24000   0.24982   0.25000
     Eigenvalues ---    0.25000   0.25000   0.27774   0.28478   0.31107
     Eigenvalues ---    0.33970   0.34319   0.34350   0.34351   0.34431
     Eigenvalues ---    0.34572   0.34657   0.34709   0.34717   0.34841
     Eigenvalues ---    0.35352   0.35369   0.35476   0.35644   0.38750
     Eigenvalues ---    0.40968   0.41154   0.42172   0.44861   0.45038
     Eigenvalues ---    0.45095   0.46837   0.49233   0.55786   0.63448
 RFO step:  Lambda=-9.01792702D-05 EMin= 4.68274583D-03
 Linear search not attempted -- first point.
 Iteration  1 RMS(Cart)=  0.00730845 RMS(Int)=  0.00001644
 Iteration  2 RMS(Cart)=  0.00002449 RMS(Int)=  0.00000129
 Iteration  3 RMS(Cart)=  0.00000000 RMS(Int)=  0.00000129
 ITry= 1 IFail=0 DXMaxC= 2.79D-02 DCOld= 1.00D+10 DXMaxT= 3.00D-01 DXLimC= 3.00D+00 Rises=F
 Variable       Old X    -DE/DX   Delta X   Delta X   Delta X     New X
                                 (Linear)    (Quad)   (Total)
    R1        2.64160   0.00185   0.00000   0.00404   0.00404   2.64564
    R2        2.65498   0.00133   0.00000   0.00300   0.00300   2.65798
    R3        2.54440  -0.00193   0.00000  -0.00345  -0.00345   2.54095
    R4        2.61985   0.00101   0.00000   0.00209   0.00209   2.62194
    R5        2.04642   0.00059   0.00000   0.00167   0.00167   2.04809
    R6        2.64941   0.00137   0.00000   0.00299   0.00299   2.65240
    R7        2.04908   0.00054   0.00000   0.00153   0.00153   2.05062
    R8        2.66630   0.00134   0.00000   0.00304   0.00304   2.66934
    R9        2.73288   0.00109   0.00000   0.00281   0.00281   2.73569
   R10        2.59987   0.00152   0.00000   0.00307   0.00307   2.60294
   R11        2.05107   0.00025   0.00000   0.00070   0.00070   2.05177
   R12        2.05080   0.00027   0.00000   0.00077   0.00077   2.05158
   R13        2.70259  -0.00134   0.00000  -0.00327  -0.00327   2.69933
   R14        2.06741   0.00046   0.00000   0.00135   0.00135   2.06877
   R15        2.06744   0.00047   0.00000   0.00138   0.00138   2.06882
   R16        2.05934   0.00013   0.00000   0.00036   0.00036   2.05970
   R17        2.83863   0.00009   0.00000   0.00046   0.00046   2.83909
   R18        2.45575   0.00123   0.00000   0.00186   0.00186   2.45761
   R19        2.90531   0.00009   0.00000   0.00036   0.00036   2.90567
   R20        2.06236   0.00032   0.00000   0.00093   0.00093   2.06329
   R21        2.07380   0.00026   0.00000   0.00075   0.00075   2.07455
   R22        2.77814  -0.00110   0.00000  -0.00319  -0.00319   2.77495
   R23        1.92138  -0.00108   0.00000  -0.00241  -0.00241   1.91897
   R24        2.89153   0.00046   0.00000   0.00140   0.00140   2.89293
   R25        2.06795   0.00008   0.00000   0.00023   0.00023   2.06817
   R26        2.06150   0.00002   0.00000   0.00006   0.00006   2.06156
   R27        2.06609   0.00019   0.00000   0.00055   0.00055   2.06664
   R28        2.06138   0.00004   0.00000   0.00012   0.00012   2.06149
    A1        2.09594   0.00006   0.00000   0.00035   0.00035   2.09629
    A2        2.16744   0.00034   0.00000   0.00129   0.00129   2.16874
    A3        2.01980  -0.00040   0.00000  -0.00164  -0.00164   2.01816
    A4        2.08100  -0.00002   0.00000  -0.00007  -0.00007   2.08093
    A5        2.11692   0.00034   0.00000   0.00211   0.00211   2.11904
    A6        2.08526  -0.00032   0.00000  -0.00204  -0.00204   2.08321
    A7        2.12031  -0.00010   0.00000  -0.00052  -0.00052   2.11979
    A8        2.06575  -0.00028   0.00000  -0.00182  -0.00182   2.06393
    A9        2.09712   0.00038   0.00000   0.00233   0.00233   2.09945
   A10        2.06583   0.00027   0.00000   0.00103   0.00103   2.06686
   A11        2.08048  -0.00085   0.00000  -0.00337  -0.00337   2.07711
   A12        2.13687   0.00058   0.00000   0.00233   0.00233   2.13920
   A13        2.10613  -0.00013   0.00000  -0.00053  -0.00053   2.10560
   A14        2.11626   0.00049   0.00000   0.00294   0.00294   2.11920
   A15        2.06079  -0.00037   0.00000  -0.00241  -0.00241   2.05838
   A16        2.09713  -0.00009   0.00000  -0.00027  -0.00027   2.09686
   A17        2.07498   0.00029   0.00000   0.00167   0.00167   2.07665
   A18        2.11107  -0.00020   0.00000  -0.00140  -0.00140   2.10967
   A19        2.07838  -0.00114   0.00000  -0.00454  -0.00454   2.07384
   A20        1.93174   0.00004   0.00000   0.00039   0.00039   1.93212
   A21        1.93114   0.00003   0.00000   0.00038   0.00038   1.93151
   A22        1.84146  -0.00039   0.00000  -0.00276  -0.00276   1.83870
   A23        1.92593   0.00017   0.00000   0.00160   0.00160   1.92754
   A24        1.91604   0.00006   0.00000   0.00008   0.00008   1.91612
   A25        1.91583   0.00007   0.00000   0.00013   0.00013   1.91595
   A26        2.19432  -0.00061   0.00000  -0.00274  -0.00274   2.19158
   A27        2.18073   0.00059   0.00000   0.00204   0.00203   2.18277
   A28        1.90777   0.00002   0.00000   0.00067   0.00067   1.90844
   A29        1.81113  -0.00019   0.00000  -0.00090  -0.00090   1.81023
   A30        1.95376   0.00015   0.00000   0.00002   0.00002   1.95378
   A31        1.88048  -0.00012   0.00000  -0.00157  -0.00157   1.87891
   A32        1.97776  -0.00010   0.00000  -0.00154  -0.00154   1.97622
   A33        1.96240   0.00017   0.00000   0.00173   0.00173   1.96413
   A34        1.87696   0.00009   0.00000   0.00212   0.00212   1.87908
   A35        2.00819  -0.00013   0.00000  -0.00038  -0.00038   2.00781
   A36        2.16285   0.00056   0.00000   0.00321   0.00321   2.16606
   A37        2.10985  -0.00044   0.00000  -0.00304  -0.00304   2.10682
   A38        1.78348   0.00023   0.00000   0.00050   0.00050   1.78397
   A39        1.89156  -0.00017   0.00000  -0.00222  -0.00222   1.88935
   A40        1.91179  -0.00019   0.00000  -0.00159  -0.00159   1.91020
   A41        1.97587  -0.00002   0.00000   0.00042   0.00042   1.97629
   A42        1.99373  -0.00006   0.00000  -0.00002  -0.00002   1.99370
   A43        1.90149   0.00018   0.00000   0.00245   0.00245   1.90394
   A44        1.81867   0.00007   0.00000   0.00015   0.00015   1.81882
   A45        1.91742  -0.00000   0.00000  -0.00008  -0.00008   1.91734
   A46        1.96254  -0.00014   0.00000  -0.00161  -0.00161   1.96092
   A47        1.91834  -0.00001   0.00000   0.00056   0.00056   1.91890
   A48        1.95451  -0.00005   0.00000  -0.00109  -0.00109   1.95342
   A49        1.89170   0.00012   0.00000   0.00200   0.00200   1.89370
    D1       -0.00561  -0.00001   0.00000  -0.00064  -0.00064  -0.00625
    D2        3.13891  -0.00002   0.00000  -0.00099  -0.00099   3.13791
    D3        3.13656  -0.00001   0.00000  -0.00026  -0.00026   3.13630
    D4       -0.00211  -0.00001   0.00000  -0.00062  -0.00062  -0.00272
    D5        0.00234   0.00001   0.00000   0.00036   0.00036   0.00269
    D6       -3.13884   0.00001   0.00000   0.00034   0.00034  -3.13851
    D7       -3.13979   0.00000   0.00000   0.00001   0.00001  -3.13977
    D8        0.00222  -0.00000   0.00000  -0.00001  -0.00001   0.00221
    D9       -0.00459   0.00001   0.00000   0.00021   0.00021  -0.00438
   D10        3.13756   0.00001   0.00000   0.00057   0.00057   3.13813
   D11        0.00343  -0.00000   0.00000  -0.00019  -0.00019   0.00325
   D12       -3.14127  -0.00004   0.00000  -0.00209  -0.00209   3.13983
   D13       -3.14103   0.00000   0.00000   0.00017   0.00017  -3.14087
   D14       -0.00255  -0.00004   0.00000  -0.00174  -0.00174  -0.00429
   D15        0.00197   0.00002   0.00000   0.00126   0.00126   0.00324
   D16        3.13955  -0.00001   0.00000  -0.00045  -0.00044   3.13911
   D17       -3.13645   0.00007   0.00000   0.00321   0.00321  -3.13324
   D18        0.00113   0.00004   0.00000   0.00150   0.00150   0.00263
   D19       -0.00532  -0.00003   0.00000  -0.00154  -0.00154  -0.00686
   D20        3.13610  -0.00001   0.00000  -0.00046  -0.00046   3.13563
   D21        3.14042   0.00000   0.00000   0.00024   0.00024   3.14067
   D22       -0.00135   0.00003   0.00000   0.00132   0.00132  -0.00002
   D23       -0.00606   0.00012   0.00000   0.00779   0.00779   0.00174
   D24       -3.11523   0.00014   0.00000   0.00926   0.00926  -3.10597
   D25        3.13135   0.00009   0.00000   0.00601   0.00601   3.13736
   D26        0.02218   0.00011   0.00000   0.00747   0.00747   0.02965
   D27        0.00320   0.00002   0.00000   0.00075   0.00075   0.00395
   D28       -3.13881   0.00002   0.00000   0.00077   0.00077  -3.13804
   D29       -3.13822  -0.00001   0.00000  -0.00030  -0.00029  -3.13851
   D30        0.00296  -0.00001   0.00000  -0.00028  -0.00028   0.00268
   D31        1.07005   0.00014   0.00000   0.00222   0.00222   1.07227
   D32       -1.07047  -0.00012   0.00000  -0.00035  -0.00035  -1.07082
   D33       -3.14152   0.00001   0.00000   0.00091   0.00091  -3.14061
   D34        2.93389  -0.00000   0.00000   0.00311   0.00311   2.93700
   D35        0.79492   0.00016   0.00000   0.00553   0.00553   0.80045
   D36       -1.26525   0.00004   0.00000   0.00391   0.00391  -1.26134
   D37       -0.23586  -0.00001   0.00000   0.00187   0.00187  -0.23399
   D38       -2.37483   0.00015   0.00000   0.00429   0.00429  -2.37054
   D39        1.84818   0.00003   0.00000   0.00267   0.00267   1.85086
   D40        3.09262  -0.00003   0.00000  -0.00366  -0.00367   3.08895
   D41        0.02333   0.00000   0.00000  -0.00025  -0.00025   0.02308
   D42       -0.02109  -0.00000   0.00000  -0.00234  -0.00234  -0.02343
   D43       -3.09038   0.00003   0.00000   0.00107   0.00108  -3.08930
   D44        0.38283  -0.00004   0.00000  -0.00101  -0.00101   0.38182
   D45       -1.67155  -0.00006   0.00000  -0.00171  -0.00171  -1.67326
   D46        2.50324  -0.00013   0.00000  -0.00312  -0.00312   2.50012
   D47        2.50584  -0.00004   0.00000  -0.00243  -0.00243   2.50341
   D48        0.45146  -0.00006   0.00000  -0.00313  -0.00313   0.44833
   D49       -1.65693  -0.00013   0.00000  -0.00454  -0.00454  -1.66147
   D50       -1.64431   0.00014   0.00000   0.00055   0.00055  -1.64377
   D51        2.58449   0.00011   0.00000  -0.00015  -0.00015   2.58434
   D52        0.47610   0.00005   0.00000  -0.00156  -0.00156   0.47454
   D53        0.26808  -0.00000   0.00000   0.00172   0.00172   0.26980
   D54       -1.82238  -0.00002   0.00000   0.00197   0.00197  -1.82041
   D55        2.38827  -0.00003   0.00000   0.00122   0.00122   2.38950
   D56       -2.94342   0.00001   0.00000  -0.00129  -0.00129  -2.94471
   D57        1.24931  -0.00001   0.00000  -0.00105  -0.00105   1.24826
   D58       -0.82323  -0.00002   0.00000  -0.00179  -0.00179  -0.82502
   D59       -0.38603  -0.00010   0.00000  -0.00064  -0.00064  -0.38667
   D60        1.66772  -0.00007   0.00000  -0.00038  -0.00038   1.66733
   D61       -2.51177   0.00005   0.00000   0.00181   0.00181  -2.50995
   D62        1.64433  -0.00017   0.00000  -0.00277  -0.00277   1.64156
   D63       -2.58511  -0.00014   0.00000  -0.00251  -0.00251  -2.58762
   D64       -0.48141  -0.00002   0.00000  -0.00032  -0.00032  -0.48173
   D65       -2.44882   0.00001   0.00000   0.00097   0.00097  -2.44785
   D66       -0.39507   0.00004   0.00000   0.00122   0.00122  -0.39385
   D67        1.70863   0.00016   0.00000   0.00342   0.00342   1.71205
         Item               Value     Threshold  Converged?
 Maximum Force            0.001927     0.000450     NO 
 RMS     Force            0.000458     0.000300     NO 
 Maximum Displacement     0.027948     0.001800     NO 
 RMS     Displacement     0.007315     0.001200     NO 
 Predicted change in Energy=-4.512339D-05
 Lowest energy point so far.  Saving SCF results.
 GradGradGradGradGradGradGradGradGradGradGradGradGradGradGradGradGradGrad

 Leave Link  103 at Wed Jul  8 17:47:49 2026, MaxMem=  4026531840 cpu:               0.9 elap:               0.1
 (Enter /opt/packages/gaussian/g16RevC.01/g16/l202.exe)
                          Input orientation:                          
 ---------------------------------------------------------------------
 Center     Atomic      Atomic             Coordinates (Angstroms)
 Number     Number       Type             X           Y           Z
 ---------------------------------------------------------------------
      1          6           0       -2.479663    0.266988   -0.012040
      2          6           0       -1.847686   -0.981250    0.038311
      3          6           0       -0.461439   -1.038943    0.046533
      4          6           0        0.320356    0.126166    0.009384
      5          6           0       -0.336894    1.375775   -0.033136
      6          6           0       -1.712489    1.445401   -0.046037
      7          1           0       -2.221509    2.403646   -0.081994
      8          1           0       -2.418039   -1.902340    0.068579
      9          1           0        0.011859   -2.014565    0.087487
     10          1           0        0.219839    2.307604   -0.057446
     11          8           0       -3.812947    0.440190   -0.030326
     12          6           0       -4.657434   -0.711526   -0.002309
     13          1           0       -4.500024   -1.284567    0.917099
     14          1           0       -4.481189   -1.341343   -0.880258
     15          1           0       -5.675647   -0.323329   -0.025341
     16          6           0        1.762828    0.004457    0.023236
     17          6           0        2.530504   -1.286031    0.072948
     18          7           0        2.596765    1.002369    0.030430
     19          6           0        4.014033    0.627339    0.114245
     20          6           0        3.976063   -0.862517   -0.235689
     21          1           0        2.137623   -2.021887   -0.631529
     22          1           0        2.420115   -1.700355    1.083556
     23          1           0        4.360554    0.822635    1.133833
     24          1           0        4.592620    1.236171   -0.581952
     25          1           0        4.184469   -1.001098   -1.300282
     26          1           0        4.707242   -1.434276    0.337480
     27          1           0        2.316729    1.978336    0.046417
 ---------------------------------------------------------------------
                    Distance matrix (angstroms):
                    1          2          3          4          5
     1  C    0.000000
     2  C    1.400011   0.000000
     3  C    2.404603   1.387471   0.000000
     4  C    2.803640   2.434668   1.403589   0.000000
     5  C    2.412740   2.800565   2.419240   1.412553   0.000000
     6  C    1.406545   2.431877   2.783102   2.424027   1.377417
     7  H    2.153333   3.407600   3.868564   3.414139   2.147250
     8  H    2.171700   1.083802   2.138744   3.408394   3.884270
     9  H    3.379804   2.127925   1.085139   2.164255   3.410365
    10  H    3.384300   3.885922   3.416772   2.184775   1.085748
    11  O    1.344612   2.426408   3.664198   4.145405   3.599761
    12  C    2.387524   2.822957   4.209033   5.047797   4.798421
    13  H    2.711545   2.810546   4.138645   5.103937   5.031105
    14  H    2.710468   2.812254   4.136276   5.099007   5.027477
    15  H    3.250071   3.884610   5.263576   6.012927   5.602616
    16  C    4.250752   3.742680   2.456947   1.447664   2.508490
    17  C    5.246034   4.388922   3.002245   2.623566   3.913878
    18  N    5.129592   4.867027   3.676932   2.439306   2.958011
    19  C    6.504912   6.078903   4.776078   3.728997   4.417289
    20  C    6.557607   5.831400   4.449967   3.794964   4.863392
    21  H    5.190573   4.173044   2.860257   2.885717   4.245635
    22  H    5.392457   4.452390   3.133087   2.983121   4.279097
    23  H    6.957754   6.557165   5.281980   4.251195   4.871734
    24  H    7.161097   6.839534   5.578051   4.453542   4.961935
    25  H    6.904945   6.178925   4.837334   4.232886   5.262880
    26  H    7.393786   6.577371   5.191937   4.667698   5.785936
    27  H    5.092888   5.108970   4.101487   2.723493   2.722338
                    6          7          8          9         10
     6  C    0.000000
     7  H    1.085647   0.000000
     8  H    3.423201   4.313098   0.000000
     9  H    3.868148   4.953509   2.432562   0.000000
    10  H    2.115991   2.443360   4.969700   4.329597   0.000000
    11  O    2.328652   2.527945   2.728186   4.546301   4.444248
    12  C    3.650609   3.955297   2.537312   4.848533   5.736374
    13  H    4.018794   4.448902   2.331585   4.645239   6.010868
    14  H    4.015914   4.446158   2.339144   4.645131   6.007620
    15  H    4.339983   4.401213   3.621340   5.934706   6.455974
    16  C    3.762837   4.652110   4.595387   2.673288   2.773412
    17  C    5.047561   6.018252   4.986777   2.621936   4.274388
    18  N    4.332643   5.019162   5.795434   3.973272   2.713142
    19  C    5.786879   6.486583   6.911795   4.795598   4.153152
    20  C    6.141830   7.007236   6.485242   4.140842   4.918400
    21  H    5.214235   6.236134   4.610694   2.244083   4.769902
    22  H    5.315089   6.304443   4.947597   2.624991   4.712413
    23  H    6.217860   6.877600   7.383060   5.296762   4.557390
    24  H    6.331302   6.931473   7.708618   5.656749   4.532581
    25  H    6.506351   7.356158   6.802877   4.512614   5.311350
    26  H    7.046458   7.931784   7.145700   4.737705   5.856144
    27  H    4.065362   4.559933   6.121942   4.610572   2.125125
                   11         12         13         14         15
    11  O    0.000000
    12  C    1.428423   0.000000
    13  H    2.084340   1.094744   0.000000
    14  H    2.083936   1.094772   1.798352   0.000000
    15  H    2.013116   1.089947   1.787249   1.787166   0.000000
    16  C    5.593032   6.460112   6.456306   6.450986   7.445852
    17  C    6.574944   7.211254   7.081025   7.076405   8.263012
    18  N    6.434606   7.453987   7.508707   7.511310   8.378149
    19  C    7.830552   8.774992   8.762940   8.776875   9.737204
    20  C    7.899868   8.637971   8.564526   8.495285   9.669047
    21  H    6.467809   6.948796   6.855672   6.658354   8.018712
    22  H    6.683841   7.228319   6.934617   7.184250   8.286568
    23  H    8.264845   9.217840   9.110275   9.322863  10.167706
    24  H    8.461173   9.470640   9.553923   9.437509  10.400921
    25  H    8.224887   8.941355   8.967583   8.682500   9.965276
    26  H    8.731697   9.398669   9.226707   9.269239  10.448456
    27  H    6.320184   7.475071   7.607414   7.621725   8.317505
                   16         17         18         19         20
    16  C    0.000000
    17  C    1.502384   0.000000
    18  N    1.300512   2.289754   0.000000
    19  C    2.337560   2.421476   1.468441   0.000000
    20  C    2.391045   1.537615   2.334755   1.530871   0.000000
    21  H    2.162235   1.091847   3.129717   3.330989   2.209229
    22  H    2.112507   1.097806   2.906027   2.983000   2.205301
    23  H    2.941262   2.986809   2.088242   1.094431   2.205257
    24  H    3.145011   3.323059   2.100741   1.090931   2.214618
    25  H    2.937207   2.168535   2.881923   2.163733   1.093616
    26  H    3.292154   2.197758   3.238153   2.186465   1.090896
    27  H    2.050255   3.271467   1.015474   2.170399   3.302033
                   21         22         23         24         25
    21  H    0.000000
    22  H    1.767683   0.000000
    23  H    4.018611   3.183285   0.000000
    24  H    4.079757   4.014583   1.780108   0.000000
    25  H    2.383027   3.047062   3.046625   2.384945   0.000000
    26  H    2.808418   2.420408   2.418268   2.826621   1.772907
    27  H    4.061216   3.823495   2.587535   2.474941   3.765512
                   26         27
    26  H    0.000000
    27  H    4.176744   0.000000
 Stoichiometry    C11H14NO(1+)
 Framework group  C1[X(C11H14NO)]
 Deg. of freedom    75
 Full point group                 C1      NOp   1
 RotChk:  IX=0 Diff= 9.54D-04
 Largest Abelian subgroup         C1      NOp   1
 Largest concise Abelian subgroup C1      NOp   1
                         Standard orientation:                         
 ---------------------------------------------------------------------
 Center     Atomic      Atomic             Coordinates (Angstroms)
 Number     Number       Type             X           Y           Z
 ---------------------------------------------------------------------
      1          6           0       -2.479440    0.266254   -0.011299
      2          6           0       -1.847398   -0.981984    0.038235
      3          6           0       -0.461148   -1.039608    0.046465
      4          6           0        0.320585    0.125567    0.010124
      5          6           0       -0.336729    1.375169   -0.031579
      6          6           0       -1.712328    1.444730   -0.044479
      7          1           0       -2.221398    2.402972   -0.079809
      8          1           0       -2.417703   -1.903125    0.067866
      9          1           0        0.012201   -2.015233    0.086780
     10          1           0        0.219955    2.307044   -0.055245
     11          8           0       -3.812733    0.439397   -0.029513
     12          6           0       -4.657159   -0.712383   -0.002297
     13          1           0       -4.499749   -1.286032    0.916730
     14          1           0       -4.480851   -1.341601   -0.880663
     15          1           0       -5.675392   -0.324225   -0.025103
     16          6           0        1.763064    0.003926    0.023943
     17          6           0        2.530807   -1.286554    0.072813
     18          7           0        2.596948    1.001877    0.031834
     19          6           0        4.014232    0.626866    0.115444
     20          6           0        3.976354   -0.862756   -0.235491
     21          1           0        2.137989   -2.021958   -0.632171
     22          1           0        2.420407   -1.701562    1.083139
     23          1           0        4.360709    0.821496    1.135175
     24          1           0        4.592810    1.236197   -0.580324
     25          1           0        4.184802   -1.000611   -1.300170
     26          1           0        4.707545   -1.434861    0.337318
     27          1           0        2.316859    1.977819    0.048467
 ---------------------------------------------------------------------
 Rotational constants (GHZ):           2.8647135           0.3540400           0.3181533
 Leave Link  202 at Wed Jul  8 17:47:49 2026, MaxMem=  4026531840 cpu:               0.1 elap:               0.0
 (Enter /opt/packages/gaussian/g16RevC.01/g16/l301.exe)
 Standard basis: 6-31+G(d) (6D, 7F)
 Ernie: Thresh=  0.10000D-02 Tol=  0.10000D-05 Strict=F.
 There are   275 symmetry adapted cartesian basis functions of A   symmetry.
 There are   275 symmetry adapted basis functions of A   symmetry.
   275 basis functions,   472 primitive gaussians,   275 cartesian basis functions
    47 alpha electrons       47 beta electrons
       nuclear repulsion energy       757.6627284431 Hartrees.
 IExCor= 4639 DFT=T Ex+Corr=wB97XD ExCW=0 ScaHFX=  1.000000
 ScaDFX=  1.000000  1.000000  1.000000  1.000000 ScalE2=  1.000000  1.000000
 IRadAn=      5 IRanWt=     -1 IRanGd=            0 ICorTp=0 IEmpDi=121
 HFx  wShort=  0.000000 wLong=  0.200000 cFull=  0.222036 cShort=  0.000000 cLong=  0.777964
 DFx  wShort=  0.000000 wLong=  0.200000 cFull=  0.000000 cShort=  0.000000 cLong=  1.000000
 NAtoms=   27 NActive=   27 NUniq=   27 SFac= 1.00D+00 NAtFMM=   60 NAOKFM=F Big=F
 Integral buffers will be    131072 words long.
 Raffenetti 2 integral format.
 Two-electron integral symmetry is turned on.
 R6Disp:  Grimme-D2 Dispersion energy=       -0.0166020628 Hartrees.
 Nuclear repulsion after empirical dispersion term =      757.6461263803 Hartrees.
 ------------------------------------------------------------------------------
 Polarizable Continuum Model (PCM)
 =================================
 Model                : PCM.
 Atomic radii         : SMD-Coulomb.
 Polarization charges : Total charges.
 Charge compensation  : None.
 Solution method      : On-the-fly selection.
 Cavity type          : VdW (van der Waals Surface) (Alpha=1.000).
 Cavity algorithm     : GePol (No added spheres)
                        Default sphere list used, NSphG=   27.
                        Lebedev-Laikov grids with approx.  5.0 points / Ang**2.
                        Smoothing algorithm: York/Karplus (Gamma=1.0000).
                        Polarization charges: spherical gaussians, with
                                              point-specific exponents (IZeta= 3).
                        Self-potential: point-specific (ISelfS= 7).
                        Self-field    : sphere-specific E.n sum rule (ISelfD= 2).
 1st derivatives      : Analytical E(r).r(x)/FMM algorithm (CHGder, D1EAlg=3).
                        Cavity 1st derivative terms included.
 Solvent              : Methanol, Eps=  32.613000 Eps(inf)=   1.765709
 ------------------------------------------------------------------------------
 GePol: Number of generator spheres                  =      27
 GePol: Total number of spheres                      =      27
 GePol: Number of exposed spheres                    =      27 (100.00%)
 GePol: Number of points                             =    1978
 GePol: Average weight of points                     =       0.11
 GePol: Minimum weight of points                     =   0.64D-08
 GePol: Maximum weight of points                     =    0.21991
 GePol: Number of points with low weight             =     116
 GePol: Fraction of low-weight points (<1% of avg)   =       5.86%
 GePol: Cavity surface area                          =    215.113 Ang**2
 GePol: Cavity volume                                =    191.308 Ang**3
 ------------------------------------------------------------------------------
 Atomic radii for non-electrostatic terms: SMD-CDS.
 ------------------------------------------------------------------------------
 PCM non-electrostatic energy =        -0.0004800035 Hartrees.
 Nuclear repulsion after PCM non-electrostatic terms =      757.6456463768 Hartrees.
 Leave Link  301 at Wed Jul  8 17:47:49 2026, MaxMem=  4026531840 cpu:               0.4 elap:               0.1
 (Enter /opt/packages/gaussian/g16RevC.01/g16/l302.exe)
 NPDir=0 NMtPBC=     1 NCelOv=     1 NCel=       1 NClECP=     1 NCelD=      1
         NCelK=      1 NCelE2=     1 NClLst=     1 CellRange=     0.0.
 One-electron integrals computed using PRISM.
 One-electron integral symmetry used in STVInt
 NBasis=   275 RedAO= T EigKep=  2.09D-06  NBF=   275
 NBsUse=   273 1.00D-06 EigRej=  8.41D-07 NBFU=   273
 Precomputing XC quadrature grid using
 IXCGrd= 4 IRadAn=           5 IRanWt=          -1 IRanGd=           0 AccXCQ= 0.00D+00.
 Generated NRdTot=       0 NPtTot=           0 NUsed=           0 NTot=          32
 NSgBfM=   274   274   274   274   274 MxSgAt=    27 MxSgA2=    27.
 Leave Link  302 at Wed Jul  8 17:47:49 2026, MaxMem=  4026531840 cpu:               1.4 elap:               0.2
 (Enter /opt/packages/gaussian/g16RevC.01/g16/l303.exe)
 DipDrv:  MaxL=1.
 Leave Link  303 at Wed Jul  8 17:47:49 2026, MaxMem=  4026531840 cpu:               0.1 elap:               0.0
 (Enter /opt/packages/gaussian/g16RevC.01/g16/l401.exe)
 Initial guess from the checkpoint file:  "iminium_ground_opt_wb97.chk"
 B after Tr=    -0.000000    0.000000    0.000000
         Rot=    1.000000   -0.000162    0.000019   -0.000041 Ang=  -0.02 deg.
 Guess basis will be translated and rotated to current coordinates.
 JPrj=2 DoOrth=T DoCkMO=T.
 Generating alternative initial guess.
 ExpMin= 4.38D-02 ExpMax= 5.48D+03 ExpMxC= 8.25D+02 IAcc=3 IRadAn=         5 AccDes= 0.00D+00
 Harris functional with IExCor= 4639 and IRadAn=       5 diagonalized for initial guess.
 HarFok:  IExCor= 4639 AccDes= 0.00D+00 IRadAn=         5 IDoV= 1 UseB2=F ITyADJ=14
 ICtDFT=  3500011 ScaDFX=  1.000000  1.000000  1.000000  1.000000
 FoFCou: FMM=F IPFlag=           0 FMFlag=      100000 FMFlg1=           0
         NFxFlg=           0 DoJE=T BraDBF=F KetDBF=T FulRan=T
         wScrn=  0.000000 ICntrl=       500 IOpCl=  0 I1Cent=   200000004 NGrid=           0
         NMat0=    1 NMatS0=      1 NMatT0=    0 NMatD0=    1 NMtDS0=    0 NMtDT0=    0
 Petite list used in FoFCou.
 Harris En= -532.518580106816    
 Leave Link  401 at Wed Jul  8 17:47:50 2026, MaxMem=  4026531840 cpu:               7.1 elap:               0.9
 (Enter /opt/packages/gaussian/g16RevC.01/g16/l502.exe)
 Integral symmetry usage will be decided dynamically.
 Closed shell SCF:
 Using DIIS extrapolation, IDIIS=  1040.
 NGot=  4026531840 LenX=  4026374748 LenY=  4026298682
 Requested convergence on RMS density matrix=1.00D-08 within 128 cycles.
 Requested convergence on MAX density matrix=1.00D-06.
 Requested convergence on             energy=1.00D-06.
 No special actions if energy rises.
 Fock matrices will be formed incrementally for  20 cycles.

 Cycle   1  Pass 1  IDiag  1:
 FoFJK:  IHMeth= 1 ICntrl=       0 DoSepK=T KAlg= 0 I1Cent=           0 FoldK=F
 IRaf=         1 NMat=       1 IRICut=       1 DoRegI=T DoRafI=F ISym2E= 0 IDoP0=0 IntGTp=1.
 FoFCou: FMM=F IPFlag=           0 FMFlag=      100000 FMFlg1=           0
         NFxFlg=           0 DoJE=T BraDBF=F KetDBF=F FulRan=T
         wScrn=  0.000000 ICntrl=       500 IOpCl=  0 I1Cent=           0 NGrid=           0
         NMat0=    1 NMatS0=      1 NMatT0=    0 NMatD0=    1 NMtDS0=    0 NMtDT0=    0
 Symmetry not used in FoFCou.
 Inv3:  Mode=1 IEnd=    11737452.
 Iteration    1 A*A^-1 deviation from unit magnitude is 2.78D-15 for   1663.
 Iteration    1 A*A^-1 deviation from orthogonality  is 2.71D-15 for   1016    192.
 Iteration    1 A^-1*A deviation from unit magnitude is 2.78D-15 for    939.
 Iteration    1 A^-1*A deviation from orthogonality  is 1.86D-13 for   1249   1220.
 E= -557.278765840572    
 DIIS: error= 6.49D-04 at cycle   1 NSaved=   1.
 NSaved= 1 IEnMin= 1 EnMin= -557.278765840572     IErMin= 1 ErrMin= 6.49D-04
 ErrMax= 6.49D-04  0.00D+00 EMaxC= 1.00D-01 BMatC= 1.38D-04 BMatP= 1.38D-04
 IDIUse=3 WtCom= 9.94D-01 WtEn= 6.49D-03
 Coeff-Com:  0.100D+01
 Coeff-En:   0.100D+01
 Coeff:      0.100D+01
 Gap=     0.562 Goal=   None    Shift=    0.000
 RMSDP=4.63D-04 MaxDP=3.23D-02              OVMax= 2.48D-03

 Cycle   2  Pass 1  IDiag  1:
 RMSU=  3.76D-04    CP:  9.93D-01
 E= -557.278936280358     Delta-E=       -0.000170439786 Rises=F Damp=F
 DIIS: error= 7.14D-05 at cycle   2 NSaved=   2.
 NSaved= 2 IEnMin= 2 EnMin= -557.278936280358     IErMin= 2 ErrMin= 7.14D-05
 ErrMax= 7.14D-05  0.00D+00 EMaxC= 1.00D-01 BMatC= 4.32D-06 BMatP= 1.38D-04
 IDIUse=1 WtCom= 1.00D+00 WtEn= 0.00D+00
 Coeff-Com: -0.720D-01 0.107D+01
 Coeff:     -0.720D-01 0.107D+01
 Gap=     0.298 Goal=   None    Shift=    0.000
 RMSDP=9.55D-05 MaxDP=6.00D-03 DE=-1.70D-04 OVMax= 6.69D-04

 Cycle   3  Pass 1  IDiag  1:
 RMSU=  6.07D-05    CP:  9.92D-01  1.13D+00
 E= -557.278943670608     Delta-E=       -0.000007390250 Rises=F Damp=F
 DIIS: error= 5.52D-05 at cycle   3 NSaved=   3.
 NSaved= 3 IEnMin= 3 EnMin= -557.278943670608     IErMin= 3 ErrMin= 5.52D-05
 ErrMax= 5.52D-05  0.00D+00 EMaxC= 1.00D-01 BMatC= 2.14D-06 BMatP= 4.32D-06
 IDIUse=1 WtCom= 1.00D+00 WtEn= 0.00D+00
 Coeff-Com: -0.534D-01 0.448D+00 0.606D+00
 Coeff:     -0.534D-01 0.448D+00 0.606D+00
 Gap=     0.298 Goal=   None    Shift=    0.000
 RMSDP=2.63D-05 MaxDP=9.93D-04 DE=-7.39D-06 OVMax= 3.42D-04

 Cycle   4  Pass 1  IDiag  1:
 RMSU=  2.52D-05    CP:  9.92D-01  1.15D+00  9.93D-01
 E= -557.278945540583     Delta-E=       -0.000001869975 Rises=F Damp=F
 DIIS: error= 2.01D-05 at cycle   4 NSaved=   4.
 NSaved= 4 IEnMin= 4 EnMin= -557.278945540583     IErMin= 4 ErrMin= 2.01D-05
 ErrMax= 2.01D-05  0.00D+00 EMaxC= 1.00D-01 BMatC= 2.12D-07 BMatP= 2.14D-06
 IDIUse=1 WtCom= 1.00D+00 WtEn= 0.00D+00
 Coeff-Com: -0.465D-02-0.424D-01 0.203D+00 0.844D+00
 Coeff:     -0.465D-02-0.424D-01 0.203D+00 0.844D+00
 Gap=     0.297 Goal=   None    Shift=    0.000
 RMSDP=1.29D-05 MaxDP=7.32D-04 DE=-1.87D-06 OVMax= 1.15D-04

 Cycle   5  Pass 1  IDiag  1:
 RMSU=  6.40D-06    CP:  9.92D-01  1.15D+00  1.16D+00  9.75D-01
 E= -557.278945794188     Delta-E=       -0.000000253605 Rises=F Damp=F
 DIIS: error= 4.53D-06 at cycle   5 NSaved=   5.
 NSaved= 5 IEnMin= 5 EnMin= -557.278945794188     IErMin= 5 ErrMin= 4.53D-06
 ErrMax= 4.53D-06  0.00D+00 EMaxC= 1.00D-01 BMatC= 1.61D-08 BMatP= 2.12D-07
 IDIUse=1 WtCom= 1.00D+00 WtEn= 0.00D+00
 Coeff-Com:  0.294D-02-0.522D-01 0.158D-01 0.269D+00 0.765D+00
 Coeff:      0.294D-02-0.522D-01 0.158D-01 0.269D+00 0.765D+00
 Gap=     0.298 Goal=   None    Shift=    0.000
 RMSDP=3.29D-06 MaxDP=1.39D-04 DE=-2.54D-07 OVMax= 3.76D-05

 Cycle   6  Pass 1  IDiag  1:
 RMSU=  2.49D-06    CP:  9.92D-01  1.15D+00  1.18D+00  1.02D+00  9.86D-01
 E= -557.278945817411     Delta-E=       -0.000000023223 Rises=F Damp=F
 DIIS: error= 1.38D-06 at cycle   6 NSaved=   6.
 NSaved= 6 IEnMin= 6 EnMin= -557.278945817411     IErMin= 6 ErrMin= 1.38D-06
 ErrMax= 1.38D-06  0.00D+00 EMaxC= 1.00D-01 BMatC= 1.01D-09 BMatP= 1.61D-08
 IDIUse=1 WtCom= 1.00D+00 WtEn= 0.00D+00
 Coeff-Com:  0.935D-03-0.564D-02-0.160D-01-0.260D-01 0.133D+00 0.914D+00
 Coeff:      0.935D-03-0.564D-02-0.160D-01-0.260D-01 0.133D+00 0.914D+00
 Gap=     0.298 Goal=   None    Shift=    0.000
 RMSDP=1.00D-06 MaxDP=3.81D-05 DE=-2.32D-08 OVMax= 1.90D-05

 Cycle   7  Pass 1  IDiag  1:
 RMSU=  4.96D-07    CP:  9.92D-01  1.15D+00  1.18D+00  1.03D+00  1.06D+00
                    CP:  1.20D+00
 E= -557.278945819812     Delta-E=       -0.000000002400 Rises=F Damp=F
 DIIS: error= 4.96D-07 at cycle   7 NSaved=   7.
 NSaved= 7 IEnMin= 7 EnMin= -557.278945819812     IErMin= 7 ErrMin= 4.96D-07
 ErrMax= 4.96D-07  0.00D+00 EMaxC= 1.00D-01 BMatC= 1.89D-10 BMatP= 1.01D-09
 IDIUse=1 WtCom= 1.00D+00 WtEn= 0.00D+00
 Coeff-Com: -0.489D-04 0.434D-02-0.700D-02-0.391D-01-0.492D-01 0.289D+00
 Coeff-Com:  0.802D+00
 Coeff:     -0.489D-04 0.434D-02-0.700D-02-0.391D-01-0.492D-01 0.289D+00
 Coeff:      0.802D+00
 Gap=     0.298 Goal=   None    Shift=    0.000
 RMSDP=4.00D-07 MaxDP=1.24D-05 DE=-2.40D-09 OVMax= 6.59D-06

 Cycle   8  Pass 1  IDiag  1:
 RMSU=  2.64D-07    CP:  9.92D-01  1.15D+00  1.18D+00  1.02D+00  1.08D+00
                    CP:  1.30D+00  1.11D+00
 E= -557.278945820149     Delta-E=       -0.000000000337 Rises=F Damp=F
 DIIS: error= 2.77D-07 at cycle   8 NSaved=   8.
 NSaved= 8 IEnMin= 8 EnMin= -557.278945820149     IErMin= 8 ErrMin= 2.77D-07
 ErrMax= 2.77D-07  0.00D+00 EMaxC= 1.00D-01 BMatC= 2.20D-11 BMatP= 1.89D-10
 IDIUse=1 WtCom= 1.00D+00 WtEn= 0.00D+00
 Coeff-Com: -0.120D-03 0.214D-02-0.455D-03-0.101D-01-0.322D-01-0.761D-02
 Coeff-Com:  0.261D+00 0.787D+00
 Coeff:     -0.120D-03 0.214D-02-0.455D-03-0.101D-01-0.322D-01-0.761D-02
 Coeff:      0.261D+00 0.787D+00
 Gap=     0.298 Goal=   None    Shift=    0.000
 RMSDP=1.19D-07 MaxDP=5.82D-06 DE=-3.37D-10 OVMax= 4.09D-06

 Cycle   9  Pass 1  IDiag  1:
 RMSU=  6.94D-08    CP:  9.92D-01  1.15D+00  1.18D+00  1.02D+00  1.08D+00
                    CP:  1.32D+00  1.15D+00  1.14D+00
 E= -557.278945820190     Delta-E=       -0.000000000041 Rises=F Damp=F
 DIIS: error= 9.47D-08 at cycle   9 NSaved=   9.
 NSaved= 9 IEnMin= 9 EnMin= -557.278945820190     IErMin= 9 ErrMin= 9.47D-08
 ErrMax= 9.47D-08  0.00D+00 EMaxC= 1.00D-01 BMatC= 4.18D-12 BMatP= 2.20D-11
 IDIUse=1 WtCom= 1.00D+00 WtEn= 0.00D+00
 Coeff-Com: -0.375D-04 0.233D-03 0.715D-03 0.111D-02-0.584D-02-0.364D-01
 Coeff-Com: -0.112D-01 0.295D+00 0.756D+00
 Coeff:     -0.375D-04 0.233D-03 0.715D-03 0.111D-02-0.584D-02-0.364D-01
 Coeff:     -0.112D-01 0.295D+00 0.756D+00
 Gap=     0.298 Goal=   None    Shift=    0.000
 RMSDP=4.76D-08 MaxDP=1.88D-06 DE=-4.10D-11 OVMax= 1.44D-06

 Cycle  10  Pass 1  IDiag  1:
 RMSU=  3.01D-08    CP:  9.92D-01  1.15D+00  1.18D+00  1.02D+00  1.08D+00
                    CP:  1.32D+00  1.16D+00  1.21D+00  1.26D+00
 E= -557.278945820200     Delta-E=       -0.000000000010 Rises=F Damp=F
 DIIS: error= 4.45D-08 at cycle  10 NSaved=  10.
 NSaved=10 IEnMin=10 EnMin= -557.278945820200     IErMin=10 ErrMin= 4.45D-08
 ErrMax= 4.45D-08  0.00D+00 EMaxC= 1.00D-01 BMatC= 4.73D-13 BMatP= 4.18D-12
 IDIUse=1 WtCom= 1.00D+00 WtEn= 0.00D+00
 Coeff-Com:  0.142D-04-0.383D-03 0.341D-03 0.246D-02 0.487D-02-0.889D-02
 Coeff-Com: -0.626D-01-0.557D-01 0.202D+00 0.918D+00
 Coeff:      0.142D-04-0.383D-03 0.341D-03 0.246D-02 0.487D-02-0.889D-02
 Coeff:     -0.626D-01-0.557D-01 0.202D+00 0.918D+00
 Gap=     0.298 Goal=   None    Shift=    0.000
 RMSDP=3.32D-08 MaxDP=1.01D-06 DE=-1.05D-11 OVMax= 1.09D-06

 Cycle  11  Pass 1  IDiag  1:
 RMSU=  1.31D-08    CP:  9.92D-01  1.15D+00  1.18D+00  1.02D+00  1.08D+00
                    CP:  1.32D+00  1.15D+00  1.29D+00  1.48D+00  1.17D+00
 E= -557.278945820198     Delta-E=        0.000000000002 Rises=F Damp=F
 DIIS: error= 1.57D-08 at cycle  11 NSaved=  11.
 NSaved=11 IEnMin=10 EnMin= -557.278945820200     IErMin=11 ErrMin= 1.57D-08
 ErrMax= 1.57D-08  0.00D+00 EMaxC= 1.00D-01 BMatC= 6.86D-14 BMatP= 4.73D-13
 IDIUse=1 WtCom= 1.00D+00 WtEn= 0.00D+00
 Coeff-Com:  0.648D-05-0.101D-03 0.208D-04 0.380D-03 0.146D-02 0.176D-02
 Coeff-Com: -0.129D-01-0.301D-01-0.478D-01 0.203D+00 0.884D+00
 Coeff:      0.648D-05-0.101D-03 0.208D-04 0.380D-03 0.146D-02 0.176D-02
 Coeff:     -0.129D-01-0.301D-01-0.478D-01 0.203D+00 0.884D+00
 Gap=     0.298 Goal=   None    Shift=    0.000
 RMSDP=1.08D-08 MaxDP=5.38D-07 DE= 1.93D-12 OVMax= 4.25D-07

 Cycle  12  Pass 1  IDiag  1:
 RMSU=  3.92D-09    CP:  9.92D-01  1.15D+00  1.18D+00  1.02D+00  1.08D+00
                    CP:  1.32D+00  1.15D+00  1.30D+00  1.53D+00  1.31D+00
                    CP:  1.32D+00
 E= -557.278945820199     Delta-E=       -0.000000000001 Rises=F Damp=F
 DIIS: error= 7.42D-09 at cycle  12 NSaved=  12.
 NSaved=12 IEnMin=10 EnMin= -557.278945820200     IErMin=12 ErrMin= 7.42D-09
 ErrMax= 7.42D-09  0.00D+00 EMaxC= 1.00D-01 BMatC= 1.71D-14 BMatP= 6.86D-14
 IDIUse=1 WtCom= 1.00D+00 WtEn= 0.00D+00
 Coeff-Com: -0.156D-05 0.658D-04-0.753D-04-0.523D-03-0.817D-03 0.300D-02
 Coeff-Com:  0.113D-01 0.720D-02-0.793D-01-0.167D+00 0.286D+00 0.941D+00
 Coeff:     -0.156D-05 0.658D-04-0.753D-04-0.523D-03-0.817D-03 0.300D-02
 Coeff:      0.113D-01 0.720D-02-0.793D-01-0.167D+00 0.286D+00 0.941D+00
 Gap=     0.298 Goal=   None    Shift=    0.000
 RMSDP=6.82D-09 MaxDP=2.17D-07 DE=-5.68D-13 OVMax= 2.42D-07

 Error on total polarization charges =  0.04777
 SCF Done:  E(RwB97XD) =  -557.278945820     A.U. after   12 cycles
            NFock= 12  Conv=0.68D-08     -V/T= 2.0095
 KE= 5.520128354125D+02 PE=-2.793308597986D+03 EE= 9.263711703761D+02
 SMD-CDS (non-electrostatic) energy       (kcal/mol) =      -0.30
 (included in total energy above)
 Leave Link  502 at Wed Jul  8 17:48:21 2026, MaxMem=  4026531840 cpu:             244.7 elap:              31.0
 (Enter /opt/packages/gaussian/g16RevC.01/g16/l701.exe)
 ... and contract with generalized density number  0.
 Compute integral first derivatives.
 R6Disp: Adding Grimme-D2 dispersion energy 1st derivatives to the gradient.
 D1PCM: PCM CHGder 1st derivatives, ID1Alg=3 FixD1E=F DoIter=F DoCFld=F I1PDM=0.
 GePol: Maximum number of non-zero 1st derivatives   =     258
 Leave Link  701 at Wed Jul  8 17:48:22 2026, MaxMem=  4026531840 cpu:               6.6 elap:               0.8
 (Enter /opt/packages/gaussian/g16RevC.01/g16/l702.exe)
 L702 exits ... SP integral derivatives will be done elsewhere.
 Leave Link  702 at Wed Jul  8 17:48:22 2026, MaxMem=  4026531840 cpu:               0.1 elap:               0.1
 (Enter /opt/packages/gaussian/g16RevC.01/g16/l703.exe)
 Integral derivatives from FoFJK, PRISM(SPDF).
 Compute integral first derivatives, UseDBF=F ICtDFT=           0.
 Calling FoFJK, ICntrl=      2127 FMM=F ISym2X=0 I1Cent= 0 IOpClX= 0 NMat=1 NMatS=1 NMatT=0.
 FoFJK:  IHMeth= 1 ICntrl=    2127 DoSepK=T KAlg= 0 I1Cent=           0 FoldK=F
 IRaf=         1 NMat=       1 IRICut=       1 DoRegI=T DoRafI=F ISym2E= 0 IDoP0=0 IntGTp=1.
 FoFCou: FMM=F IPFlag=           0 FMFlag=      100000 FMFlg1=         800
         NFxFlg=           0 DoJE=F BraDBF=F KetDBF=F FulRan=T
         wScrn=  0.000000 ICntrl=      2527 IOpCl=  0 I1Cent=           0 NGrid=           0
         NMat0=    1 NMatS0=      1 NMatT0=    0 NMatD0=    1 NMtDS0=    0 NMtDT0=    0
 Symmetry not used in FoFCou.
 Leave Link  703 at Wed Jul  8 17:48:30 2026, MaxMem=  4026531840 cpu:              64.4 elap:               8.1
 (Enter /opt/packages/gaussian/g16RevC.01/g16/l716.exe)
 Dipole        = 2.86460522D+00-1.51446717D-01 1.51798133D-01
 ***** Axes restored to original set *****
 -------------------------------------------------------------------
 Center     Atomic                   Forces (Hartrees/Bohr)
 Number     Number              X              Y              Z
 -------------------------------------------------------------------
      1        6          -0.000551640    0.000205575   -0.000001695
      2        6           0.000070835    0.000027058    0.000016748
      3        6           0.000095158    0.000100421    0.000005400
      4        6          -0.000114795    0.000270739    0.000030980
      5        6           0.000213918   -0.000186663   -0.000058730
      6        6           0.000143857   -0.000197112    0.000023264
      7        1           0.000059912   -0.000030019    0.000006187
      8        1           0.000116537    0.000039042    0.000015812
      9        1          -0.000098166    0.000052162   -0.000003377
     10        1           0.000076362   -0.000020453    0.000011014
     11        8           0.000531644   -0.000345109    0.000025556
     12        6          -0.000097145    0.000340490   -0.000019096
     13        1          -0.000055344   -0.000000824   -0.000008424
     14        1          -0.000059323   -0.000004419    0.000029949
     15        1          -0.000130537   -0.000182796    0.000009243
     16        6          -0.000198633    0.000113863   -0.000018770
     17        6          -0.000049496   -0.000066168    0.000068980
     18        7          -0.000161322   -0.000249753    0.000007052
     19        6          -0.000148313    0.000213068   -0.000047758
     20        6           0.000284974   -0.000129401   -0.000036261
     21        1           0.000013223    0.000087455   -0.000058190
     22        1           0.000036234    0.000020450   -0.000030352
     23        1           0.000081522   -0.000098451   -0.000007133
     24        1           0.000073142   -0.000086832   -0.000028587
     25        1          -0.000045122    0.000037961    0.000041778
     26        1           0.000002930    0.000020309    0.000023976
     27        1          -0.000090414    0.000069410    0.000002431
 -------------------------------------------------------------------
 Cartesian Forces:  Max     0.000551640 RMS     0.000141122
 Leave Link  716 at Wed Jul  8 17:48:30 2026, MaxMem=  4026531840 cpu:               0.1 elap:               0.1
 (Enter /opt/packages/gaussian/g16RevC.01/g16/l103.exe)

 GradGradGradGradGradGradGradGradGradGradGradGradGradGradGradGradGradGrad
 Berny optimization.
 Using GEDIIS/GDIIS optimizer.
 FormGI is forming the generalized inverse of G from B-inverse, IUseBI=4.
 GSVD:  received Info=                   1 from GESDD.
 Internal  Forces:  Max     0.000633727 RMS     0.000100751
 Search for a local minimum.
 Step number   2 out of a maximum of  154
 All quantities printed in internal units (Hartrees-Bohrs-Radians)
 RMS Force = .10075D-03 SwitMx=.10000D-02 MixMth= 2
 Mixed Optimization -- En-DIIS/RFO-DIIS
 Swapping is turned off.
 Update second derivatives using D2CorX and points    1    2
 DE= -4.06D-05 DEPred=-4.51D-05 R= 9.00D-01
 TightC=F SS=  1.41D+00  RLast= 2.75D-02 DXNew= 5.0454D-01 8.2542D-02
 Trust test= 9.00D-01 RLast= 2.75D-02 DXMaxT set to 3.00D-01
 ITU=  1  0
     Eigenvalues ---    0.00466   0.01114   0.01292   0.01361   0.01444
     Eigenvalues ---    0.01848   0.01849   0.02017   0.02099   0.02136
     Eigenvalues ---    0.02154   0.02181   0.02196   0.02213   0.02270
     Eigenvalues ---    0.02401   0.03367   0.03623   0.04990   0.05237
     Eigenvalues ---    0.05631   0.05868   0.06917   0.07501   0.08414
     Eigenvalues ---    0.08454   0.09404   0.10136   0.10720   0.10978
     Eigenvalues ---    0.15507   0.15961   0.16000   0.16000   0.16000
     Eigenvalues ---    0.16000   0.16000   0.16470   0.21483   0.21990
     Eigenvalues ---    0.22670   0.22853   0.24035   0.24771   0.24985
     Eigenvalues ---    0.25000   0.27275   0.27729   0.28499   0.31074
     Eigenvalues ---    0.33981   0.34315   0.34343   0.34350   0.34439
     Eigenvalues ---    0.34647   0.34708   0.34715   0.34743   0.34848
     Eigenvalues ---    0.35337   0.35383   0.35534   0.35812   0.39032
     Eigenvalues ---    0.40443   0.41576   0.42276   0.44883   0.45005
     Eigenvalues ---    0.46803   0.47020   0.49222   0.54866   0.64090
 En-DIIS/RFO-DIIS/Sim-DIIS IScMMF=       -3 using points:     2    1
 RFO step:  Lambda=-5.77756265D-06.
 NNeg= 0 NGDIIS= 2 SimSw=  2.50D-03 Rises=F DC= -4.06D-05 SmlDif=  1.00D-05
 NRisDI= 0 DoIntr=F SqrtH=F CThrHd= 10.0 CDAdj=  3.0
 RMS Error=  0.9287072844D-03 NUsed= 2 OKEnD=T EnDIS=F
 InvSVX:  RCond= 1.89D-04 Info=           0 Equed=N FErr=  1.46D-15 BErr=  6.72D-18
 DidBck=F Rises=F RFO-DIIS coefs:    1.15573   -0.15573
 Iteration  1 RMS(Cart)=  0.00238576 RMS(Int)=  0.00000177
 Iteration  2 RMS(Cart)=  0.00000266 RMS(Int)=  0.00000029
 Iteration  3 RMS(Cart)=  0.00000000 RMS(Int)=  0.00000029
 ITry= 1 IFail=0 DXMaxC= 1.02D-02 DCOld= 1.00D+10 DXMaxT= 3.00D-01 DXLimC= 3.00D+00 Rises=F
 Variable       Old X    -DE/DX   Delta X   Delta X   Delta X     New X
                                 (Linear)    (Quad)   (Total)
    R1        2.64564   0.00000   0.00063  -0.00037   0.00026   2.64590
    R2        2.65798   0.00006   0.00047  -0.00016   0.00031   2.65829
    R3        2.54095  -0.00022  -0.00054  -0.00001  -0.00055   2.54040
    R4        2.62194  -0.00004   0.00033  -0.00027   0.00006   2.62200
    R5        2.04809  -0.00009   0.00026  -0.00041  -0.00015   2.04794
    R6        2.65240  -0.00014   0.00047  -0.00059  -0.00013   2.65227
    R7        2.05062  -0.00009   0.00024  -0.00038  -0.00014   2.05047
    R8        2.66934  -0.00046   0.00047  -0.00129  -0.00082   2.66852
    R9        2.73569  -0.00020   0.00044  -0.00074  -0.00031   2.73538
   R10        2.60294  -0.00000   0.00048  -0.00032   0.00016   2.60310
   R11        2.05177   0.00002   0.00011  -0.00002   0.00009   2.05186
   R12        2.05158  -0.00006   0.00012  -0.00022  -0.00010   2.05147
   R13        2.69933   0.00009  -0.00051   0.00053   0.00002   2.69935
   R14        2.06877  -0.00002   0.00021  -0.00019   0.00002   2.06879
   R15        2.06882  -0.00002   0.00021  -0.00019   0.00002   2.06884
   R16        2.05970   0.00005   0.00006   0.00011   0.00016   2.05987
   R17        2.83909   0.00007   0.00007   0.00015   0.00023   2.83932
   R18        2.45761  -0.00021   0.00029  -0.00051  -0.00022   2.45739
   R19        2.90567   0.00011   0.00006   0.00044   0.00049   2.90616
   R20        2.06329  -0.00003   0.00015  -0.00017  -0.00003   2.06326
   R21        2.07455  -0.00004   0.00012  -0.00017  -0.00006   2.07450
   R22        2.77495   0.00010  -0.00050   0.00052   0.00002   2.77498
   R23        1.91897   0.00009  -0.00038   0.00043   0.00006   1.91902
   R24        2.89293  -0.00000   0.00022  -0.00009   0.00013   2.89306
   R25        2.06817   0.00001   0.00004   0.00000   0.00004   2.06821
   R26        2.06156   0.00001   0.00001   0.00001   0.00002   2.06158
   R27        2.06664  -0.00006   0.00009  -0.00022  -0.00013   2.06651
   R28        2.06149   0.00001   0.00002   0.00000   0.00002   2.06152
    A1        2.09629  -0.00027   0.00005  -0.00096  -0.00090   2.09539
    A2        2.16874   0.00022   0.00020   0.00063   0.00083   2.16957
    A3        2.01816   0.00005  -0.00026   0.00033   0.00007   2.01823
    A4        2.08093   0.00003  -0.00001   0.00019   0.00018   2.08111
    A5        2.11904   0.00007   0.00033   0.00017   0.00050   2.11954
    A6        2.08321  -0.00010  -0.00032  -0.00036  -0.00068   2.08253
    A7        2.11979   0.00006  -0.00008   0.00026   0.00018   2.11997
    A8        2.06393  -0.00010  -0.00028  -0.00030  -0.00058   2.06335
    A9        2.09945   0.00004   0.00036   0.00004   0.00040   2.09986
   A10        2.06686   0.00004   0.00016  -0.00007   0.00009   2.06695
   A11        2.07711   0.00014  -0.00052   0.00092   0.00039   2.07750
   A12        2.13920  -0.00018   0.00036  -0.00085  -0.00048   2.13871
   A13        2.10560  -0.00004  -0.00008  -0.00019  -0.00028   2.10533
   A14        2.11920  -0.00006   0.00046  -0.00061  -0.00015   2.11905
   A15        2.05838   0.00010  -0.00038   0.00080   0.00043   2.05881
   A16        2.09686   0.00018  -0.00004   0.00077   0.00073   2.09759
   A17        2.07665  -0.00005   0.00026  -0.00033  -0.00007   2.07659
   A18        2.10967  -0.00013  -0.00022  -0.00044  -0.00066   2.10901
   A19        2.07384   0.00063  -0.00071   0.00277   0.00206   2.07591
   A20        1.93212   0.00001   0.00006  -0.00001   0.00005   1.93217
   A21        1.93151   0.00002   0.00006   0.00002   0.00008   1.93159
   A22        1.83870   0.00032  -0.00043   0.00216   0.00173   1.84043
   A23        1.92754  -0.00005   0.00025  -0.00055  -0.00030   1.92723
   A24        1.91612  -0.00014   0.00001  -0.00074  -0.00073   1.91540
   A25        1.91595  -0.00014   0.00002  -0.00078  -0.00076   1.91519
   A26        2.19158   0.00025  -0.00043   0.00118   0.00076   2.19233
   A27        2.18277  -0.00022   0.00032  -0.00103  -0.00071   2.18205
   A28        1.90844  -0.00003   0.00010  -0.00013  -0.00003   1.90841
   A29        1.81023   0.00004  -0.00014   0.00051   0.00037   1.81060
   A30        1.95378  -0.00004   0.00000  -0.00059  -0.00059   1.95319
   A31        1.87891   0.00000  -0.00024   0.00035   0.00011   1.87902
   A32        1.97622  -0.00003  -0.00024  -0.00021  -0.00045   1.97577
   A33        1.96413  -0.00003   0.00027  -0.00032  -0.00005   1.96407
   A34        1.87908   0.00005   0.00033   0.00025   0.00058   1.87967
   A35        2.00781   0.00007  -0.00006   0.00028   0.00022   2.00804
   A36        2.16606  -0.00010   0.00050  -0.00081  -0.00031   2.16574
   A37        2.10682   0.00003  -0.00047   0.00056   0.00008   2.10690
   A38        1.78397   0.00001   0.00008   0.00030   0.00038   1.78435
   A39        1.88935   0.00005  -0.00035   0.00090   0.00056   1.88990
   A40        1.91020   0.00006  -0.00025   0.00101   0.00077   1.91097
   A41        1.97629  -0.00007   0.00006  -0.00103  -0.00097   1.97532
   A42        1.99370  -0.00007  -0.00000  -0.00068  -0.00068   1.99302
   A43        1.90394   0.00003   0.00038  -0.00027   0.00011   1.90404
   A44        1.81882  -0.00008   0.00002  -0.00009  -0.00006   1.81876
   A45        1.91734   0.00000  -0.00001  -0.00024  -0.00025   1.91709
   A46        1.96092   0.00005  -0.00025   0.00045   0.00020   1.96112
   A47        1.91890  -0.00001   0.00009  -0.00042  -0.00034   1.91856
   A48        1.95342   0.00003  -0.00017   0.00011  -0.00006   1.95336
   A49        1.89370   0.00001   0.00031   0.00016   0.00047   1.89417
    D1       -0.00625  -0.00001  -0.00010  -0.00034  -0.00044  -0.00669
    D2        3.13791  -0.00000  -0.00015  -0.00005  -0.00021   3.13771
    D3        3.13630  -0.00002  -0.00004  -0.00083  -0.00087   3.13542
    D4       -0.00272  -0.00001  -0.00010  -0.00055  -0.00064  -0.00337
    D5        0.00269   0.00001   0.00006   0.00034   0.00040   0.00309
    D6       -3.13851   0.00000   0.00005   0.00004   0.00010  -3.13841
    D7       -3.13977   0.00002   0.00000   0.00080   0.00080  -3.13898
    D8        0.00221   0.00001  -0.00000   0.00050   0.00050   0.00271
    D9       -0.00438  -0.00001   0.00003  -0.00035  -0.00031  -0.00469
   D10        3.13813  -0.00002   0.00009  -0.00082  -0.00073   3.13740
   D11        0.00325   0.00001  -0.00003   0.00028   0.00026   0.00350
   D12        3.13983   0.00001  -0.00033   0.00049   0.00017   3.13999
   D13       -3.14087   0.00000   0.00003   0.00001   0.00003  -3.14083
   D14       -0.00429   0.00000  -0.00027   0.00021  -0.00006  -0.00434
   D15        0.00324  -0.00000   0.00020  -0.00022  -0.00002   0.00321
   D16        3.13911   0.00001  -0.00007   0.00036   0.00029   3.13940
   D17       -3.13324  -0.00000   0.00050  -0.00043   0.00007  -3.13317
   D18        0.00263   0.00001   0.00023   0.00015   0.00038   0.00302
   D19       -0.00686   0.00000  -0.00024   0.00022  -0.00002  -0.00688
   D20        3.13563  -0.00000  -0.00007  -0.00006  -0.00013   3.13550
   D21        3.14067  -0.00001   0.00004  -0.00039  -0.00035   3.14032
   D22       -0.00002  -0.00001   0.00021  -0.00067  -0.00046  -0.00049
   D23        0.00174   0.00003   0.00121   0.00130   0.00251   0.00425
   D24       -3.10597   0.00003   0.00144   0.00046   0.00191  -3.10406
   D25        3.13736   0.00004   0.00094   0.00190   0.00284   3.14020
   D26        0.02965   0.00003   0.00116   0.00107   0.00224   0.03189
   D27        0.00395  -0.00000   0.00012  -0.00028  -0.00017   0.00379
   D28       -3.13804   0.00000   0.00012   0.00002   0.00014  -3.13790
   D29       -3.13851  -0.00000  -0.00005  -0.00001  -0.00006  -3.13857
   D30        0.00268   0.00001  -0.00004   0.00029   0.00025   0.00293
   D31        1.07227  -0.00002   0.00035   0.00001   0.00035   1.07262
   D32       -1.07082   0.00003  -0.00005   0.00071   0.00066  -1.07017
   D33       -3.14061   0.00001   0.00014   0.00037   0.00052  -3.14009
   D34        2.93700   0.00000   0.00048   0.00043   0.00091   2.93791
   D35        0.80045   0.00003   0.00086   0.00068   0.00154   0.80199
   D36       -1.26134  -0.00001   0.00061   0.00048   0.00109  -1.26025
   D37       -0.23399   0.00000   0.00029   0.00113   0.00143  -0.23257
   D38       -2.37054   0.00003   0.00067   0.00138   0.00205  -2.36849
   D39        1.85086  -0.00001   0.00042   0.00119   0.00160   1.85246
   D40        3.08895   0.00001  -0.00057   0.00073   0.00016   3.08910
   D41        0.02308   0.00001  -0.00004   0.00027   0.00023   0.02330
   D42       -0.02343   0.00001  -0.00036  -0.00002  -0.00038  -0.02381
   D43       -3.08930   0.00000   0.00017  -0.00048  -0.00031  -3.08961
   D44        0.38182  -0.00002  -0.00016  -0.00175  -0.00191   0.37991
   D45       -1.67326   0.00003  -0.00027  -0.00110  -0.00137  -1.67463
   D46        2.50012  -0.00001  -0.00049  -0.00143  -0.00192   2.49821
   D47        2.50341  -0.00005  -0.00038  -0.00225  -0.00263   2.50079
   D48        0.44833   0.00000  -0.00049  -0.00159  -0.00208   0.44625
   D49       -1.66147  -0.00004  -0.00071  -0.00192  -0.00263  -1.66410
   D50       -1.64377  -0.00003   0.00009  -0.00232  -0.00223  -1.64600
   D51        2.58434   0.00002  -0.00002  -0.00166  -0.00169   2.58265
   D52        0.47454  -0.00002  -0.00024  -0.00199  -0.00224   0.47230
   D53        0.26980   0.00000   0.00027  -0.00107  -0.00080   0.26900
   D54       -1.82041   0.00006   0.00031  -0.00044  -0.00013  -1.82055
   D55        2.38950  -0.00004   0.00019  -0.00121  -0.00103   2.38847
   D56       -2.94471  -0.00000  -0.00020  -0.00069  -0.00089  -2.94560
   D57        1.24826   0.00005  -0.00016  -0.00006  -0.00022   1.24804
   D58       -0.82502  -0.00005  -0.00028  -0.00084  -0.00111  -0.82613
   D59       -0.38667   0.00003  -0.00010   0.00179   0.00170  -0.38498
   D60        1.66733  -0.00001  -0.00006   0.00127   0.00121   1.66854
   D61       -2.50995   0.00002   0.00028   0.00125   0.00153  -2.50843
   D62        1.64156   0.00007  -0.00043   0.00257   0.00214   1.64369
   D63       -2.58762   0.00003  -0.00039   0.00204   0.00165  -2.58597
   D64       -0.48173   0.00005  -0.00005   0.00202   0.00197  -0.47976
   D65       -2.44785  -0.00002   0.00015   0.00072   0.00087  -2.44698
   D66       -0.39385  -0.00006   0.00019   0.00019   0.00038  -0.39346
   D67        1.71205  -0.00004   0.00053   0.00017   0.00070   1.71275
         Item               Value     Threshold  Converged?
 Maximum Force            0.000634     0.000450     NO 
 RMS     Force            0.000101     0.000300     YES
 Maximum Displacement     0.010210     0.001800     NO 
 RMS     Displacement     0.002385     0.001200     NO 
 Predicted change in Energy=-2.889104D-06
 Lowest energy point so far.  Saving SCF results.
 GradGradGradGradGradGradGradGradGradGradGradGradGradGradGradGradGradGrad

 Leave Link  103 at Wed Jul  8 17:48:30 2026, MaxMem=  4026531840 cpu:               0.2 elap:               0.1
 (Enter /opt/packages/gaussian/g16RevC.01/g16/l202.exe)
                          Input orientation:                          
 ---------------------------------------------------------------------
 Center     Atomic      Atomic             Coordinates (Angstroms)
 Number     Number       Type             X           Y           Z
 ---------------------------------------------------------------------
      1          6           0       -2.479793    0.265960   -0.011509
      2          6           0       -1.847549   -0.982233    0.040443
      3          6           0       -0.461273   -1.039945    0.048567
      4          6           0        0.320708    0.124915    0.010064
      5          6           0       -0.335983    1.374282   -0.033762
      6          6           0       -1.711664    1.443913   -0.046633
      7          1           0       -2.220016    2.402409   -0.083736
      8          1           0       -2.417249   -1.903599    0.071828
      9          1           0        0.011409   -2.015734    0.090621
     10          1           0        0.221179    2.305886   -0.059023
     11          8           0       -3.812665    0.439958   -0.030856
     12          6           0       -4.660283   -0.709467   -0.002792
     13          1           0       -4.505427   -1.282209    0.917249
     14          1           0       -4.484641   -1.340697   -0.879859
     15          1           0       -5.678176   -0.320281   -0.027352
     16          6           0        1.763046    0.003503    0.023500
     17          6           0        2.532039   -1.286422    0.071055
     18          7           0        2.595995    1.002081    0.031482
     19          6           0        4.013730    0.628577    0.114432
     20          6           0        3.977777   -0.861318   -0.235848
     21          1           0        2.140270   -2.020588   -0.635779
     22          1           0        2.421372   -1.703087    1.080637
     23          1           0        4.360966    0.823131    1.133940
     24          1           0        4.591950    1.237693   -0.581837
     25          1           0        4.187138   -0.999061   -1.300292
     26          1           0        4.709024   -1.432329    0.338002
     27          1           0        2.314755    1.977713    0.048659
 ---------------------------------------------------------------------
                    Distance matrix (angstroms):
                    1          2          3          4          5
     1  C    0.000000
     2  C    1.400149   0.000000
     3  C    2.404874   1.387500   0.000000
     4  C    2.804133   2.434756   1.403522   0.000000
     5  C    2.413460   2.800625   2.418877   1.412120   0.000000
     6  C    1.406708   2.431508   2.782461   2.423532   1.377502
     7  H    2.153396   3.407338   3.867878   3.413365   2.146887
     8  H    2.172061   1.083725   2.138289   3.408092   3.884240
     9  H    3.379741   2.127526   1.085063   2.164378   3.410038
    10  H    3.385085   3.886033   3.416416   2.184334   1.085796
    11  O    1.344321   2.426807   3.664458   4.145564   3.600040
    12  C    2.388739   2.826260   4.212308   5.050409   4.800265
    13  H    2.713414   2.814799   4.143486   5.108284   5.034444
    14  H    2.711973   2.815973   4.140037   5.102093   5.029746
    15  H    3.251705   3.887992   5.266854   6.015497   5.604517
    16  C    4.251093   3.742774   2.457032   1.447501   2.507636
    17  C    5.247396   4.390246   3.003527   2.624038   3.913551
    18  N    5.129069   4.866484   3.676554   2.438609   2.956229
    19  C    6.504859   6.079044   4.776396   3.728670   4.415659
    20  C    6.559061   5.833127   4.451737   3.795692   4.862846
    21  H    5.192590   4.175902   2.863218   2.886364   4.244926
    22  H    5.393639   4.452563   3.132821   2.983371   4.279613
    23  H    6.958339   6.557495   5.282337   4.251387   4.871204
    24  H    7.160941   6.839769   5.578540   4.453328   4.960198
    25  H    6.907185   6.181852   4.840333   4.234340   5.262650
    26  H    7.394959   6.578736   5.193237   4.667961   5.785099
    27  H    5.091307   5.107457   4.100316   2.722237   2.719804
                    6          7          8          9         10
     6  C    0.000000
     7  H    1.085594   0.000000
     8  H    3.423116   4.313330   0.000000
     9  H    3.867425   4.952742   2.431318   0.000000
    10  H    2.116372   2.443228   4.969727   4.329295   0.000000
    11  O    2.328600   2.527952   2.729468   4.546287   4.444590
    12  C    3.651482   3.955405   2.542189   4.851780   5.737960
    13  H    4.020687   4.449886   2.336953   4.650073   6.014012
    14  H    4.017178   4.446704   2.344499   4.648868   6.009665
    15  H    4.341195   4.401715   3.626345   5.938001   6.457565
    16  C    3.762088   4.650918   4.595023   2.673959   2.772207
    17  C    5.047534   6.017762   4.987621   2.624091   4.273367
    18  N    4.330963   5.016788   5.794586   3.973763   2.710692
    19  C    5.785399   6.484238   6.911673   4.797033   4.150529
    20  C    6.141630   7.006260   6.486707   4.143831   4.916754
    21  H    5.214140   6.235363   4.613608   2.249384   4.768011
    22  H    5.315668   6.305025   4.946732   2.624081   4.712911
    23  H    6.217392   6.876495   7.382909   5.297765   4.556266
    24  H    6.329654   6.928748   7.708687   5.658475   4.529681
    25  H    6.506585   7.355381   6.805794   4.517187   5.309638
    26  H    7.045987   7.930616   7.146797   4.740162   5.854282
    27  H    4.062767   4.556539   6.120211   4.610291   2.121875
                   11         12         13         14         15
    11  O    0.000000
    12  C    1.428434   0.000000
    13  H    2.084390   1.094756   0.000000
    14  H    2.084009   1.094783   1.798180   0.000000
    15  H    2.014474   1.090034   1.786873   1.786769   0.000000
    16  C    5.593032   6.462830   6.461083   6.454186   7.448436
    17  C    6.576173   7.215805   7.088159   7.081030   8.267451
    18  N    6.433568   7.455478   7.512174   7.513625   8.379380
    19  C    7.830016   8.777392   8.767648   8.780032   9.739275
    20  C    7.901033   8.642538   8.571553   8.500415   9.673346
    21  H    6.469749   6.954656   6.864575   6.664178   8.024296
    22  H    6.685153   7.232630   6.941497   7.188037   8.291107
    23  H    8.265097   9.220844   9.115500   9.326430  10.170564
    24  H    8.460349   9.472621   9.558213   9.440413  10.402414
    25  H    8.226731   8.946745   8.975430   8.688683   9.970233
    26  H    8.732737   9.403328   9.233860   9.274430  10.452944
    27  H    6.317934   7.474941   7.608970   7.622714   8.317061
                   16         17         18         19         20
    16  C    0.000000
    17  C    1.502504   0.000000
    18  N    1.300395   2.289738   0.000000
    19  C    2.337641   2.421675   1.468454   0.000000
    20  C    2.391696   1.537875   2.335174   1.530939   0.000000
    21  H    2.161918   1.091832   3.128809   3.330277   2.209136
    22  H    2.112671   1.097776   2.906742   2.984261   2.205471
    23  H    2.941778   2.987459   2.088674   1.094450   2.204659
    24  H    3.145211   3.322748   2.101311   1.090940   2.214218
    25  H    2.938330   2.168530   2.882694   2.163498   1.093548
    26  H    3.292310   2.198138   3.238085   2.186493   1.090908
    27  H    2.050005   3.271435   1.015504   2.170486   3.302526
                   21         22         23         24         25
    21  H    0.000000
    22  H    1.768024   0.000000
    23  H    4.018723   3.185380   0.000000
    24  H    4.077994   4.015396   1.780198   0.000000
    25  H    2.382176   3.046704   3.045667   2.383929   0.000000
    26  H    2.809412   2.420365   2.416973   2.826451   1.773159
    27  H    4.060210   3.824216   2.588025   2.476039   3.766519
                   26         27
    26  H    0.000000
    27  H    4.176676   0.000000
 Stoichiometry    C11H14NO(1+)
 Framework group  C1[X(C11H14NO)]
 Deg. of freedom    75
 Full point group                 C1      NOp   1
 RotChk:  IX=0 Diff= 2.87D-04
 Largest Abelian subgroup         C1      NOp   1
 Largest concise Abelian subgroup C1      NOp   1
                         Standard orientation:                         
 ---------------------------------------------------------------------
 Center     Atomic      Atomic             Coordinates (Angstroms)
 Number     Number       Type             X           Y           Z
 ---------------------------------------------------------------------
      1          6           0       -2.479666    0.265578   -0.010898
      2          6           0       -1.847409   -0.982651    0.040001
      3          6           0       -0.461133   -1.040352    0.048147
      4          6           0        0.320835    0.124551    0.010697
      5          6           0       -0.335871    1.373947   -0.032077
      6          6           0       -1.711552    1.443571   -0.044958
      7          1           0       -2.219915    2.402092   -0.081254
      8          1           0       -2.417098   -1.904053    0.070555
      9          1           0        0.011561   -2.016171    0.089377
     10          1           0        0.221281    2.305580   -0.056498
     11          8           0       -3.812540    0.439575   -0.030163
     12          6           0       -4.660145   -0.709885   -0.003142
     13          1           0       -4.505328   -1.283426    0.916408
     14          1           0       -4.484448   -1.340350   -0.880749
     15          1           0       -5.678041   -0.320692   -0.027417
     16          6           0        1.763174    0.003147    0.024103
     17          6           0        2.532182   -1.286809    0.070576
     18          7           0        2.596109    1.001729    0.032996
     19          6           0        4.013845    0.628172    0.115695
     20          6           0        3.977930   -0.861418   -0.235882
     21          1           0        2.140459   -2.020365   -0.636917
     22          1           0        2.421468   -1.704352    1.079789
     23          1           0        4.361026    0.821844    1.135390
     24          1           0        4.592093    1.237900   -0.580014
     25          1           0        4.187348   -0.998233   -1.300435
     26          1           0        4.709154   -1.432918    0.337509
     27          1           0        2.314855    1.977341    0.051007
 ---------------------------------------------------------------------
 Rotational constants (GHZ):           2.8665315           0.3538968           0.3180625
 Leave Link  202 at Wed Jul  8 17:48:30 2026, MaxMem=  4026531840 cpu:               0.0 elap:               0.0
 (Enter /opt/packages/gaussian/g16RevC.01/g16/l301.exe)
 Standard basis: 6-31+G(d) (6D, 7F)
 Ernie: Thresh=  0.10000D-02 Tol=  0.10000D-05 Strict=F.
 There are   275 symmetry adapted cartesian basis functions of A   symmetry.
 There are   275 symmetry adapted basis functions of A   symmetry.
   275 basis functions,   472 primitive gaussians,   275 cartesian basis functions
    47 alpha electrons       47 beta electrons
       nuclear repulsion energy       757.6181460119 Hartrees.
 IExCor= 4639 DFT=T Ex+Corr=wB97XD ExCW=0 ScaHFX=  1.000000
 ScaDFX=  1.000000  1.000000  1.000000  1.000000 ScalE2=  1.000000  1.000000
 IRadAn=      5 IRanWt=     -1 IRanGd=            0 ICorTp=0 IEmpDi=121
 HFx  wShort=  0.000000 wLong=  0.200000 cFull=  0.222036 cShort=  0.000000 cLong=  0.777964
 DFx  wShort=  0.000000 wLong=  0.200000 cFull=  0.000000 cShort=  0.000000 cLong=  1.000000
 NAtoms=   27 NActive=   27 NUniq=   27 SFac= 1.00D+00 NAtFMM=   60 NAOKFM=F Big=F
 Integral buffers will be    131072 words long.
 Raffenetti 2 integral format.
 Two-electron integral symmetry is turned on.
 R6Disp:  Grimme-D2 Dispersion energy=       -0.0166014656 Hartrees.
 Nuclear repulsion after empirical dispersion term =      757.6015445463 Hartrees.
 ------------------------------------------------------------------------------
 Polarizable Continuum Model (PCM)
 =================================
 Model                : PCM.
 Atomic radii         : SMD-Coulomb.
 Polarization charges : Total charges.
 Charge compensation  : None.
 Solution method      : On-the-fly selection.
 Cavity type          : VdW (van der Waals Surface) (Alpha=1.000).
 Cavity algorithm     : GePol (No added spheres)
                        Default sphere list used, NSphG=   27.
                        Lebedev-Laikov grids with approx.  5.0 points / Ang**2.
                        Smoothing algorithm: York/Karplus (Gamma=1.0000).
                        Polarization charges: spherical gaussians, with
                                              point-specific exponents (IZeta= 3).
                        Self-potential: point-specific (ISelfS= 7).
                        Self-field    : sphere-specific E.n sum rule (ISelfD= 2).
 1st derivatives      : Analytical E(r).r(x)/FMM algorithm (CHGder, D1EAlg=3).
                        Cavity 1st derivative terms included.
 Solvent              : Methanol, Eps=  32.613000 Eps(inf)=   1.765709
 ------------------------------------------------------------------------------
 GePol: Number of generator spheres                  =      27
 GePol: Total number of spheres                      =      27
 GePol: Number of exposed spheres                    =      27 (100.00%)
 GePol: Number of points                             =    1979
 GePol: Average weight of points                     =       0.11
 GePol: Minimum weight of points                     =   0.25D-09
 GePol: Maximum weight of points                     =    0.21991
 GePol: Number of points with low weight             =     118
 GePol: Fraction of low-weight points (<1% of avg)   =       5.96%
 GePol: Cavity surface area                          =    215.129 Ang**2
 GePol: Cavity volume                                =    191.313 Ang**3
 ------------------------------------------------------------------------------
 Atomic radii for non-electrostatic terms: SMD-CDS.
 ------------------------------------------------------------------------------
 PCM non-electrostatic energy =        -0.0004820781 Hartrees.
 Nuclear repulsion after PCM non-electrostatic terms =      757.6010624682 Hartrees.
 Leave Link  301 at Wed Jul  8 17:48:31 2026, MaxMem=  4026531840 cpu:               0.3 elap:               0.1
 (Enter /opt/packages/gaussian/g16RevC.01/g16/l302.exe)
 NPDir=0 NMtPBC=     1 NCelOv=     1 NCel=       1 NClECP=     1 NCelD=      1
         NCelK=      1 NCelE2=     1 NClLst=     1 CellRange=     0.0.
 One-electron integrals computed using PRISM.
 One-electron integral symmetry used in STVInt
 NBasis=   275 RedAO= T EigKep=  2.09D-06  NBF=   275
 NBsUse=   273 1.00D-06 EigRej=  8.42D-07 NBFU=   273
 Precomputing XC quadrature grid using
 IXCGrd= 4 IRadAn=           5 IRanWt=          -1 IRanGd=           0 AccXCQ= 0.00D+00.
 Generated NRdTot=       0 NPtTot=           0 NUsed=           0 NTot=          32
 NSgBfM=   274   274   274   274   274 MxSgAt=    27 MxSgA2=    27.
 Leave Link  302 at Wed Jul  8 17:48:31 2026, MaxMem=  4026531840 cpu:               1.4 elap:               0.3
 (Enter /opt/packages/gaussian/g16RevC.01/g16/l303.exe)
 DipDrv:  MaxL=1.
 Leave Link  303 at Wed Jul  8 17:48:31 2026, MaxMem=  4026531840 cpu:               0.1 elap:               0.0
 (Enter /opt/packages/gaussian/g16RevC.01/g16/l401.exe)
 Initial guess from the checkpoint file:  "iminium_ground_opt_wb97.chk"
 B after Tr=     0.000000   -0.000000    0.000000
         Rot=    1.000000   -0.000064    0.000009    0.000005 Ang=  -0.01 deg.
 Guess basis will be translated and rotated to current coordinates.
 JPrj=2 DoOrth=T DoCkMO=T.
 Leave Link  401 at Wed Jul  8 17:48:31 2026, MaxMem=  4026531840 cpu:               0.6 elap:               0.1
 (Enter /opt/packages/gaussian/g16RevC.01/g16/l502.exe)
 Integral symmetry usage will be decided dynamically.
 Closed shell SCF:
 Using DIIS extrapolation, IDIIS=  1040.
 NGot=  4026531840 LenX=  4026374748 LenY=  4026298682
 Requested convergence on RMS density matrix=1.00D-08 within 128 cycles.
 Requested convergence on MAX density matrix=1.00D-06.
 Requested convergence on             energy=1.00D-06.
 No special actions if energy rises.
 Fock matrices will be formed incrementally for  20 cycles.

 Cycle   1  Pass 1  IDiag  1:
 FoFJK:  IHMeth= 1 ICntrl=       0 DoSepK=T KAlg= 0 I1Cent=           0 FoldK=F
 IRaf=         1 NMat=       1 IRICut=       1 DoRegI=T DoRafI=F ISym2E= 0 IDoP0=0 IntGTp=1.
 FoFCou: FMM=F IPFlag=           0 FMFlag=      100000 FMFlg1=           0
         NFxFlg=           0 DoJE=T BraDBF=F KetDBF=F FulRan=T
         wScrn=  0.000000 ICntrl=       500 IOpCl=  0 I1Cent=           0 NGrid=           0
         NMat0=    1 NMatS0=      1 NMatT0=    0 NMatD0=    1 NMtDS0=    0 NMtDT0=    0
 Symmetry not used in FoFCou.
 Inv3:  Mode=1 IEnd=    11749323.
 Iteration    1 A*A^-1 deviation from unit magnitude is 3.22D-15 for   1916.
 Iteration    1 A*A^-1 deviation from orthogonality  is 2.75D-15 for   1393    104.
 Iteration    1 A^-1*A deviation from unit magnitude is 3.77D-15 for    209.
 Iteration    1 A^-1*A deviation from orthogonality  is 5.32D-14 for   1260   1221.
 E= -557.278931313791    
 DIIS: error= 2.34D-04 at cycle   1 NSaved=   1.
 NSaved= 1 IEnMin= 1 EnMin= -557.278931313791     IErMin= 1 ErrMin= 2.34D-04
 ErrMax= 2.34D-04  0.00D+00 EMaxC= 1.00D-01 BMatC= 1.32D-05 BMatP= 1.32D-05
 IDIUse=3 WtCom= 9.98D-01 WtEn= 2.34D-03
 Coeff-Com:  0.100D+01
 Coeff-En:   0.100D+01
 Coeff:      0.100D+01
 Gap=     0.562 Goal=   None    Shift=    0.000
 RMSDP=1.03D-04 MaxDP=3.07D-03              OVMax= 9.55D-04

 Cycle   2  Pass 1  IDiag  1:
 RMSU=  1.02D-04    CP:  1.00D+00
 E= -557.278947794919     Delta-E=       -0.000016481128 Rises=F Damp=F
 DIIS: error= 2.51D-05 at cycle   2 NSaved=   2.
 NSaved= 2 IEnMin= 2 EnMin= -557.278947794919     IErMin= 2 ErrMin= 2.51D-05
 ErrMax= 2.51D-05  0.00D+00 EMaxC= 1.00D-01 BMatC= 3.44D-07 BMatP= 1.32D-05
 IDIUse=1 WtCom= 1.00D+00 WtEn= 0.00D+00
 Coeff-Com: -0.929D-01 0.109D+01
 Coeff:     -0.929D-01 0.109D+01
 Gap=     0.297 Goal=   None    Shift=    0.000
 RMSDP=2.19D-05 MaxDP=9.34D-04 DE=-1.65D-05 OVMax= 1.98D-04

 Cycle   3  Pass 1  IDiag  1:
 RMSU=  1.77D-05    CP:  1.00D+00  1.11D+00
 E= -557.278948549142     Delta-E=       -0.000000754222 Rises=F Damp=F
 DIIS: error= 1.17D-05 at cycle   3 NSaved=   3.
 NSaved= 3 IEnMin= 3 EnMin= -557.278948549142     IErMin= 3 ErrMin= 1.17D-05
 ErrMax= 1.17D-05  0.00D+00 EMaxC= 1.00D-01 BMatC= 9.35D-08 BMatP= 3.44D-07
 IDIUse=1 WtCom= 1.00D+00 WtEn= 0.00D+00
 Coeff-Com: -0.447D-01 0.351D+00 0.693D+00
 Coeff:     -0.447D-01 0.351D+00 0.693D+00
 Gap=     0.298 Goal=   None    Shift=    0.000
 RMSDP=5.87D-06 MaxDP=3.11D-04 DE=-7.54D-07 OVMax= 6.27D-05

 Cycle   4  Pass 1  IDiag  1:
 RMSU=  4.94D-06    CP:  1.00D+00  1.12D+00  1.05D+00
 E= -557.278948629554     Delta-E=       -0.000000080412 Rises=F Damp=F
 DIIS: error= 6.73D-06 at cycle   4 NSaved=   4.
 NSaved= 4 IEnMin= 4 EnMin= -557.278948629554     IErMin= 4 ErrMin= 6.73D-06
 ErrMax= 6.73D-06  0.00D+00 EMaxC= 1.00D-01 BMatC= 2.24D-08 BMatP= 9.35D-08
 IDIUse=1 WtCom= 1.00D+00 WtEn= 0.00D+00
 Coeff-Com:  0.218D-02-0.997D-01 0.300D+00 0.797D+00
 Coeff:      0.218D-02-0.997D-01 0.300D+00 0.797D+00
 Gap=     0.297 Goal=   None    Shift=    0.000
 RMSDP=3.51D-06 MaxDP=2.16D-04 DE=-8.04D-08 OVMax= 3.52D-05

 Cycle   5  Pass 1  IDiag  1:
 RMSU=  1.77D-06    CP:  1.00D+00  1.12D+00  1.21D+00  1.11D+00
 E= -557.278948653559     Delta-E=       -0.000000024005 Rises=F Damp=F
 DIIS: error= 1.11D-06 at cycle   5 NSaved=   5.
 NSaved= 5 IEnMin= 5 EnMin= -557.278948653559     IErMin= 5 ErrMin= 1.11D-06
 ErrMax= 1.11D-06  0.00D+00 EMaxC= 1.00D-01 BMatC= 7.82D-10 BMatP= 2.24D-08
 IDIUse=1 WtCom= 1.00D+00 WtEn= 0.00D+00
 Coeff-Com:  0.287D-02-0.468D-01 0.490D-01 0.226D+00 0.768D+00
 Coeff:      0.287D-02-0.468D-01 0.490D-01 0.226D+00 0.768D+00
 Gap=     0.297 Goal=   None    Shift=    0.000
 RMSDP=7.91D-07 MaxDP=2.71D-05 DE=-2.40D-08 OVMax= 1.02D-05

 Cycle   6  Pass 1  IDiag  1:
 RMSU=  7.40D-07    CP:  1.00D+00  1.12D+00  1.21D+00  1.15D+00  1.09D+00
 E= -557.278948654699     Delta-E=       -0.000000001140 Rises=F Damp=F
 DIIS: error= 4.40D-07 at cycle   6 NSaved=   6.
 NSaved= 6 IEnMin= 6 EnMin= -557.278948654699     IErMin= 6 ErrMin= 4.40D-07
 ErrMax= 4.40D-07  0.00D+00 EMaxC= 1.00D-01 BMatC= 1.25D-10 BMatP= 7.82D-10
 IDIUse=1 WtCom= 1.00D+00 WtEn= 0.00D+00
 Coeff-Com:  0.633D-03-0.114D-02-0.273D-01-0.409D-01 0.247D+00 0.822D+00
 Coeff:      0.633D-03-0.114D-02-0.273D-01-0.409D-01 0.247D+00 0.822D+00
 Gap=     0.297 Goal=   None    Shift=    0.000
 RMSDP=3.83D-07 MaxDP=1.66D-05 DE=-1.14D-09 OVMax= 5.32D-06

 Cycle   7  Pass 1  IDiag  1:
 RMSU=  1.80D-07    CP:  1.00D+00  1.12D+00  1.22D+00  1.19D+00  1.20D+00
                    CP:  1.20D+00
 E= -557.278948654930     Delta-E=       -0.000000000231 Rises=F Damp=F
 DIIS: error= 2.35D-07 at cycle   7 NSaved=   7.
 NSaved= 7 IEnMin= 7 EnMin= -557.278948654930     IErMin= 7 ErrMin= 2.35D-07
 ErrMax= 2.35D-07  0.00D+00 EMaxC= 1.00D-01 BMatC= 9.71D-12 BMatP= 1.25D-10
 IDIUse=1 WtCom= 1.00D+00 WtEn= 0.00D+00
 Coeff-Com: -0.183D-03 0.517D-02-0.115D-01-0.348D-01-0.344D-01 0.176D+00
 Coeff-Com:  0.900D+00
 Coeff:     -0.183D-03 0.517D-02-0.115D-01-0.348D-01-0.344D-01 0.176D+00
 Coeff:      0.900D+00
 Gap=     0.297 Goal=   None    Shift=    0.000
 RMSDP=1.11D-07 MaxDP=3.29D-06 DE=-2.31D-10 OVMax= 2.12D-06

 Cycle   8  Pass 1  IDiag  1:
 RMSU=  5.08D-08    CP:  1.00D+00  1.12D+00  1.22D+00  1.19D+00  1.24D+00
                    CP:  1.30D+00  1.10D+00
 E= -557.278948654959     Delta-E=       -0.000000000029 Rises=F Damp=F
 DIIS: error= 7.75D-08 at cycle   8 NSaved=   8.
 NSaved= 8 IEnMin= 8 EnMin= -557.278948654959     IErMin= 8 ErrMin= 7.75D-08
 ErrMax= 7.75D-08  0.00D+00 EMaxC= 1.00D-01 BMatC= 1.81D-12 BMatP= 9.71D-12
 IDIUse=1 WtCom= 1.00D+00 WtEn= 0.00D+00
 Coeff-Com: -0.120D-03 0.195D-02-0.165D-02-0.869D-02-0.353D-01-0.121D-01
 Coeff-Com:  0.339D+00 0.717D+00
 Coeff:     -0.120D-03 0.195D-02-0.165D-02-0.869D-02-0.353D-01-0.121D-01
 Coeff:      0.339D+00 0.717D+00
 Gap=     0.297 Goal=   None    Shift=    0.000
 RMSDP=3.53D-08 MaxDP=1.86D-06 DE=-2.88D-11 OVMax= 7.35D-07

 Cycle   9  Pass 1  IDiag  1:
 RMSU=  1.85D-08    CP:  1.00D+00  1.12D+00  1.21D+00  1.19D+00  1.24D+00
                    CP:  1.32D+00  1.16D+00  9.71D-01
 E= -557.278948654949     Delta-E=        0.000000000009 Rises=F Damp=F
 DIIS: error= 4.04D-08 at cycle   9 NSaved=   9.
 NSaved= 9 IEnMin= 8 EnMin= -557.278948654959     IErMin= 9 ErrMin= 4.04D-08
 ErrMax= 4.04D-08  0.00D+00 EMaxC= 1.00D-01 BMatC= 1.78D-13 BMatP= 1.81D-12
 IDIUse=1 WtCom= 1.00D+00 WtEn= 0.00D+00
 Coeff-Com:  0.110D-04-0.580D-03 0.181D-02 0.481D-02-0.626D-03-0.367D-01
 Coeff-Com: -0.931D-01 0.123D+00 0.100D+01
 Coeff:      0.110D-04-0.580D-03 0.181D-02 0.481D-02-0.626D-03-0.367D-01
 Coeff:     -0.931D-01 0.123D+00 0.100D+01
 Gap=     0.297 Goal=   None    Shift=    0.000
 RMSDP=1.67D-08 MaxDP=4.58D-07 DE= 9.32D-12 OVMax= 4.94D-07

 Cycle  10  Pass 1  IDiag  1:
 RMSU=  7.81D-09    CP:  1.00D+00  1.12D+00  1.21D+00  1.19D+00  1.23D+00
                    CP:  1.32D+00  1.19D+00  1.14D+00  1.21D+00
 E= -557.278948654954     Delta-E=       -0.000000000005 Rises=F Damp=F
 DIIS: error= 1.71D-08 at cycle  10 NSaved=  10.
 NSaved=10 IEnMin= 8 EnMin= -557.278948654959     IErMin=10 ErrMin= 1.71D-08
 ErrMax= 1.71D-08  0.00D+00 EMaxC= 1.00D-01 BMatC= 3.54D-14 BMatP= 1.78D-13
 IDIUse=1 WtCom= 1.00D+00 WtEn= 0.00D+00
 Coeff-Com:  0.156D-04-0.415D-03 0.885D-03 0.274D-02 0.284D-02-0.141D-01
 Coeff-Com: -0.646D-01-0.167D-01 0.386D+00 0.704D+00
 Coeff:      0.156D-04-0.415D-03 0.885D-03 0.274D-02 0.284D-02-0.141D-01
 Coeff:     -0.646D-01-0.167D-01 0.386D+00 0.704D+00
 Gap=     0.297 Goal=   None    Shift=    0.000
 RMSDP=5.27D-09 MaxDP=1.82D-07 DE=-4.66D-12 OVMax= 1.70D-07

 Error on total polarization charges =  0.04778
 SCF Done:  E(RwB97XD) =  -557.278948655     A.U. after   10 cycles
            NFock= 10  Conv=0.53D-08     -V/T= 2.0095
 KE= 5.520125927978D+02 PE=-2.793220018448D+03 EE= 9.263274145275D+02
 SMD-CDS (non-electrostatic) energy       (kcal/mol) =      -0.30
 (included in total energy above)
 Leave Link  502 at Wed Jul  8 17:48:58 2026, MaxMem=  4026531840 cpu:             207.5 elap:              26.4
 (Enter /opt/packages/gaussian/g16RevC.01/g16/l701.exe)
 ... and contract with generalized density number  0.
 Compute integral first derivatives.
 R6Disp: Adding Grimme-D2 dispersion energy 1st derivatives to the gradient.
 D1PCM: PCM CHGder 1st derivatives, ID1Alg=3 FixD1E=F DoIter=F DoCFld=F I1PDM=0.
 GePol: Maximum number of non-zero 1st derivatives   =     259
 Leave Link  701 at Wed Jul  8 17:49:00 2026, MaxMem=  4026531840 cpu:               6.5 elap:               1.1
 (Enter /opt/packages/gaussian/g16RevC.01/g16/l702.exe)
 L702 exits ... SP integral derivatives will be done elsewhere.
 Leave Link  702 at Wed Jul  8 17:49:00 2026, MaxMem=  4026531840 cpu:               0.1 elap:               0.0
 (Enter /opt/packages/gaussian/g16RevC.01/g16/l703.exe)
 Integral derivatives from FoFJK, PRISM(SPDF).
 Compute integral first derivatives, UseDBF=F ICtDFT=           0.
 Calling FoFJK, ICntrl=      2127 FMM=F ISym2X=0 I1Cent= 0 IOpClX= 0 NMat=1 NMatS=1 NMatT=0.
 FoFJK:  IHMeth= 1 ICntrl=    2127 DoSepK=T KAlg= 0 I1Cent=           0 FoldK=F
 IRaf=         1 NMat=       1 IRICut=       1 DoRegI=T DoRafI=F ISym2E= 0 IDoP0=0 IntGTp=1.
 FoFCou: FMM=F IPFlag=           0 FMFlag=      100000 FMFlg1=         800
         NFxFlg=           0 DoJE=F BraDBF=F KetDBF=F FulRan=T
         wScrn=  0.000000 ICntrl=      2527 IOpCl=  0 I1Cent=           0 NGrid=           0
         NMat0=    1 NMatS0=      1 NMatT0=    0 NMatD0=    1 NMtDS0=    0 NMtDT0=    0
 Symmetry not used in FoFCou.
 Leave Link  703 at Wed Jul  8 17:49:09 2026, MaxMem=  4026531840 cpu:              64.5 elap:               8.3
 (Enter /opt/packages/gaussian/g16RevC.01/g16/l716.exe)
 Dipole        = 2.86086137D+00-1.51840763D-01 1.52038363D-01
 ***** Axes restored to original set *****
 -------------------------------------------------------------------
 Center     Atomic                   Forces (Hartrees/Bohr)
 Number     Number              X              Y              Z
 -------------------------------------------------------------------
      1        6          -0.000194555    0.000085001   -0.000032158
      2        6           0.000010754    0.000078663    0.000006133
      3        6          -0.000011443    0.000066130    0.000007579
      4        6          -0.000020464    0.000014803    0.000025193
      5        6          -0.000033037   -0.000054048   -0.000019279
      6        6           0.000081512   -0.000101746    0.000011660
      7        1           0.000004509   -0.000003685    0.000002829
      8        1          -0.000026115    0.000014886    0.000010172
      9        1           0.000002509    0.000019172   -0.000009477
     10        1          -0.000009922   -0.000017045   -0.000005788
     11        8           0.000155530   -0.000113205    0.000033127
     12        6           0.000083991    0.000047846    0.000006020
     13        1           0.000013894    0.000000503   -0.000006842
     14        1           0.000005998    0.000001876    0.000026619
     15        1           0.000015691    0.000012969    0.000007033
     16        6          -0.000023224   -0.000007979   -0.000051313
     17        6          -0.000027539   -0.000023642    0.000080069
     18        7           0.000035106   -0.000101633    0.000021741
     19        6          -0.000022691    0.000080368    0.000017628
     20        6           0.000038581   -0.000037343   -0.000065526
     21        1          -0.000044490    0.000029347   -0.000011023
     22        1           0.000015013   -0.000014752   -0.000044798
     23        1           0.000014240   -0.000000125   -0.000021135
     24        1          -0.000003035   -0.000016261   -0.000011961
     25        1          -0.000006754   -0.000017333    0.000017701
     26        1          -0.000021142    0.000015412    0.000000720
     27        1          -0.000032917    0.000041821    0.000005077
 -------------------------------------------------------------------
 Cartesian Forces:  Max     0.000194555 RMS     0.000046985
 Leave Link  716 at Wed Jul  8 17:49:11 2026, MaxMem=  4026531840 cpu:               0.1 elap:               0.1
 (Enter /opt/packages/gaussian/g16RevC.01/g16/l103.exe)

 GradGradGradGradGradGradGradGradGradGradGradGradGradGradGradGradGradGrad
 Berny optimization.
 Using GEDIIS/GDIIS optimizer.
 FormGI is forming the generalized inverse of G from B-inverse, IUseBI=4.
 GSVD:  received Info=                   1 from GESDD.
 Internal  Forces:  Max     0.000284944 RMS     0.000042302
 Search for a local minimum.
 Step number   3 out of a maximum of  154
 All quantities printed in internal units (Hartrees-Bohrs-Radians)
 RMS Force = .42302D-04 SwitMx=.10000D-02 MixMth= 2
 Mixed Optimization -- En-DIIS/RFO-DIIS
 Swapping is turned off.
 Update second derivatives using D2CorX and points    1    2    3
 DE= -2.83D-06 DEPred=-2.89D-06 R= 9.81D-01
 TightC=F SS=  1.41D+00  RLast= 1.11D-02 DXNew= 5.0454D-01 3.3438D-02
 Trust test= 9.81D-01 RLast= 1.11D-02 DXMaxT set to 3.00D-01
 ITU=  1  1  0
     Eigenvalues ---    0.00432   0.01123   0.01289   0.01357   0.01365
     Eigenvalues ---    0.01846   0.01848   0.02022   0.02102   0.02137
     Eigenvalues ---    0.02155   0.02180   0.02195   0.02214   0.02272
     Eigenvalues ---    0.02396   0.03326   0.03628   0.04954   0.05225
     Eigenvalues ---    0.05606   0.05879   0.06919   0.07511   0.08336
     Eigenvalues ---    0.08459   0.09405   0.10122   0.10710   0.10985
     Eigenvalues ---    0.15660   0.15961   0.16000   0.16000   0.16000
     Eigenvalues ---    0.16000   0.16028   0.16288   0.21540   0.21862
     Eigenvalues ---    0.22564   0.22677   0.23906   0.24871   0.24992
     Eigenvalues ---    0.25159   0.27530   0.28255   0.31064   0.32068
     Eigenvalues ---    0.33990   0.34317   0.34340   0.34350   0.34426
     Eigenvalues ---    0.34654   0.34708   0.34715   0.34776   0.35125
     Eigenvalues ---    0.35371   0.35408   0.35529   0.36130   0.38727
     Eigenvalues ---    0.39687   0.42119   0.43759   0.44905   0.45223
     Eigenvalues ---    0.46027   0.46846   0.49432   0.55651   0.63945
 En-DIIS/RFO-DIIS/Sim-DIIS IScMMF=       -3 using points:     3    2    1
 RFO step:  Lambda=-9.21624597D-07.
 NNeg= 0 NGDIIS= 3 SimSw=  2.50D-03 Rises=F DC= -2.83D-06 SmlDif=  1.00D-05
 NRisDI= 0 DoIntr=F SqrtH=F CThrHd= 10.0 CDAdj=  3.0
 RMS Error=  0.5501455908D-03 NUsed= 3 OKEnD=F EnDIS=F
 InvSVX:  RCond= 1.33D-05 Info=           0 Equed=N FErr=  3.49D-15 BErr=  5.03D-17
 DidBck=F Rises=F RFO-DIIS coefs:    1.49188   -0.49586    0.00398
 Iteration  1 RMS(Cart)=  0.00100457 RMS(Int)=  0.00000038
 Iteration  2 RMS(Cart)=  0.00000054 RMS(Int)=  0.00000011
 ITry= 1 IFail=0 DXMaxC= 3.76D-03 DCOld= 1.00D+10 DXMaxT= 3.00D-01 DXLimC= 3.00D+00 Rises=F
 Variable       Old X    -DE/DX   Delta X   Delta X   Delta X     New X
                                 (Linear)    (Quad)   (Total)
    R1        2.64590  -0.00012   0.00011  -0.00029  -0.00017   2.64572
    R2        2.65829  -0.00008   0.00014  -0.00024  -0.00010   2.65819
    R3        2.54040  -0.00028  -0.00026  -0.00037  -0.00063   2.53977
    R4        2.62200  -0.00007   0.00002  -0.00014  -0.00012   2.62187
    R5        2.04794   0.00000  -0.00008   0.00008  -0.00000   2.04794
    R6        2.65227  -0.00011  -0.00007  -0.00015  -0.00022   2.65205
    R7        2.05047  -0.00002  -0.00008   0.00002  -0.00005   2.05042
    R8        2.66852  -0.00008  -0.00042   0.00012  -0.00030   2.66822
    R9        2.73538  -0.00008  -0.00016  -0.00006  -0.00022   2.73516
   R10        2.60310  -0.00008   0.00007  -0.00016  -0.00010   2.60300
   R11        2.05186  -0.00002   0.00004  -0.00008  -0.00003   2.05182
   R12        2.05147  -0.00001  -0.00005   0.00003  -0.00003   2.05145
   R13        2.69935  -0.00011   0.00002  -0.00031  -0.00029   2.69906
   R14        2.06879  -0.00001   0.00001  -0.00002  -0.00001   2.06878
   R15        2.06884  -0.00001   0.00000  -0.00002  -0.00002   2.06882
   R16        2.05987  -0.00001   0.00008  -0.00008  -0.00000   2.05986
   R17        2.83932  -0.00003   0.00011  -0.00018  -0.00007   2.83925
   R18        2.45739  -0.00004  -0.00012   0.00002  -0.00009   2.45730
   R19        2.90616   0.00003   0.00024  -0.00003   0.00021   2.90637
   R20        2.06326  -0.00000  -0.00002   0.00002   0.00000   2.06327
   R21        2.07450  -0.00003  -0.00003  -0.00007  -0.00010   2.07439
   R22        2.77498  -0.00003   0.00002  -0.00014  -0.00011   2.77486
   R23        1.91902   0.00005   0.00004   0.00006   0.00010   1.91912
   R24        2.89306   0.00005   0.00006   0.00019   0.00025   2.89331
   R25        2.06821  -0.00001   0.00002  -0.00003  -0.00001   2.06820
   R26        2.06158  -0.00001   0.00001  -0.00002  -0.00001   2.06156
   R27        2.06651  -0.00002  -0.00007  -0.00002  -0.00008   2.06642
   R28        2.06152  -0.00002   0.00001  -0.00006  -0.00005   2.06147
    A1        2.09539  -0.00000  -0.00044   0.00027  -0.00018   2.09521
    A2        2.16957  -0.00014   0.00040  -0.00080  -0.00039   2.16917
    A3        2.01823   0.00015   0.00004   0.00053   0.00057   2.01880
    A4        2.08111   0.00001   0.00009  -0.00003   0.00006   2.08118
    A5        2.11954  -0.00003   0.00024  -0.00032  -0.00008   2.11946
    A6        2.08253   0.00002  -0.00033   0.00034   0.00002   2.08255
    A7        2.11997  -0.00000   0.00009  -0.00008   0.00001   2.11998
    A8        2.06335   0.00001  -0.00028   0.00024  -0.00004   2.06331
    A9        2.09986  -0.00001   0.00019  -0.00017   0.00002   2.09988
   A10        2.06695   0.00000   0.00004  -0.00001   0.00003   2.06699
   A11        2.07750  -0.00004   0.00021  -0.00031  -0.00010   2.07740
   A12        2.13871   0.00003  -0.00025   0.00032   0.00007   2.13879
   A13        2.10533  -0.00001  -0.00013   0.00006  -0.00007   2.10525
   A14        2.11905   0.00000  -0.00009   0.00011   0.00002   2.11907
   A15        2.05881   0.00000   0.00022  -0.00017   0.00005   2.05886
   A16        2.09759   0.00000   0.00036  -0.00022   0.00014   2.09773
   A17        2.07659  -0.00000  -0.00004   0.00003  -0.00001   2.07658
   A18        2.10901  -0.00000  -0.00032   0.00019  -0.00013   2.10888
   A19        2.07591  -0.00019   0.00103  -0.00147  -0.00044   2.07546
   A20        1.93217  -0.00000   0.00002  -0.00004  -0.00002   1.93215
   A21        1.93159  -0.00000   0.00004  -0.00004  -0.00000   1.93159
   A22        1.84043  -0.00001   0.00086  -0.00063   0.00022   1.84065
   A23        1.92723  -0.00001  -0.00016  -0.00001  -0.00017   1.92706
   A24        1.91540   0.00002  -0.00036   0.00037   0.00002   1.91541
   A25        1.91519   0.00001  -0.00037   0.00034  -0.00004   1.91516
   A26        2.19233  -0.00002   0.00038  -0.00035   0.00003   2.19236
   A27        2.18205  -0.00001  -0.00036   0.00020  -0.00015   2.18190
   A28        1.90841   0.00003  -0.00002   0.00015   0.00013   1.90854
   A29        1.81060  -0.00002   0.00019  -0.00017   0.00001   1.81062
   A30        1.95319  -0.00002  -0.00029  -0.00034  -0.00063   1.95257
   A31        1.87902   0.00002   0.00006   0.00029   0.00035   1.87937
   A32        1.97577   0.00002  -0.00021   0.00029   0.00007   1.97585
   A33        1.96407   0.00001  -0.00003   0.00010   0.00006   1.96414
   A34        1.87967  -0.00001   0.00028  -0.00016   0.00012   1.87979
   A35        2.00804   0.00002   0.00011   0.00004   0.00015   2.00818
   A36        2.16574  -0.00003  -0.00017  -0.00002  -0.00019   2.16555
   A37        2.10690   0.00001   0.00005   0.00001   0.00007   2.10697
   A38        1.78435  -0.00003   0.00018  -0.00011   0.00007   1.78442
   A39        1.88990   0.00002   0.00028  -0.00013   0.00016   1.89006
   A40        1.91097   0.00001   0.00038  -0.00023   0.00015   1.91112
   A41        1.97532   0.00001  -0.00048   0.00032  -0.00016   1.97516
   A42        1.99302   0.00000  -0.00034   0.00014  -0.00020   1.99283
   A43        1.90404  -0.00000   0.00004  -0.00003   0.00001   1.90406
   A44        1.81876  -0.00000  -0.00003   0.00013   0.00010   1.81886
   A45        1.91709  -0.00000  -0.00012   0.00005  -0.00007   1.91702
   A46        1.96112  -0.00000   0.00010  -0.00019  -0.00008   1.96103
   A47        1.91856   0.00000  -0.00017   0.00027   0.00010   1.91866
   A48        1.95336   0.00000  -0.00003  -0.00015  -0.00018   1.95318
   A49        1.89417   0.00000   0.00022  -0.00009   0.00013   1.89430
    D1       -0.00669  -0.00000  -0.00021   0.00009  -0.00012  -0.00681
    D2        3.13771  -0.00000  -0.00010  -0.00003  -0.00013   3.13758
    D3        3.13542   0.00001  -0.00043   0.00054   0.00011   3.13554
    D4       -0.00337   0.00000  -0.00031   0.00041   0.00010  -0.00327
    D5        0.00309   0.00000   0.00019  -0.00011   0.00009   0.00318
    D6       -3.13841   0.00000   0.00005  -0.00003   0.00001  -3.13840
    D7       -3.13898  -0.00001   0.00039  -0.00052  -0.00013  -3.13910
    D8        0.00271  -0.00001   0.00024  -0.00044  -0.00020   0.00250
    D9       -0.00469  -0.00001  -0.00015  -0.00027  -0.00043  -0.00512
   D10        3.13740  -0.00000  -0.00036   0.00015  -0.00021   3.13719
   D11        0.00350   0.00000   0.00013   0.00010   0.00022   0.00372
   D12        3.13999   0.00001   0.00009   0.00015   0.00024   3.14024
   D13       -3.14083   0.00000   0.00002   0.00022   0.00023  -3.14060
   D14       -0.00434   0.00001  -0.00002   0.00028   0.00026  -0.00409
   D15        0.00321  -0.00001  -0.00002  -0.00027  -0.00029   0.00293
   D16        3.13940   0.00000   0.00014   0.00001   0.00016   3.13956
   D17       -3.13317  -0.00001   0.00002  -0.00033  -0.00031  -3.13348
   D18        0.00302   0.00000   0.00018  -0.00005   0.00013   0.00315
   D19       -0.00688   0.00001  -0.00000   0.00025   0.00025  -0.00663
   D20        3.13550   0.00001  -0.00006   0.00031   0.00024   3.13574
   D21        3.14032  -0.00000  -0.00017  -0.00004  -0.00021   3.14011
   D22       -0.00049  -0.00000  -0.00023   0.00002  -0.00021  -0.00070
   D23        0.00425   0.00001   0.00120   0.00002   0.00123   0.00547
   D24       -3.10406   0.00001   0.00090   0.00011   0.00101  -3.10305
   D25        3.14020   0.00002   0.00137   0.00031   0.00169  -3.14130
   D26        0.03189   0.00002   0.00107   0.00040   0.00147   0.03336
   D27        0.00379  -0.00000  -0.00008  -0.00007  -0.00015   0.00363
   D28       -3.13790  -0.00000   0.00007  -0.00014  -0.00008  -3.13798
   D29       -3.13857  -0.00000  -0.00003  -0.00012  -0.00015  -3.13872
   D30        0.00293  -0.00000   0.00012  -0.00020  -0.00007   0.00286
   D31        1.07262  -0.00001   0.00017  -0.00017  -0.00000   1.07262
   D32       -1.07017   0.00001   0.00032  -0.00010   0.00023  -1.06994
   D33       -3.14009   0.00000   0.00025  -0.00011   0.00014  -3.13995
   D34        2.93791  -0.00001   0.00044  -0.00035   0.00009   2.93800
   D35        0.80199  -0.00001   0.00073  -0.00040   0.00033   0.80232
   D36       -1.26025  -0.00000   0.00052  -0.00020   0.00033  -1.25992
   D37       -0.23257  -0.00001   0.00069  -0.00043   0.00027  -0.23230
   D38       -2.36849  -0.00001   0.00099  -0.00048   0.00051  -2.36797
   D39        1.85246  -0.00001   0.00078  -0.00027   0.00051   1.85297
   D40        3.08910   0.00000   0.00009   0.00052   0.00061   3.08971
   D41        0.02330   0.00000   0.00011   0.00008   0.00019   0.02349
   D42       -0.02381   0.00001  -0.00018   0.00060   0.00042  -0.02339
   D43       -3.08961   0.00000  -0.00016   0.00016   0.00001  -3.08961
   D44        0.37991   0.00001  -0.00094   0.00011  -0.00082   0.37908
   D45       -1.67463   0.00001  -0.00066  -0.00030  -0.00096  -1.67559
   D46        2.49821   0.00001  -0.00093  -0.00009  -0.00102   2.49718
   D47        2.50079  -0.00003  -0.00128  -0.00026  -0.00154   2.49925
   D48        0.44625  -0.00003  -0.00101  -0.00066  -0.00167   0.44458
   D49       -1.66410  -0.00003  -0.00128  -0.00046  -0.00174  -1.66583
   D50       -1.64600  -0.00001  -0.00110  -0.00017  -0.00127  -1.64727
   D51        2.58265  -0.00001  -0.00083  -0.00058  -0.00141   2.58124
   D52        0.47230  -0.00001  -0.00109  -0.00038  -0.00147   0.47083
   D53        0.26900  -0.00000  -0.00040  -0.00052  -0.00093   0.26807
   D54       -1.82055  -0.00000  -0.00007  -0.00078  -0.00085  -1.82139
   D55        2.38847  -0.00001  -0.00051  -0.00053  -0.00104   2.38743
   D56       -2.94560  -0.00000  -0.00043  -0.00011  -0.00054  -2.94614
   D57        1.24804  -0.00000  -0.00011  -0.00036  -0.00046   1.24758
   D58       -0.82613  -0.00001  -0.00054  -0.00011  -0.00065  -0.82678
   D59       -0.38498  -0.00000   0.00084   0.00018   0.00102  -0.38396
   D60        1.66854  -0.00000   0.00060   0.00044   0.00103   1.66957
   D61       -2.50843   0.00000   0.00075   0.00041   0.00115  -2.50727
   D62        1.64369   0.00000   0.00106   0.00011   0.00117   1.64486
   D63       -2.58597   0.00000   0.00082   0.00037   0.00119  -2.58479
   D64       -0.47976   0.00001   0.00097   0.00034   0.00131  -0.47845
   D65       -2.44698   0.00000   0.00042   0.00046   0.00088  -2.44610
   D66       -0.39346  -0.00000   0.00018   0.00072   0.00090  -0.39256
   D67        1.71275   0.00001   0.00033   0.00069   0.00102   1.71377
         Item               Value     Threshold  Converged?
 Maximum Force            0.000285     0.000450     YES
 RMS     Force            0.000042     0.000300     YES
 Maximum Displacement     0.003757     0.001800     NO 
 RMS     Displacement     0.001005     0.001200     YES
 Predicted change in Energy=-4.608412D-07
 Lowest energy point so far.  Saving SCF results.
 GradGradGradGradGradGradGradGradGradGradGradGradGradGradGradGradGradGrad

 Leave Link  103 at Wed Jul  8 17:49:13 2026, MaxMem=  4026531840 cpu:               1.5 elap:               0.5
 (Enter /opt/packages/gaussian/g16RevC.01/g16/l202.exe)
                          Input orientation:                          
 ---------------------------------------------------------------------
 Center     Atomic      Atomic             Coordinates (Angstroms)
 Number     Number       Type             X           Y           Z
 ---------------------------------------------------------------------
      1          6           0       -2.479885    0.266536   -0.011699
      2          6           0       -1.847746   -0.981573    0.041069
      3          6           0       -0.461542   -1.039430    0.049350
      4          6           0        0.320520    0.125223    0.010473
      5          6           0       -0.335898    1.374522   -0.034256
      6          6           0       -1.711521    1.444256   -0.047327
      7          1           0       -2.219657    2.402826   -0.085055
      8          1           0       -2.417567   -1.902846    0.072979
      9          1           0        0.010983   -2.015246    0.091810
     10          1           0        0.221381    2.306020   -0.060067
     11          8           0       -3.812488    0.440022   -0.031117
     12          6           0       -4.659109   -0.709943   -0.002783
     13          1           0       -4.503800   -1.282322    0.917402
     14          1           0       -4.482795   -1.341361   -0.879570
     15          1           0       -5.677392   -0.321801   -0.027593
     16          6           0        1.762715    0.003492    0.023904
     17          6           0        2.531441   -1.286590    0.070328
     18          7           0        2.595700    1.001970    0.032636
     19          6           0        4.013442    0.628511    0.114591
     20          6           0        3.977414   -0.861452   -0.235971
     21          1           0        2.139317   -2.019468   -0.637647
     22          1           0        2.420564   -1.704609    1.079267
     23          1           0        4.361467    0.822747    1.133882
     24          1           0        4.591307    1.237615   -0.581969
     25          1           0        4.187133   -0.999156   -1.300305
     26          1           0        4.708328   -1.432495    0.338221
     27          1           0        2.314328    1.977604    0.050647
 ---------------------------------------------------------------------
                    Distance matrix (angstroms):
                    1          2          3          4          5
     1  C    0.000000
     2  C    1.400057   0.000000
     3  C    2.404782   1.387436   0.000000
     4  C    2.804056   2.434607   1.403406   0.000000
     5  C    2.413467   2.800454   2.418665   1.411962   0.000000
     6  C    1.406655   2.431259   2.782173   2.423299   1.377451
     7  H    2.153331   3.407108   3.867578   3.413079   2.146751
     8  H    2.171928   1.083724   2.138242   3.407945   3.884068
     9  H    3.379595   2.127423   1.085035   2.164263   3.409802
    10  H    3.385066   3.885844   3.416195   2.184189   1.085778
    11  O    1.343989   2.426180   3.663889   4.145188   3.599997
    12  C    2.388014   2.824794   4.210801   5.049196   4.799598
    13  H    2.712642   2.813011   4.141541   5.106640   5.033477
    14  H    2.711122   2.814339   4.138179   5.100478   5.028651
    15  H    3.251223   3.886670   5.265549   6.014668   5.604384
    16  C    4.250895   3.742470   2.456757   1.447385   2.507446
    17  C    5.247124   4.389894   3.003244   2.623922   3.913322
    18  N    5.128781   4.866080   3.676184   2.438365   2.955933
    19  C    6.504634   6.078758   4.776166   3.728513   4.415364
    20  C    6.558915   5.832982   4.451676   3.795673   4.862605
    21  H    5.191786   4.175471   2.863024   2.885789   4.243812
    22  H    5.393516   4.451866   3.132048   2.983419   4.280078
    23  H    6.958866   6.557755   5.282550   4.251805   4.871780
    24  H    7.160305   6.839180   5.578063   4.452867   4.959444
    25  H    6.907359   6.182181   4.840803   4.234744   5.262608
    26  H    7.394562   6.578278   5.192832   4.667629   5.784661
    27  H    5.090788   5.106827   4.099750   2.721801   2.719304
                    6          7          8          9         10
     6  C    0.000000
     7  H    1.085579   0.000000
     8  H    3.422875   4.313115   0.000000
     9  H    3.867109   4.952414   2.431222   0.000000
    10  H    2.116343   2.443085   4.969537   4.329050   0.000000
    11  O    2.328693   2.528363   2.728676   4.545589   4.444646
    12  C    3.651142   3.955632   2.540329   4.850002   5.737464
    13  H    4.020169   4.450005   2.334625   4.647801   6.013234
    14  H    4.016498   4.446570   2.342601   4.646691   6.008680
    15  H    4.341369   4.402593   3.624401   5.936297   6.457710
    16  C    3.761807   4.650588   4.594702   2.673664   2.772075
    17  C    5.047186   6.017381   4.987229   2.623758   4.273199
    18  N    4.330608   5.016365   5.794172   3.973394   2.710449
    19  C    5.785054   6.483793   6.911394   4.796837   4.150213
    20  C    6.141324   7.005853   6.486581   4.143822   4.916463
    21  H    5.212946   6.233995   4.613434   2.249873   4.766752
    22  H    5.315890   6.305420   4.945646   2.622526   4.713771
    23  H    6.217934   6.877038   7.383067   5.297814   4.556965
    24  H    6.328837   6.927762   7.708163   5.658132   4.528811
    25  H    6.506484   7.355085   6.806219   4.517815   5.309385
    26  H    7.045481   7.930059   7.146324   4.739764   5.853872
    27  H    4.062206   4.555903   6.119577   4.609766   2.121448
                   11         12         13         14         15
    11  O    0.000000
    12  C    1.428282   0.000000
    13  H    2.084244   1.094751   0.000000
    14  H    2.083868   1.094775   1.798065   0.000000
    15  H    2.014512   1.090033   1.786878   1.786738   0.000000
    16  C    5.592537   6.461387   6.459170   6.452231   7.447393
    17  C    6.575478   7.214005   7.086055   7.078475   8.265915
    18  N    6.433096   7.454137   7.510241   7.511885   8.378548
    19  C    7.829555   8.776011   8.765797   8.778085   9.738356
    20  C    7.900530   8.640999   8.569621   8.498216   9.672122
    21  H    6.468457   6.952445   6.862402   6.661135   8.022168
    22  H    6.684559   7.230626   6.939117   7.185078   8.289402
    23  H    8.265424   9.220192   9.114338   9.325145  10.170434
    24  H    8.459513   9.470937   9.556107   9.438168  10.401217
    25  H    8.226542   8.945569   8.973892   8.686873   9.969326
    26  H    8.731954   9.401449   9.231539   9.271896  10.451347
    27  H    6.317335   7.473593   7.606922   7.621136   8.316308
                   16         17         18         19         20
    16  C    0.000000
    17  C    1.502467   0.000000
    18  N    1.300346   2.289773   0.000000
    19  C    2.337658   2.421961   1.468393   0.000000
    20  C    2.391768   1.537986   2.335300   1.531071   0.000000
    21  H    2.161445   1.091833   3.128363   3.330165   2.209287
    22  H    2.112857   1.097721   2.907178   2.985181   2.205572
    23  H    2.942235   2.988218   2.088730   1.094442   2.204658
    24  H    3.145009   3.322673   2.101361   1.090933   2.214195
    25  H    2.938815   2.168541   2.883383   2.163654   1.093504
    26  H    3.292034   2.198156   3.237777   2.186463   1.090881
    27  H    2.049905   3.271466   1.015557   2.170514   3.302763
                   21         22         23         24         25
    21  H    0.000000
    22  H    1.768058   0.000000
    23  H    4.019261   3.187102   0.000000
    24  H    4.077248   4.016033   1.780193   0.000000
    25  H    2.381954   3.046440   3.045487   2.383802   0.000000
    26  H    2.810102   2.420136   2.416507   2.826647   1.773188
    27  H    4.059675   3.824662   2.588025   2.476373   3.767436
                   26         27
    26  H    0.000000
    27  H    4.176447   0.000000
 Stoichiometry    C11H14NO(1+)
 Framework group  C1[X(C11H14NO)]
 Deg. of freedom    75
 Full point group                 C1      NOp   1
 RotChk:  IX=0 Diff= 1.22D-04
 Largest Abelian subgroup         C1      NOp   1
 Largest concise Abelian subgroup C1      NOp   1
                         Standard orientation:                         
 ---------------------------------------------------------------------
 Center     Atomic      Atomic             Coordinates (Angstroms)
 Number     Number       Type             X           Y           Z
 ---------------------------------------------------------------------
      1          6           0       -2.479708    0.266028   -0.011060
      2          6           0       -1.847537   -0.982113    0.040538
      3          6           0       -0.461332   -1.039939    0.048798
      4          6           0        0.320700    0.124771    0.011045
      5          6           0       -0.335751    1.374094   -0.032513
      6          6           0       -1.711375    1.443803   -0.045551
      7          1           0       -2.219537    2.402395   -0.082380
      8          1           0       -2.417333   -1.903431    0.071559
      9          1           0        0.011219   -2.015783    0.090343
     10          1           0        0.221503    2.305631   -0.057425
     11          8           0       -3.812315    0.439496   -0.030346
     12          6           0       -4.658906   -0.710518   -0.003123
     13          1           0       -4.503604   -1.283766    0.916521
     14          1           0       -4.482553   -1.341098   -0.880506
     15          1           0       -5.677200   -0.322380   -0.027590
     16          6           0        1.762898    0.003066    0.024395
     17          6           0        2.531658   -1.287038    0.069613
     18          7           0        2.595856    1.001559    0.034097
     19          6           0        4.013605    0.628060    0.115731
     20          6           0        3.977627   -0.861570   -0.236247
     21          1           0        2.139570   -2.019254   -0.639067
     22          1           0        2.420767   -1.706018    1.078152
     23          1           0        4.361601    0.821338    1.135214
     24          1           0        4.591471    1.237842   -0.580237
     25          1           0        4.187375   -0.998258   -1.300706
     26          1           0        4.708542   -1.433138    0.337420
     27          1           0        2.314456    1.977168    0.053027
 ---------------------------------------------------------------------
 Rotational constants (GHZ):           2.8663166           0.3539792           0.3181283
 Leave Link  202 at Wed Jul  8 17:49:14 2026, MaxMem=  4026531840 cpu:               0.0 elap:               0.4
 (Enter /opt/packages/gaussian/g16RevC.01/g16/l301.exe)
 Standard basis: 6-31+G(d) (6D, 7F)
 Ernie: Thresh=  0.10000D-02 Tol=  0.10000D-05 Strict=F.
 There are   275 symmetry adapted cartesian basis functions of A   symmetry.
 There are   275 symmetry adapted basis functions of A   symmetry.
   275 basis functions,   472 primitive gaussians,   275 cartesian basis functions
    47 alpha electrons       47 beta electrons
       nuclear repulsion energy       757.6729311650 Hartrees.
 IExCor= 4639 DFT=T Ex+Corr=wB97XD ExCW=0 ScaHFX=  1.000000
 ScaDFX=  1.000000  1.000000  1.000000  1.000000 ScalE2=  1.000000  1.000000
 IRadAn=      5 IRanWt=     -1 IRanGd=            0 ICorTp=0 IEmpDi=121
 HFx  wShort=  0.000000 wLong=  0.200000 cFull=  0.222036 cShort=  0.000000 cLong=  0.777964
 DFx  wShort=  0.000000 wLong=  0.200000 cFull=  0.000000 cShort=  0.000000 cLong=  1.000000
 NAtoms=   27 NActive=   27 NUniq=   27 SFac= 1.00D+00 NAtFMM=   60 NAOKFM=F Big=F
 Integral buffers will be    131072 words long.
 Raffenetti 2 integral format.
 Two-electron integral symmetry is turned on.
 R6Disp:  Grimme-D2 Dispersion energy=       -0.0166019341 Hartrees.
 Nuclear repulsion after empirical dispersion term =      757.6563292309 Hartrees.
 ------------------------------------------------------------------------------
 Polarizable Continuum Model (PCM)
 =================================
 Model                : PCM.
 Atomic radii         : SMD-Coulomb.
 Polarization charges : Total charges.
 Charge compensation  : None.
 Solution method      : On-the-fly selection.
 Cavity type          : VdW (van der Waals Surface) (Alpha=1.000).
 Cavity algorithm     : GePol (No added spheres)
                        Default sphere list used, NSphG=   27.
                        Lebedev-Laikov grids with approx.  5.0 points / Ang**2.
                        Smoothing algorithm: York/Karplus (Gamma=1.0000).
                        Polarization charges: spherical gaussians, with
                                              point-specific exponents (IZeta= 3).
                        Self-potential: point-specific (ISelfS= 7).
                        Self-field    : sphere-specific E.n sum rule (ISelfD= 2).
 1st derivatives      : Analytical E(r).r(x)/FMM algorithm (CHGder, D1EAlg=3).
                        Cavity 1st derivative terms included.
 Solvent              : Methanol, Eps=  32.613000 Eps(inf)=   1.765709
 ------------------------------------------------------------------------------
 GePol: Number of generator spheres                  =      27
 GePol: Total number of spheres                      =      27
 GePol: Number of exposed spheres                    =      27 (100.00%)
 GePol: Number of points                             =    1978
 GePol: Average weight of points                     =       0.11
 GePol: Minimum weight of points                     =   0.49D-08
 GePol: Maximum weight of points                     =    0.21991
 GePol: Number of points with low weight             =     117
 GePol: Fraction of low-weight points (<1% of avg)   =       5.92%
 GePol: Cavity surface area                          =    215.104 Ang**2
 GePol: Cavity volume                                =    191.298 Ang**3
 ------------------------------------------------------------------------------
 Atomic radii for non-electrostatic terms: SMD-CDS.
 ------------------------------------------------------------------------------
 PCM non-electrostatic energy =        -0.0004811535 Hartrees.
 Nuclear repulsion after PCM non-electrostatic terms =      757.6558480774 Hartrees.
 Leave Link  301 at Wed Jul  8 17:49:16 2026, MaxMem=  4026531840 cpu:               4.6 elap:               1.1
 (Enter /opt/packages/gaussian/g16RevC.01/g16/l302.exe)
 NPDir=0 NMtPBC=     1 NCelOv=     1 NCel=       1 NClECP=     1 NCelD=      1
         NCelK=      1 NCelE2=     1 NClLst=     1 CellRange=     0.0.
 One-electron integrals computed using PRISM.
 One-electron integral symmetry used in STVInt
 NBasis=   275 RedAO= T EigKep=  2.09D-06  NBF=   275
 NBsUse=   273 1.00D-06 EigRej=  8.39D-07 NBFU=   273
 Precomputing XC quadrature grid using
 IXCGrd= 4 IRadAn=           5 IRanWt=          -1 IRanGd=           0 AccXCQ= 0.00D+00.
 Generated NRdTot=       0 NPtTot=           0 NUsed=           0 NTot=          32
 NSgBfM=   274   274   274   274   274 MxSgAt=    27 MxSgA2=    27.
 Leave Link  302 at Wed Jul  8 17:49:19 2026, MaxMem=  4026531840 cpu:               2.2 elap:               1.3
 (Enter /opt/packages/gaussian/g16RevC.01/g16/l303.exe)
 DipDrv:  MaxL=1.
 Leave Link  303 at Wed Jul  8 17:49:20 2026, MaxMem=  4026531840 cpu:               0.4 elap:               0.5
 (Enter /opt/packages/gaussian/g16RevC.01/g16/l401.exe)
 Initial guess from the checkpoint file:  "iminium_ground_opt_wb97.chk"
 B after Tr=     0.000000   -0.000000    0.000000
         Rot=    1.000000   -0.000023   -0.000000    0.000003 Ang=  -0.00 deg.
 Guess basis will be translated and rotated to current coordinates.
 JPrj=2 DoOrth=T DoCkMO=T.
 Leave Link  401 at Wed Jul  8 17:49:22 2026, MaxMem=  4026531840 cpu:               1.0 elap:               0.6
 (Enter /opt/packages/gaussian/g16RevC.01/g16/l502.exe)
 Integral symmetry usage will be decided dynamically.
 Closed shell SCF:
 Using DIIS extrapolation, IDIIS=  1040.
 NGot=  4026531840 LenX=  4026374748 LenY=  4026298682
 Requested convergence on RMS density matrix=1.00D-08 within 128 cycles.
 Requested convergence on MAX density matrix=1.00D-06.
 Requested convergence on             energy=1.00D-06.
 No special actions if energy rises.
 Fock matrices will be formed incrementally for  20 cycles.

 Cycle   1  Pass 1  IDiag  1:
 FoFJK:  IHMeth= 1 ICntrl=       0 DoSepK=T KAlg= 0 I1Cent=           0 FoldK=F
 IRaf=         1 NMat=       1 IRICut=       1 DoRegI=T DoRafI=F ISym2E= 0 IDoP0=0 IntGTp=1.
 FoFCou: FMM=F IPFlag=           0 FMFlag=      100000 FMFlg1=           0
         NFxFlg=           0 DoJE=T BraDBF=F KetDBF=F FulRan=T
         wScrn=  0.000000 ICntrl=       500 IOpCl=  0 I1Cent=           0 NGrid=           0
         NMat0=    1 NMatS0=      1 NMatT0=    0 NMatD0=    1 NMtDS0=    0 NMtDT0=    0
 Symmetry not used in FoFCou.
 Inv3:  Mode=1 IEnd=    11737452.
 Iteration    1 A*A^-1 deviation from unit magnitude is 3.33D-15 for     85.
 Iteration    1 A*A^-1 deviation from orthogonality  is 2.57D-15 for    784    699.
 Iteration    1 A^-1*A deviation from unit magnitude is 3.00D-15 for    227.
 Iteration    1 A^-1*A deviation from orthogonality  is 8.04D-14 for   1313   1221.
 E= -557.278945548997    
 DIIS: error= 1.10D-04 at cycle   1 NSaved=   1.
 NSaved= 1 IEnMin= 1 EnMin= -557.278945548997     IErMin= 1 ErrMin= 1.10D-04
 ErrMax= 1.10D-04  0.00D+00 EMaxC= 1.00D-01 BMatC= 2.61D-06 BMatP= 2.61D-06
 IDIUse=3 WtCom= 9.99D-01 WtEn= 1.10D-03
 Coeff-Com:  0.100D+01
 Coeff-En:   0.100D+01
 Coeff:      0.100D+01
 Gap=     0.562 Goal=   None    Shift=    0.000
 RMSDP=5.23D-05 MaxDP=2.27D-03              OVMax= 4.24D-04

 Cycle   2  Pass 1  IDiag  1:
 RMSU=  5.12D-05    CP:  1.00D+00
 E= -557.278948960067     Delta-E=       -0.000003411070 Rises=F Damp=F
 DIIS: error= 1.14D-05 at cycle   2 NSaved=   2.
 NSaved= 2 IEnMin= 2 EnMin= -557.278948960067     IErMin= 2 ErrMin= 1.14D-05
 ErrMax= 1.14D-05  0.00D+00 EMaxC= 1.00D-01 BMatC= 7.70D-08 BMatP= 2.61D-06
 IDIUse=1 WtCom= 1.00D+00 WtEn= 0.00D+00
 Coeff-Com: -0.889D-01 0.109D+01
 Coeff:     -0.889D-01 0.109D+01
 Gap=     0.298 Goal=   None    Shift=    0.000
 RMSDP=1.06D-05 MaxDP=3.42D-04 DE=-3.41D-06 OVMax= 9.22D-05

 Cycle   3  Pass 1  IDiag  1:
 RMSU=  7.84D-06    CP:  1.00D+00  1.14D+00
 E= -557.278949126616     Delta-E=       -0.000000166549 Rises=F Damp=F
 DIIS: error= 8.64D-06 at cycle   3 NSaved=   3.
 NSaved= 3 IEnMin= 3 EnMin= -557.278949126616     IErMin= 3 ErrMin= 8.64D-06
 ErrMax= 8.64D-06  0.00D+00 EMaxC= 1.00D-01 BMatC= 2.68D-08 BMatP= 7.70D-08
 IDIUse=1 WtCom= 1.00D+00 WtEn= 0.00D+00
 Coeff-Com: -0.513D-01 0.394D+00 0.657D+00
 Coeff:     -0.513D-01 0.394D+00 0.657D+00
 Gap=     0.298 Goal=   None    Shift=    0.000
 RMSDP=2.28D-06 MaxDP=6.27D-05 DE=-1.67D-07 OVMax= 4.00D-05

 Cycle   4  Pass 1  IDiag  1:
 RMSU=  2.08D-06    CP:  1.00D+00  1.15D+00  1.10D+00
 E= -557.278949149369     Delta-E=       -0.000000022753 Rises=F Damp=F
 DIIS: error= 3.81D-06 at cycle   4 NSaved=   4.
 NSaved= 4 IEnMin= 4 EnMin= -557.278949149369     IErMin= 4 ErrMin= 3.81D-06
 ErrMax= 3.81D-06  0.00D+00 EMaxC= 1.00D-01 BMatC= 4.53D-09 BMatP= 2.68D-08
 IDIUse=1 WtCom= 1.00D+00 WtEn= 0.00D+00
 Coeff-Com:  0.588D-03-0.895D-01 0.251D+00 0.838D+00
 Coeff:      0.588D-03-0.895D-01 0.251D+00 0.838D+00
 Gap=     0.298 Goal=   None    Shift=    0.000
 RMSDP=1.44D-06 MaxDP=5.47D-05 DE=-2.28D-08 OVMax= 1.67D-05

 Cycle   5  Pass 1  IDiag  1:
 RMSU=  8.92D-07    CP:  1.00D+00  1.15D+00  1.22D+00  1.24D+00
 E= -557.278949154549     Delta-E=       -0.000000005180 Rises=F Damp=F
 DIIS: error= 6.51D-07 at cycle   5 NSaved=   5.
 NSaved= 5 IEnMin= 5 EnMin= -557.278949154549     IErMin= 5 ErrMin= 6.51D-07
 ErrMax= 6.51D-07  0.00D+00 EMaxC= 1.00D-01 BMatC= 2.96D-10 BMatP= 4.53D-09
 IDIUse=1 WtCom= 1.00D+00 WtEn= 0.00D+00
 Coeff-Com:  0.358D-02-0.572D-01 0.411D-01 0.293D+00 0.719D+00
 Coeff:      0.358D-02-0.572D-01 0.411D-01 0.293D+00 0.719D+00
 Gap=     0.298 Goal=   None    Shift=    0.000
 RMSDP=3.94D-07 MaxDP=2.16D-05 DE=-5.18D-09 OVMax= 5.38D-06

 Cycle   6  Pass 1  IDiag  1:
 RMSU=  3.65D-07    CP:  1.00D+00  1.15D+00  1.23D+00  1.26D+00  1.10D+00
 E= -557.278949154936     Delta-E=       -0.000000000387 Rises=F Damp=F
 DIIS: error= 2.15D-07 at cycle   6 NSaved=   6.
 NSaved= 6 IEnMin= 6 EnMin= -557.278949154936     IErMin= 6 ErrMin= 2.15D-07
 ErrMax= 2.15D-07  0.00D+00 EMaxC= 1.00D-01 BMatC= 2.28D-11 BMatP= 2.96D-10
 IDIUse=1 WtCom= 1.00D+00 WtEn= 0.00D+00
 Coeff-Com:  0.706D-03-0.194D-02-0.234D-01-0.366D-01 0.151D+00 0.910D+00
 Coeff:      0.706D-03-0.194D-02-0.234D-01-0.366D-01 0.151D+00 0.910D+00
 Gap=     0.298 Goal=   None    Shift=    0.000
 RMSDP=2.04D-07 MaxDP=6.30D-06 DE=-3.87D-10 OVMax= 2.80D-06

 Cycle   7  Pass 1  IDiag  1:
 RMSU=  7.56D-08    CP:  1.00D+00  1.15D+00  1.23D+00  1.32D+00  1.24D+00
                    CP:  1.20D+00
 E= -557.278949154988     Delta-E=       -0.000000000052 Rises=F Damp=F
 DIIS: error= 9.16D-08 at cycle   7 NSaved=   7.
 NSaved= 7 IEnMin= 7 EnMin= -557.278949154988     IErMin= 7 ErrMin= 9.16D-08
 ErrMax= 9.16D-08  0.00D+00 EMaxC= 1.00D-01 BMatC= 2.46D-12 BMatP= 2.28D-11
 IDIUse=1 WtCom= 1.00D+00 WtEn= 0.00D+00
 Coeff-Com: -0.189D-03 0.572D-02-0.109D-01-0.404D-01-0.363D-01 0.235D+00
 Coeff-Com:  0.847D+00
 Coeff:     -0.189D-03 0.572D-02-0.109D-01-0.404D-01-0.363D-01 0.235D+00
 Coeff:      0.847D+00
 Gap=     0.298 Goal=   None    Shift=    0.000
 RMSDP=6.25D-08 MaxDP=3.02D-06 DE=-5.18D-11 OVMax= 1.01D-06

 Cycle   8  Pass 1  IDiag  1:
 RMSU=  2.42D-08    CP:  1.00D+00  1.15D+00  1.23D+00  1.32D+00  1.27D+00
                    CP:  1.30D+00  1.14D+00
 E= -557.278949155001     Delta-E=       -0.000000000013 Rises=F Damp=F
 DIIS: error= 2.17D-08 at cycle   8 NSaved=   8.
 NSaved= 8 IEnMin= 8 EnMin= -557.278949155001     IErMin= 8 ErrMin= 2.17D-08
 ErrMax= 2.17D-08  0.00D+00 EMaxC= 1.00D-01 BMatC= 2.11D-13 BMatP= 2.46D-12
 IDIUse=1 WtCom= 1.00D+00 WtEn= 0.00D+00
 Coeff-Com: -0.103D-03 0.146D-02-0.517D-03-0.520D-02-0.212D-01-0.291D-01
 Coeff-Com:  0.186D+00 0.869D+00
 Coeff:     -0.103D-03 0.146D-02-0.517D-03-0.520D-02-0.212D-01-0.291D-01
 Coeff:      0.186D+00 0.869D+00
 Gap=     0.298 Goal=   None    Shift=    0.000
 RMSDP=1.38D-08 MaxDP=4.68D-07 DE=-1.34D-11 OVMax= 3.26D-07

 Cycle   9  Pass 1  IDiag  1:
 RMSU=  9.98D-09    CP:  1.00D+00  1.15D+00  1.23D+00  1.33D+00  1.27D+00
                    CP:  1.31D+00  1.21D+00  1.04D+00
 E= -557.278949155001     Delta-E=       -0.000000000000 Rises=F Damp=F
 DIIS: error= 8.51D-09 at cycle   9 NSaved=   9.
 NSaved= 9 IEnMin= 9 EnMin= -557.278949155001     IErMin= 9 ErrMin= 8.51D-09
 ErrMax= 8.51D-09  0.00D+00 EMaxC= 1.00D-01 BMatC= 2.79D-14 BMatP= 2.11D-13
 IDIUse=1 WtCom= 1.00D+00 WtEn= 0.00D+00
 Coeff-Com: -0.571D-05-0.234D-03 0.924D-03 0.308D-02-0.125D-02-0.334D-01
 Coeff-Com: -0.412D-01 0.212D+00 0.860D+00
 Coeff:     -0.571D-05-0.234D-03 0.924D-03 0.308D-02-0.125D-02-0.334D-01
 Coeff:     -0.412D-01 0.212D+00 0.860D+00
 Gap=     0.298 Goal=   None    Shift=    0.000
 RMSDP=6.33D-09 MaxDP=3.57D-07 DE=-2.27D-13 OVMax= 1.31D-07

 Error on total polarization charges =  0.04777
 SCF Done:  E(RwB97XD) =  -557.278949155     A.U. after    9 cycles
            NFock=  9  Conv=0.63D-08     -V/T= 2.0095
 KE= 5.520155881402D+02 PE=-2.793330709108D+03 EE= 9.263803237357D+02
 SMD-CDS (non-electrostatic) energy       (kcal/mol) =      -0.30
 (included in total energy above)
 Leave Link  502 at Wed Jul  8 17:49:52 2026, MaxMem=  4026531840 cpu:             220.5 elap:              29.2
 (Enter /opt/packages/gaussian/g16RevC.01/g16/l701.exe)
 ... and contract with generalized density number  0.
 Compute integral first derivatives.
 R6Disp: Adding Grimme-D2 dispersion energy 1st derivatives to the gradient.
 D1PCM: PCM CHGder 1st derivatives, ID1Alg=3 FixD1E=F DoIter=F DoCFld=F I1PDM=0.
 GePol: Maximum number of non-zero 1st derivatives   =     259
 Leave Link  701 at Wed Jul  8 17:49:54 2026, MaxMem=  4026531840 cpu:               6.4 elap:               0.8
 (Enter /opt/packages/gaussian/g16RevC.01/g16/l702.exe)
 L702 exits ... SP integral derivatives will be done elsewhere.
 Leave Link  702 at Wed Jul  8 17:49:54 2026, MaxMem=  4026531840 cpu:               0.1 elap:               0.2
 (Enter /opt/packages/gaussian/g16RevC.01/g16/l703.exe)
 Integral derivatives from FoFJK, PRISM(SPDF).
 Compute integral first derivatives, UseDBF=F ICtDFT=           0.
 Calling FoFJK, ICntrl=      2127 FMM=F ISym2X=0 I1Cent= 0 IOpClX= 0 NMat=1 NMatS=1 NMatT=0.
 FoFJK:  IHMeth= 1 ICntrl=    2127 DoSepK=T KAlg= 0 I1Cent=           0 FoldK=F
 IRaf=         1 NMat=       1 IRICut=       1 DoRegI=T DoRafI=F ISym2E= 0 IDoP0=0 IntGTp=1.
 FoFCou: FMM=F IPFlag=           0 FMFlag=      100000 FMFlg1=         800
         NFxFlg=           0 DoJE=F BraDBF=F KetDBF=F FulRan=T
         wScrn=  0.000000 ICntrl=      2527 IOpCl=  0 I1Cent=           0 NGrid=           0
         NMat0=    1 NMatS0=      1 NMatT0=    0 NMatD0=    1 NMtDS0=    0 NMtDT0=    0
 Symmetry not used in FoFCou.
 Leave Link  703 at Wed Jul  8 17:50:02 2026, MaxMem=  4026531840 cpu:              64.1 elap:               8.1
 (Enter /opt/packages/gaussian/g16RevC.01/g16/l716.exe)
 Dipole        = 2.86019180D+00-1.52032149D-01 1.52316416D-01
 ***** Axes restored to original set *****
 -------------------------------------------------------------------
 Center     Atomic                   Forces (Hartrees/Bohr)
 Number     Number              X              Y              Z
 -------------------------------------------------------------------
      1        6           0.000027578    0.000037795    0.000006004
      2        6           0.000043759   -0.000013250    0.000004107
      3        6          -0.000040328   -0.000012850    0.000008872
      4        6           0.000023086   -0.000034214   -0.000003038
      5        6          -0.000052632    0.000014577   -0.000000030
      6        6           0.000014009   -0.000003196   -0.000003561
      7        1          -0.000007954    0.000007803   -0.000000229
      8        1           0.000001105    0.000013278    0.000005309
      9        1           0.000017219    0.000002129    0.000000464
     10        1          -0.000007226    0.000001198   -0.000006041
     11        8          -0.000039243    0.000005301    0.000013588
     12        6          -0.000016227   -0.000012820    0.000006787
     13        1          -0.000004729    0.000004781    0.000004157
     14        1          -0.000002536    0.000003423    0.000013421
     15        1           0.000019818    0.000024584    0.000009953
     16        6           0.000028209   -0.000010237   -0.000006668
     17        6           0.000000285    0.000013211    0.000018506
     18        7           0.000044538   -0.000004027    0.000006831
     19        6           0.000001694   -0.000007435    0.000024475
     20        6          -0.000028818   -0.000005874   -0.000036111
     21        1          -0.000013529   -0.000007001   -0.000001730
     22        1           0.000001174   -0.000015301   -0.000023502
     23        1           0.000003802    0.000015363   -0.000020177
     24        1          -0.000013963    0.000002198   -0.000013961
     25        1           0.000010690   -0.000015035   -0.000000274
     26        1          -0.000007490   -0.000001161   -0.000003894
     27        1          -0.000002292   -0.000003241   -0.000003255
 -------------------------------------------------------------------
 Cartesian Forces:  Max     0.000052632 RMS     0.000017310
 Leave Link  716 at Wed Jul  8 17:50:02 2026, MaxMem=  4026531840 cpu:               0.1 elap:               0.0
 (Enter /opt/packages/gaussian/g16RevC.01/g16/l103.exe)

 GradGradGradGradGradGradGradGradGradGradGradGradGradGradGradGradGradGrad
 Berny optimization.
 Using GEDIIS/GDIIS optimizer.
 FormGI is forming the generalized inverse of G from B-inverse, IUseBI=4.
 GSVD:  received Info=                   1 from GESDD.
 Internal  Forces:  Max     0.000059021 RMS     0.000012263
 Search for a local minimum.
 Step number   4 out of a maximum of  154
 All quantities printed in internal units (Hartrees-Bohrs-Radians)
 RMS Force = .12263D-04 SwitMx=.10000D-02 MixMth= 2
 Mixed Optimization -- En-DIIS/RFO-DIIS
 Swapping is turned off.
 Update second derivatives using D2CorX and points    1    2    3    4
 DE= -5.00D-07 DEPred=-4.61D-07 R= 1.09D+00
 Trust test= 1.09D+00 RLast= 6.59D-03 DXMaxT set to 3.00D-01
 ITU=  0  1  1  0
     Eigenvalues ---    0.00346   0.01117   0.01212   0.01303   0.01365
     Eigenvalues ---    0.01841   0.01848   0.02021   0.02103   0.02138
     Eigenvalues ---    0.02162   0.02179   0.02197   0.02213   0.02273
     Eigenvalues ---    0.02386   0.03330   0.03628   0.04893   0.05246
     Eigenvalues ---    0.05678   0.05911   0.06919   0.07500   0.08439
     Eigenvalues ---    0.08558   0.09399   0.10211   0.10708   0.10957
     Eigenvalues ---    0.15852   0.15932   0.15991   0.16000   0.16000
     Eigenvalues ---    0.16000   0.16044   0.16972   0.21466   0.22116
     Eigenvalues ---    0.22591   0.22730   0.23682   0.24723   0.24986
     Eigenvalues ---    0.26334   0.27419   0.28249   0.31075   0.32501
     Eigenvalues ---    0.33953   0.34318   0.34349   0.34351   0.34419
     Eigenvalues ---    0.34655   0.34708   0.34715   0.34801   0.35054
     Eigenvalues ---    0.35372   0.35392   0.35563   0.36109   0.39171
     Eigenvalues ---    0.40726   0.42107   0.43726   0.44865   0.45245
     Eigenvalues ---    0.46695   0.48072   0.49297   0.60308   0.64095
 En-DIIS/RFO-DIIS/Sim-DIIS IScMMF=       -3 using points:     4    3    2    1
 RFO step:  Lambda=-1.74352528D-07.
 NNeg= 0 NGDIIS= 4 SimSw=  2.50D-01 Rises=F DC= -5.00D-07 SmlDif=  1.00D-05
 NRisDI= 0 DoIntr=F SqrtH=F CThrHd= 10.0 CDAdj=  3.0
 RMS Error=  0.4023948913D-03 NUsed= 4 OKEnD=F EnDIS=F
 InvSVX:  RCond= 5.60D-07 Info=           0 Equed=N FErr=  3.43D-14 BErr=  7.81D-17
 DidBck=F Rises=F RFO-DIIS coefs:    1.54802   -0.47202   -0.07396   -0.00203
 Iteration  1 RMS(Cart)=  0.00058281 RMS(Int)=  0.00000016
 Iteration  2 RMS(Cart)=  0.00000020 RMS(Int)=  0.00000005
 ITry= 1 IFail=0 DXMaxC= 2.50D-03 DCOld= 1.00D+10 DXMaxT= 3.00D-01 DXLimC= 3.00D+00 Rises=F
 Variable       Old X    -DE/DX   Delta X   Delta X   Delta X     New X
                                 (Linear)    (Quad)   (Total)
    R1        2.64572   0.00003  -0.00007   0.00012   0.00006   2.64578
    R2        2.65819  -0.00002  -0.00003  -0.00003  -0.00006   2.65814
    R3        2.53977   0.00004  -0.00039   0.00032  -0.00008   2.53969
    R4        2.62187  -0.00001  -0.00006   0.00001  -0.00004   2.62183
    R5        2.04794  -0.00001  -0.00001  -0.00002  -0.00003   2.04791
    R6        2.65205   0.00000  -0.00012   0.00009  -0.00004   2.65202
    R7        2.05042   0.00001  -0.00004   0.00004   0.00001   2.05043
    R8        2.66822   0.00005  -0.00022   0.00025   0.00003   2.66825
    R9        2.73516   0.00003  -0.00014   0.00016   0.00002   2.73518
   R10        2.60300  -0.00002  -0.00003  -0.00001  -0.00005   2.60296
   R11        2.05182  -0.00000  -0.00001  -0.00000  -0.00001   2.05181
   R12        2.05145   0.00001  -0.00002   0.00004   0.00002   2.05147
   R13        2.69906   0.00000  -0.00016   0.00010  -0.00006   2.69900
   R14        2.06878  -0.00000  -0.00000  -0.00001  -0.00001   2.06877
   R15        2.06882  -0.00000  -0.00000  -0.00000  -0.00001   2.06882
   R16        2.05986  -0.00001   0.00001  -0.00004  -0.00003   2.05984
   R17        2.83925  -0.00001  -0.00002  -0.00002  -0.00004   2.83921
   R18        2.45730   0.00001  -0.00006   0.00005  -0.00001   2.45729
   R19        2.90637  -0.00000   0.00015  -0.00011   0.00005   2.90642
   R20        2.06327   0.00001   0.00000   0.00002   0.00002   2.06329
   R21        2.07439  -0.00001  -0.00006  -0.00000  -0.00006   2.07433
   R22        2.77486  -0.00003  -0.00007  -0.00003  -0.00010   2.77476
   R23        1.91912   0.00000   0.00005  -0.00004   0.00002   1.91914
   R24        2.89331   0.00002   0.00015  -0.00002   0.00013   2.89343
   R25        2.06820  -0.00001  -0.00000  -0.00002  -0.00002   2.06817
   R26        2.06156  -0.00000  -0.00001   0.00000  -0.00000   2.06156
   R27        2.06642  -0.00000  -0.00005   0.00003  -0.00002   2.06640
   R28        2.06147  -0.00000  -0.00003   0.00000  -0.00002   2.06145
    A1        2.09521  -0.00000  -0.00016   0.00008  -0.00008   2.09513
    A2        2.16917   0.00003  -0.00015   0.00022   0.00007   2.16924
    A3        2.01880  -0.00002   0.00031  -0.00030   0.00002   2.01882
    A4        2.08118   0.00001   0.00005   0.00003   0.00007   2.08125
    A5        2.11946  -0.00001  -0.00000  -0.00004  -0.00004   2.11942
    A6        2.08255  -0.00000  -0.00005   0.00001  -0.00003   2.08252
    A7        2.11998  -0.00001   0.00002  -0.00003  -0.00001   2.11997
    A8        2.06331   0.00002  -0.00007   0.00016   0.00009   2.06340
    A9        2.09988  -0.00002   0.00005  -0.00013  -0.00008   2.09980
   A10        2.06699  -0.00002   0.00003  -0.00008  -0.00005   2.06694
   A11        2.07740  -0.00001  -0.00003  -0.00002  -0.00005   2.07735
   A12        2.13879   0.00003   0.00001   0.00009   0.00010   2.13889
   A13        2.10525   0.00002  -0.00006   0.00011   0.00005   2.10530
   A14        2.11907   0.00000   0.00001   0.00002   0.00003   2.11910
   A15        2.05886  -0.00002   0.00005  -0.00013  -0.00007   2.05878
   A16        2.09773  -0.00000   0.00013  -0.00011   0.00002   2.09775
   A17        2.07658  -0.00000  -0.00001  -0.00002  -0.00003   2.07655
   A18        2.10888   0.00001  -0.00012   0.00013   0.00000   2.10888
   A19        2.07546   0.00006  -0.00009   0.00031   0.00021   2.07568
   A20        1.93215   0.00001  -0.00000   0.00010   0.00010   1.93225
   A21        1.93159   0.00001   0.00001   0.00005   0.00006   1.93165
   A22        1.84065  -0.00004   0.00025  -0.00042  -0.00018   1.84047
   A23        1.92706  -0.00000  -0.00011   0.00010  -0.00001   1.92705
   A24        1.91541   0.00001  -0.00005   0.00006   0.00001   1.91542
   A25        1.91516   0.00001  -0.00008   0.00009   0.00001   1.91517
   A26        2.19236  -0.00002   0.00007  -0.00013  -0.00006   2.19230
   A27        2.18190   0.00001  -0.00013   0.00013   0.00000   2.18190
   A28        1.90854   0.00001   0.00007  -0.00000   0.00006   1.90860
   A29        1.81062  -0.00001   0.00003  -0.00001   0.00002   1.81064
   A30        1.95257  -0.00000  -0.00039   0.00018  -0.00021   1.95236
   A31        1.87937   0.00001   0.00020   0.00000   0.00020   1.87956
   A32        1.97585   0.00001   0.00000   0.00002   0.00002   1.97587
   A33        1.96414   0.00001   0.00003   0.00001   0.00004   1.96418
   A34        1.87979  -0.00001   0.00011  -0.00018  -0.00007   1.87972
   A35        2.00818   0.00000   0.00010  -0.00001   0.00009   2.00827
   A36        2.16555  -0.00001  -0.00012   0.00004  -0.00008   2.16547
   A37        2.10697   0.00000   0.00004  -0.00002   0.00001   2.10698
   A38        1.78442  -0.00001   0.00007  -0.00003   0.00004   1.78446
   A39        1.89006  -0.00000   0.00012  -0.00009   0.00003   1.89009
   A40        1.91112  -0.00001   0.00014  -0.00026  -0.00012   1.91100
   A41        1.97516   0.00002  -0.00016   0.00028   0.00012   1.97528
   A42        1.99283   0.00001  -0.00016   0.00011  -0.00005   1.99278
   A43        1.90406  -0.00001   0.00002  -0.00004  -0.00002   1.90403
   A44        1.81886   0.00001   0.00005   0.00006   0.00011   1.81897
   A45        1.91702   0.00000  -0.00006   0.00012   0.00006   1.91707
   A46        1.96103  -0.00000  -0.00003  -0.00007  -0.00011   1.96093
   A47        1.91866   0.00000   0.00003   0.00006   0.00009   1.91875
   A48        1.95318  -0.00000  -0.00010  -0.00001  -0.00012   1.95306
   A49        1.89430  -0.00000   0.00011  -0.00014  -0.00002   1.89428
    D1       -0.00681   0.00000  -0.00010   0.00012   0.00002  -0.00679
    D2        3.13758   0.00000  -0.00009   0.00013   0.00005   3.13762
    D3        3.13554  -0.00000  -0.00001  -0.00008  -0.00008   3.13545
    D4       -0.00327  -0.00000   0.00000  -0.00006  -0.00006  -0.00332
    D5        0.00318  -0.00000   0.00008  -0.00016  -0.00008   0.00309
    D6       -3.13840  -0.00000   0.00001  -0.00014  -0.00013  -3.13853
    D7       -3.13910   0.00000  -0.00001   0.00002   0.00001  -3.13909
    D8        0.00250  -0.00000  -0.00007   0.00004  -0.00003   0.00247
    D9       -0.00512  -0.00000  -0.00026   0.00004  -0.00022  -0.00534
   D10        3.13719  -0.00001  -0.00017  -0.00015  -0.00032   3.13687
   D11        0.00372   0.00000   0.00014  -0.00007   0.00007   0.00379
   D12        3.14024   0.00000   0.00014  -0.00006   0.00008   3.14032
   D13       -3.14060  -0.00000   0.00013  -0.00009   0.00004  -3.14056
   D14       -0.00409   0.00000   0.00013  -0.00007   0.00006  -0.00403
   D15        0.00293  -0.00000  -0.00016   0.00006  -0.00009   0.00283
   D16        3.13956   0.00000   0.00011  -0.00003   0.00007   3.13963
   D17       -3.13348  -0.00000  -0.00016   0.00005  -0.00011  -3.13359
   D18        0.00315   0.00000   0.00011  -0.00005   0.00006   0.00321
   D19       -0.00663  -0.00000   0.00013  -0.00010   0.00003  -0.00660
   D20        3.13574   0.00000   0.00012   0.00007   0.00019   3.13594
   D21        3.14011  -0.00000  -0.00014  -0.00000  -0.00014   3.13996
   D22       -0.00070   0.00000  -0.00015   0.00017   0.00002  -0.00068
   D23        0.00547   0.00001   0.00088   0.00015   0.00102   0.00650
   D24       -3.10305   0.00001   0.00072   0.00004   0.00076  -3.10230
   D25       -3.14130   0.00001   0.00115   0.00005   0.00120  -3.14010
   D26        0.03336   0.00001   0.00099  -0.00006   0.00093   0.03429
   D27        0.00363   0.00000  -0.00010   0.00015   0.00006   0.00369
   D28       -3.13798   0.00000  -0.00003   0.00013   0.00010  -3.13788
   D29       -3.13872  -0.00000  -0.00009  -0.00001  -0.00010  -3.13882
   D30        0.00286  -0.00000  -0.00002  -0.00004  -0.00006   0.00280
   D31        1.07262   0.00001   0.00003   0.00025   0.00028   1.07291
   D32       -1.06994  -0.00000   0.00017   0.00002   0.00019  -1.06975
   D33       -3.13995   0.00000   0.00012   0.00012   0.00024  -3.13971
   D34        2.93800  -0.00001   0.00012  -0.00008   0.00004   2.93804
   D35        0.80232  -0.00001   0.00031  -0.00019   0.00012   0.80244
   D36       -1.25992   0.00000   0.00027  -0.00008   0.00019  -1.25973
   D37       -0.23230  -0.00000   0.00026   0.00002   0.00028  -0.23202
   D38       -2.36797  -0.00000   0.00045  -0.00010   0.00035  -2.36763
   D39        1.85297   0.00000   0.00041   0.00002   0.00043   1.85340
   D40        3.08971   0.00000   0.00034   0.00008   0.00041   3.09012
   D41        0.02349  -0.00000   0.00012  -0.00002   0.00010   0.02360
   D42       -0.02339   0.00000   0.00020  -0.00001   0.00018  -0.02321
   D43       -3.08961  -0.00000  -0.00002  -0.00011  -0.00013  -3.08974
   D44        0.37908   0.00000  -0.00060  -0.00000  -0.00060   0.37848
   D45       -1.67559  -0.00000  -0.00063  -0.00016  -0.00079  -1.67638
   D46        2.49718   0.00000  -0.00071  -0.00002  -0.00073   2.49645
   D47        2.49925  -0.00000  -0.00105   0.00022  -0.00083   2.49842
   D48        0.44458  -0.00001  -0.00108   0.00006  -0.00102   0.44356
   D49       -1.66583  -0.00000  -0.00116   0.00020  -0.00096  -1.66679
   D50       -1.64727  -0.00001  -0.00087  -0.00000  -0.00087  -1.64814
   D51        2.58124  -0.00001  -0.00090  -0.00016  -0.00106   2.58018
   D52        0.47083  -0.00001  -0.00098  -0.00002  -0.00100   0.46983
   D53        0.26807   0.00000  -0.00056  -0.00000  -0.00057   0.26751
   D54       -1.82139  -0.00001  -0.00047  -0.00027  -0.00074  -1.82213
   D55        2.38743  -0.00000  -0.00065  -0.00001  -0.00066   2.38677
   D56       -2.94614   0.00000  -0.00036   0.00009  -0.00027  -2.94641
   D57        1.24758  -0.00001  -0.00027  -0.00017  -0.00044   1.24714
   D58       -0.82678   0.00000  -0.00045   0.00008  -0.00037  -0.82715
   D59       -0.38396  -0.00000   0.00068  -0.00000   0.00068  -0.38328
   D60        1.66957   0.00000   0.00066   0.00019   0.00085   1.67042
   D61       -2.50727  -0.00000   0.00075   0.00005   0.00080  -2.50647
   D62        1.64486  -0.00000   0.00080  -0.00001   0.00079   1.64565
   D63       -2.58479   0.00000   0.00077   0.00019   0.00096  -2.58383
   D64       -0.47845  -0.00000   0.00087   0.00005   0.00091  -0.47754
   D65       -2.44610   0.00001   0.00055   0.00027   0.00083  -2.44527
   D66       -0.39256   0.00001   0.00052   0.00047   0.00099  -0.39157
   D67        1.71377   0.00001   0.00062   0.00033   0.00095   1.71472
         Item               Value     Threshold  Converged?
 Maximum Force            0.000059     0.000450     YES
 RMS     Force            0.000012     0.000300     YES
 Maximum Displacement     0.002495     0.001800     NO 
 RMS     Displacement     0.000583     0.001200     YES
 Predicted change in Energy=-8.691814D-08
 Lowest energy point so far.  Saving SCF results.
 GradGradGradGradGradGradGradGradGradGradGradGradGradGradGradGradGradGrad

 Leave Link  103 at Wed Jul  8 17:50:02 2026, MaxMem=  4026531840 cpu:               0.2 elap:               0.0
 (Enter /opt/packages/gaussian/g16RevC.01/g16/l202.exe)
                          Input orientation:                          
 ---------------------------------------------------------------------
 Center     Atomic      Atomic             Coordinates (Angstroms)
 Number     Number       Type             X           Y           Z
 ---------------------------------------------------------------------
      1          6           0       -2.479887    0.266460   -0.011625
      2          6           0       -1.847614   -0.981591    0.041660
      3          6           0       -0.461431   -1.039409    0.050007
      4          6           0        0.320579    0.125243    0.010771
      5          6           0       -0.335955    1.374481   -0.034507
      6          6           0       -1.711555    1.444152   -0.047722
      7          1           0       -2.219734    2.402691   -0.085966
      8          1           0       -2.417372   -1.902872    0.073896
      9          1           0        0.011207   -2.015161    0.092789
     10          1           0        0.221217    2.306023   -0.060791
     11          8           0       -3.812455    0.439887   -0.031243
     12          6           0       -4.659262   -0.709900   -0.002865
     13          1           0       -4.504461   -1.282089    0.917517
     14          1           0       -4.482846   -1.341609   -0.879417
     15          1           0       -5.677389   -0.321419   -0.028131
     16          6           0        1.762782    0.003494    0.024200
     17          6           0        2.531410   -1.286651    0.069725
     18          7           0        2.595773    1.001958    0.033428
     19          6           0        4.013517    0.628573    0.114708
     20          6           0        3.977474   -0.861398   -0.236112
     21          1           0        2.139194   -2.018802   -0.638967
     22          1           0        2.420405   -1.705660    1.078205
     23          1           0        4.362038    0.822800    1.133818
     24          1           0        4.590929    1.237827   -0.582096
     25          1           0        4.187599   -0.999059   -1.300358
     26          1           0        4.708155   -1.432488    0.338309
     27          1           0        2.314324    1.977568    0.051967
 ---------------------------------------------------------------------
                    Distance matrix (angstroms):
                    1          2          3          4          5
     1  C    0.000000
     2  C    1.400086   0.000000
     3  C    2.404840   1.387413   0.000000
     4  C    2.804114   2.434563   1.403387   0.000000
     5  C    2.413437   2.800355   2.418626   1.411978   0.000000
     6  C    1.406626   2.431200   2.782164   2.423326   1.377426
     7  H    2.153297   3.407070   3.867579   3.413110   2.146739
     8  H    2.171917   1.083708   2.138187   3.407875   3.883953
     9  H    3.379681   2.127462   1.085039   2.164201   3.409751
    10  H    3.384995   3.885738   3.416167   2.184214   1.085772
    11  O    1.343949   2.426214   3.663915   4.145206   3.599935
    12  C    2.388102   2.825095   4.211075   5.049402   4.799649
    13  H    2.712970   2.813586   4.142168   5.107229   5.033901
    14  H    2.711235   2.814684   4.138469   5.100684   5.028690
    15  H    3.251137   3.886886   5.265722   6.014702   5.604198
    16  C    4.250962   3.742413   2.456713   1.447395   2.507539
    17  C    5.247083   4.389727   3.003102   2.623871   3.913345
    18  N    5.128870   4.866027   3.676133   2.438370   2.956081
    19  C    6.504720   6.078718   4.776140   3.728530   4.415489
    20  C    6.558962   5.832945   4.451678   3.795695   4.862661
    21  H    5.191522   4.175368   2.863067   2.885560   4.243361
    22  H    5.393501   4.451369   3.131463   2.983436   4.280528
    23  H    6.959418   6.558080   5.282833   4.252201   4.872420
    24  H    7.159988   6.838839   5.577786   4.452552   4.959104
    25  H    6.907803   6.182645   4.841342   4.235205   5.262947
    26  H    7.394378   6.577949   5.192519   4.667401   5.784558
    27  H    5.090815   5.106707   4.099631   2.721732   2.719406
                    6          7          8          9         10
     6  C    0.000000
     7  H    1.085590   0.000000
     8  H    3.422797   4.313060   0.000000
     9  H    3.867104   4.952420   2.431247   0.000000
    10  H    2.116269   2.442994   4.969415   4.329009   0.000000
    11  O    2.328648   2.528310   2.728705   4.545661   4.444529
    12  C    3.651155   3.955556   2.540697   4.850374   5.737440
    13  H    4.020498   4.450231   2.335168   4.648529   6.013623
    14  H    4.016496   4.446462   2.343076   4.647081   6.008625
    15  H    4.341137   4.402215   3.624792   5.936624   6.457404
    16  C    3.761873   4.650669   4.594604   2.673516   2.772235
    17  C    5.047161   6.017380   4.987003   2.623487   4.273328
    18  N    4.330726   5.016514   5.794074   3.973224   2.710715
    19  C    5.785153   6.483917   6.911310   4.796696   4.150443
    20  C    6.141344   7.005870   6.486512   4.143745   4.916581
    21  H    5.212475   6.233432   4.613449   2.250292   4.766239
    22  H    5.316213   6.305929   4.944857   2.621272   4.714588
    23  H    6.218573   6.877766   7.383301   5.297877   4.557790
    24  H    6.328461   6.927350   7.707827   5.657849   4.528486
    25  H    6.506796   7.355309   6.806694   4.518359   5.309640
    26  H    7.045336   7.929960   7.145930   4.739316   5.853918
    27  H    4.062286   4.556033   6.119415   4.609544   2.121720
                   11         12         13         14         15
    11  O    0.000000
    12  C    1.428250   0.000000
    13  H    2.084279   1.094745   0.000000
    14  H    2.083879   1.094771   1.798049   0.000000
    15  H    2.014343   1.090018   1.786868   1.786732   0.000000
    16  C    5.592565   6.461603   6.459805   6.452418   7.447446
    17  C    6.575390   7.214130   7.086767   7.078395   8.265932
    18  N    6.433155   7.454348   7.510779   7.512152   8.378563
    19  C    7.829606   8.776242   8.766475   8.778273   9.738406
    20  C    7.900526   8.641213   8.570360   8.498321   9.672188
    21  H    6.468122   6.952471   6.863202   6.660917   8.022045
    22  H    6.684518   7.230624   6.939669   7.184684   8.289413
    23  H    8.265974   9.220904   9.115490   9.325758  10.171011
    24  H    8.459137   9.470754   9.556408   9.437970  10.400792
    25  H    8.226912   8.946175   8.975020   8.687413   9.969741
    26  H    8.731732   9.401438   9.232031   9.271764  10.451234
    27  H    6.317341   7.473713   7.607258   7.621413   8.316203
                   16         17         18         19         20
    16  C    0.000000
    17  C    1.502443   0.000000
    18  N    1.300342   2.289802   0.000000
    19  C    2.337674   2.422136   1.468340   0.000000
    20  C    2.391791   1.538011   2.335348   1.531140   0.000000
    21  H    2.161286   1.091844   3.128190   3.330121   2.209332
    22  H    2.112961   1.097690   2.907492   2.985796   2.205600
    23  H    2.942558   2.988858   2.088696   1.094430   2.204795
    24  H    3.144771   3.322571   2.101226   1.090931   2.214222
    25  H    2.939269   2.168593   2.883915   2.163771   1.093491
    26  H    3.291798   2.198095   3.237536   2.186434   1.090870
    27  H    2.049863   3.271478   1.015565   2.170479   3.302846
                   21         22         23         24         25
    21  H    0.000000
    22  H    1.767998   0.000000
    23  H    4.019764   3.188439   0.000000
    24  H    4.076747   4.016453   1.780168   0.000000
    25  H    2.381863   3.046280   3.045458   2.383744   0.000000
    26  H    2.810408   2.419891   2.416392   2.826919   1.773153
    27  H    4.059438   3.824996   2.587862   2.476325   3.768057
                   26         27
    26  H    0.000000
    27  H    4.176231   0.000000
 Stoichiometry    C11H14NO(1+)
 Framework group  C1[X(C11H14NO)]
 Deg. of freedom    75
 Full point group                 C1      NOp   1
 RotChk:  IX=0 Diff= 5.68D-05
 Largest Abelian subgroup         C1      NOp   1
 Largest concise Abelian subgroup C1      NOp   1
                         Standard orientation:                         
 ---------------------------------------------------------------------
 Center     Atomic      Atomic             Coordinates (Angstroms)
 Number     Number       Type             X           Y           Z
 ---------------------------------------------------------------------
      1          6           0       -2.479728    0.265986   -0.011021
      2          6           0       -1.847430   -0.982104    0.041039
      3          6           0       -0.461247   -1.039902    0.049349
      4          6           0        0.320741    0.124804    0.011275
      5          6           0       -0.335818    1.374073   -0.032778
      6          6           0       -1.711419    1.443729   -0.045944
      7          1           0       -2.219618    2.402295   -0.083248
      8          1           0       -2.417170   -1.903428    0.072357
      9          1           0        0.011411   -2.015686    0.091174
     10          1           0        0.221335    2.305651   -0.058134
     11          8           0       -3.812299    0.439405   -0.030487
     12          6           0       -4.659083   -0.710427   -0.003257
     13          1           0       -4.504284   -1.283521    0.916561
     14          1           0       -4.482642   -1.341266   -0.880431
     15          1           0       -5.677218   -0.321941   -0.028154
     16          6           0        1.762946    0.003071    0.024604
     17          6           0        2.531600   -1.287103    0.068866
     18          7           0        2.595916    1.001543    0.034830
     19          6           0        4.013666    0.628106    0.115762
     20          6           0        3.977660   -0.861519   -0.236530
     21          1           0        2.139409   -2.018561   -0.640555
     22          1           0        2.420588   -1.707111    1.076930
     23          1           0        4.362170    0.821333    1.135068
     24          1           0        4.591076    1.238060   -0.580431
     25          1           0        4.187802   -0.998124   -1.300909
     26          1           0        4.708344   -1.433161    0.337337
     27          1           0        2.314447    1.977128    0.054330
 ---------------------------------------------------------------------
 Rotational constants (GHZ):           2.8663626           0.3539694           0.3181223
 Leave Link  202 at Wed Jul  8 17:50:02 2026, MaxMem=  4026531840 cpu:               0.0 elap:               0.0
 (Enter /opt/packages/gaussian/g16RevC.01/g16/l301.exe)
 Standard basis: 6-31+G(d) (6D, 7F)
 Ernie: Thresh=  0.10000D-02 Tol=  0.10000D-05 Strict=F.
 There are   275 symmetry adapted cartesian basis functions of A   symmetry.
 There are   275 symmetry adapted basis functions of A   symmetry.
   275 basis functions,   472 primitive gaussians,   275 cartesian basis functions
    47 alpha electrons       47 beta electrons
       nuclear repulsion energy       757.6699540155 Hartrees.
 IExCor= 4639 DFT=T Ex+Corr=wB97XD ExCW=0 ScaHFX=  1.000000
 ScaDFX=  1.000000  1.000000  1.000000  1.000000 ScalE2=  1.000000  1.000000
 IRadAn=      5 IRanWt=     -1 IRanGd=            0 ICorTp=0 IEmpDi=121
 HFx  wShort=  0.000000 wLong=  0.200000 cFull=  0.222036 cShort=  0.000000 cLong=  0.777964
 DFx  wShort=  0.000000 wLong=  0.200000 cFull=  0.000000 cShort=  0.000000 cLong=  1.000000
 NAtoms=   27 NActive=   27 NUniq=   27 SFac= 1.00D+00 NAtFMM=   60 NAOKFM=F Big=F
 Integral buffers will be    131072 words long.
 Raffenetti 2 integral format.
 Two-electron integral symmetry is turned on.
 R6Disp:  Grimme-D2 Dispersion energy=       -0.0166020965 Hartrees.
 Nuclear repulsion after empirical dispersion term =      757.6533519191 Hartrees.
 ------------------------------------------------------------------------------
 Polarizable Continuum Model (PCM)
 =================================
 Model                : PCM.
 Atomic radii         : SMD-Coulomb.
 Polarization charges : Total charges.
 Charge compensation  : None.
 Solution method      : On-the-fly selection.
 Cavity type          : VdW (van der Waals Surface) (Alpha=1.000).
 Cavity algorithm     : GePol (No added spheres)
                        Default sphere list used, NSphG=   27.
                        Lebedev-Laikov grids with approx.  5.0 points / Ang**2.
                        Smoothing algorithm: York/Karplus (Gamma=1.0000).
                        Polarization charges: spherical gaussians, with
                                              point-specific exponents (IZeta= 3).
                        Self-potential: point-specific (ISelfS= 7).
                        Self-field    : sphere-specific E.n sum rule (ISelfD= 2).
 1st derivatives      : Analytical E(r).r(x)/FMM algorithm (CHGder, D1EAlg=3).
                        Cavity 1st derivative terms included.
 Solvent              : Methanol, Eps=  32.613000 Eps(inf)=   1.765709
 ------------------------------------------------------------------------------
 GePol: Number of generator spheres                  =      27
 GePol: Total number of spheres                      =      27
 GePol: Number of exposed spheres                    =      27 (100.00%)
 GePol: Number of points                             =    1980
 GePol: Average weight of points                     =       0.11
 GePol: Minimum weight of points                     =   0.18D-09
 GePol: Maximum weight of points                     =    0.21991
 GePol: Number of points with low weight             =     118
 GePol: Fraction of low-weight points (<1% of avg)   =       5.96%
 GePol: Cavity surface area                          =    215.104 Ang**2
 GePol: Cavity volume                                =    191.299 Ang**3
 ------------------------------------------------------------------------------
 Atomic radii for non-electrostatic terms: SMD-CDS.
 ------------------------------------------------------------------------------
 PCM non-electrostatic energy =        -0.0004813662 Hartrees.
 Nuclear repulsion after PCM non-electrostatic terms =      757.6528705529 Hartrees.
 Leave Link  301 at Wed Jul  8 17:50:03 2026, MaxMem=  4026531840 cpu:               0.3 elap:               0.1
 (Enter /opt/packages/gaussian/g16RevC.01/g16/l302.exe)
 NPDir=0 NMtPBC=     1 NCelOv=     1 NCel=       1 NClECP=     1 NCelD=      1
         NCelK=      1 NCelE2=     1 NClLst=     1 CellRange=     0.0.
 One-electron integrals computed using PRISM.
 One-electron integral symmetry used in STVInt
 NBasis=   275 RedAO= T EigKep=  2.09D-06  NBF=   275
 NBsUse=   273 1.00D-06 EigRej=  8.37D-07 NBFU=   273
 Precomputing XC quadrature grid using
 IXCGrd= 4 IRadAn=           5 IRanWt=          -1 IRanGd=           0 AccXCQ= 0.00D+00.
 Generated NRdTot=       0 NPtTot=           0 NUsed=           0 NTot=          32
 NSgBfM=   274   274   274   274   274 MxSgAt=    27 MxSgA2=    27.
 Leave Link  302 at Wed Jul  8 17:50:03 2026, MaxMem=  4026531840 cpu:               1.4 elap:               0.2
 (Enter /opt/packages/gaussian/g16RevC.01/g16/l303.exe)
 DipDrv:  MaxL=1.
 Leave Link  303 at Wed Jul  8 17:50:03 2026, MaxMem=  4026531840 cpu:               0.1 elap:               0.0
 (Enter /opt/packages/gaussian/g16RevC.01/g16/l401.exe)
 Initial guess from the checkpoint file:  "iminium_ground_opt_wb97.chk"
 B after Tr=     0.000000    0.000000   -0.000000
         Rot=    1.000000   -0.000014    0.000000   -0.000000 Ang=  -0.00 deg.
 Guess basis will be translated and rotated to current coordinates.
 JPrj=2 DoOrth=T DoCkMO=T.
 Leave Link  401 at Wed Jul  8 17:50:03 2026, MaxMem=  4026531840 cpu:               0.6 elap:               0.1
 (Enter /opt/packages/gaussian/g16RevC.01/g16/l502.exe)
 Integral symmetry usage will be decided dynamically.
 Closed shell SCF:
 Using DIIS extrapolation, IDIIS=  1040.
 NGot=  4026531840 LenX=  4026374748 LenY=  4026298682
 Requested convergence on RMS density matrix=1.00D-08 within 128 cycles.
 Requested convergence on MAX density matrix=1.00D-06.
 Requested convergence on             energy=1.00D-06.
 No special actions if energy rises.
 Fock matrices will be formed incrementally for  20 cycles.

 Cycle   1  Pass 1  IDiag  1:
 FoFJK:  IHMeth= 1 ICntrl=       0 DoSepK=T KAlg= 0 I1Cent=           0 FoldK=F
 IRaf=         1 NMat=       1 IRICut=       1 DoRegI=T DoRafI=F ISym2E= 0 IDoP0=0 IntGTp=1.
 FoFCou: FMM=F IPFlag=           0 FMFlag=      100000 FMFlg1=           0
         NFxFlg=           0 DoJE=T BraDBF=F KetDBF=F FulRan=T
         wScrn=  0.000000 ICntrl=       500 IOpCl=  0 I1Cent=           0 NGrid=           0
         NMat0=    1 NMatS0=      1 NMatT0=    0 NMatD0=    1 NMtDS0=    0 NMtDT0=    0
 Symmetry not used in FoFCou.
 Inv3:  Mode=1 IEnd=    11761200.
 Iteration    1 A*A^-1 deviation from unit magnitude is 3.33D-15 for    542.
 Iteration    1 A*A^-1 deviation from orthogonality  is 4.05D-15 for   1603    369.
 Iteration    1 A^-1*A deviation from unit magnitude is 3.55D-15 for    542.
 Iteration    1 A^-1*A deviation from orthogonality  is 6.74D-14 for   1259   1221.
 E= -557.278947658496    
 DIIS: error= 8.59D-05 at cycle   1 NSaved=   1.
 NSaved= 1 IEnMin= 1 EnMin= -557.278947658496     IErMin= 1 ErrMin= 8.59D-05
 ErrMax= 8.59D-05  0.00D+00 EMaxC= 1.00D-01 BMatC= 1.18D-06 BMatP= 1.18D-06
 IDIUse=1 WtCom= 1.00D+00 WtEn= 0.00D+00
 Coeff-Com:  0.100D+01
 Coeff:      0.100D+01
 Gap=     0.562 Goal=   None    Shift=    0.000
 RMSDP=2.83D-05 MaxDP=1.20D-03              OVMax= 3.07D-04

 Cycle   2  Pass 1  IDiag  1:
 RMSU=  2.80D-05    CP:  1.00D+00
 E= -557.278949190878     Delta-E=       -0.000001532382 Rises=F Damp=F
 DIIS: error= 8.50D-06 at cycle   2 NSaved=   2.
 NSaved= 2 IEnMin= 2 EnMin= -557.278949190878     IErMin= 2 ErrMin= 8.50D-06
 ErrMax= 8.50D-06  0.00D+00 EMaxC= 1.00D-01 BMatC= 2.76D-08 BMatP= 1.18D-06
 IDIUse=1 WtCom= 1.00D+00 WtEn= 0.00D+00
 Coeff-Com: -0.102D+00 0.110D+01
 Coeff:     -0.102D+00 0.110D+01
 Gap=     0.298 Goal=   None    Shift=    0.000
 RMSDP=6.94D-06 MaxDP=2.55D-04 DE=-1.53D-06 OVMax= 6.40D-05

 Cycle   3  Pass 1  IDiag  1:
 RMSU=  4.57D-06    CP:  1.00D+00  1.17D+00
 E= -557.278949269736     Delta-E=       -0.000000078858 Rises=F Damp=F
 DIIS: error= 2.57D-06 at cycle   3 NSaved=   3.
 NSaved= 3 IEnMin= 3 EnMin= -557.278949269736     IErMin= 3 ErrMin= 2.57D-06
 ErrMax= 2.57D-06  0.00D+00 EMaxC= 1.00D-01 BMatC= 1.44D-09 BMatP= 2.76D-08
 IDIUse=1 WtCom= 1.00D+00 WtEn= 0.00D+00
 Coeff-Com: -0.135D-02-0.125D+00 0.113D+01
 Coeff:     -0.135D-02-0.125D+00 0.113D+01
 Gap=     0.298 Goal=   None    Shift=    0.000
 RMSDP=1.93D-06 MaxDP=9.13D-05 DE=-7.89D-08 OVMax= 2.21D-05

 Cycle   4  Pass 1  IDiag  1:
 RMSU=  1.15D-06    CP:  1.00D+00  1.19D+00  1.30D+00
 E= -557.278949274037     Delta-E=       -0.000000004301 Rises=F Damp=F
 DIIS: error= 1.05D-06 at cycle   4 NSaved=   4.
 NSaved= 4 IEnMin= 4 EnMin= -557.278949274037     IErMin= 4 ErrMin= 1.05D-06
 ErrMax= 1.05D-06  0.00D+00 EMaxC= 1.00D-01 BMatC= 6.21D-10 BMatP= 1.44D-09
 IDIUse=1 WtCom= 1.00D+00 WtEn= 0.00D+00
 Coeff-Com:  0.516D-02-0.118D+00 0.486D+00 0.627D+00
 Coeff:      0.516D-02-0.118D+00 0.486D+00 0.627D+00
 Gap=     0.298 Goal=   None    Shift=    0.000
 RMSDP=4.25D-07 MaxDP=1.44D-05 DE=-4.30D-09 OVMax= 6.45D-06

 Cycle   5  Pass 1  IDiag  1:
 RMSU=  3.53D-07    CP:  1.00D+00  1.19D+00  1.34D+00  9.61D-01
 E= -557.278949274737     Delta-E=       -0.000000000700 Rises=F Damp=F
 DIIS: error= 2.91D-07 at cycle   5 NSaved=   5.
 NSaved= 5 IEnMin= 5 EnMin= -557.278949274737     IErMin= 5 ErrMin= 2.91D-07
 ErrMax= 2.91D-07  0.00D+00 EMaxC= 1.00D-01 BMatC= 4.55D-11 BMatP= 6.21D-10
 IDIUse=1 WtCom= 1.00D+00 WtEn= 0.00D+00
 Coeff-Com:  0.162D-02-0.150D-01-0.317D-01 0.169D+00 0.876D+00
 Coeff:      0.162D-02-0.150D-01-0.317D-01 0.169D+00 0.876D+00
 Gap=     0.298 Goal=   None    Shift=    0.000
 RMSDP=1.91D-07 MaxDP=6.91D-06 DE=-7.00D-10 OVMax= 3.43D-06

 Cycle   6  Pass 1  IDiag  1:
 RMSU=  1.28D-07    CP:  1.00D+00  1.19D+00  1.35D+00  1.04D+00  1.25D+00
 E= -557.278949274815     Delta-E=       -0.000000000077 Rises=F Damp=F
 DIIS: error= 1.25D-07 at cycle   6 NSaved=   6.
 NSaved= 6 IEnMin= 6 EnMin= -557.278949274815     IErMin= 6 ErrMin= 1.25D-07
 ErrMax= 1.25D-07  0.00D+00 EMaxC= 1.00D-01 BMatC= 7.88D-12 BMatP= 4.55D-11
 IDIUse=1 WtCom= 1.00D+00 WtEn= 0.00D+00
 Coeff-Com:  0.439D-04 0.774D-02-0.686D-01-0.452D-02 0.344D+00 0.721D+00
 Coeff:      0.439D-04 0.774D-02-0.686D-01-0.452D-02 0.344D+00 0.721D+00
 Gap=     0.298 Goal=   None    Shift=    0.000
 RMSDP=6.78D-08 MaxDP=2.68D-06 DE=-7.72D-11 OVMax= 1.17D-06

 Cycle   7  Pass 1  IDiag  1:
 RMSU=  2.88D-08    CP:  1.00D+00  1.19D+00  1.35D+00  1.08D+00  1.35D+00
                    CP:  9.35D-01
 E= -557.278949274818     Delta-E=       -0.000000000004 Rises=F Damp=F
 DIIS: error= 3.98D-08 at cycle   7 NSaved=   7.
 NSaved= 7 IEnMin= 7 EnMin= -557.278949274818     IErMin= 7 ErrMin= 3.98D-08
 ErrMax= 3.98D-08  0.00D+00 EMaxC= 1.00D-01 BMatC= 6.73D-13 BMatP= 7.88D-12
 IDIUse=1 WtCom= 1.00D+00 WtEn= 0.00D+00
 Coeff-Com: -0.222D-03 0.474D-02-0.164D-01-0.262D-01-0.214D-01 0.214D+00
 Coeff-Com:  0.845D+00
 Coeff:     -0.222D-03 0.474D-02-0.164D-01-0.262D-01-0.214D-01 0.214D+00
 Coeff:      0.845D+00
 Gap=     0.298 Goal=   None    Shift=    0.000
 RMSDP=2.20D-08 MaxDP=1.03D-06 DE=-3.75D-12 OVMax= 5.32D-07

 Cycle   8  Pass 1  IDiag  1:
 RMSU=  1.13D-08    CP:  1.00D+00  1.19D+00  1.35D+00  1.09D+00  1.38D+00
                    CP:  9.93D-01  1.11D+00
 E= -557.278949274828     Delta-E=       -0.000000000009 Rises=F Damp=F
 DIIS: error= 1.16D-08 at cycle   8 NSaved=   8.
 NSaved= 8 IEnMin= 8 EnMin= -557.278949274828     IErMin= 8 ErrMin= 1.16D-08
 ErrMax= 1.16D-08  0.00D+00 EMaxC= 1.00D-01 BMatC= 4.07D-14 BMatP= 6.73D-13
 IDIUse=1 WtCom= 1.00D+00 WtEn= 0.00D+00
 Coeff-Com: -0.406D-04 0.241D-03 0.212D-02-0.398D-02-0.276D-01-0.170D-01
 Coeff-Com:  0.138D+00 0.909D+00
 Coeff:     -0.406D-04 0.241D-03 0.212D-02-0.398D-02-0.276D-01-0.170D-01
 Coeff:      0.138D+00 0.909D+00
 Gap=     0.298 Goal=   None    Shift=    0.000
 RMSDP=7.08D-09 MaxDP=2.24D-07 DE=-9.44D-12 OVMax= 1.61D-07

 Error on total polarization charges =  0.04777
 SCF Done:  E(RwB97XD) =  -557.278949275     A.U. after    8 cycles
            NFock=  8  Conv=0.71D-08     -V/T= 2.0095
 KE= 5.520158932470D+02 PE=-2.793325144961D+03 EE= 9.263774318861D+02
 SMD-CDS (non-electrostatic) energy       (kcal/mol) =      -0.30
 (included in total energy above)
 Leave Link  502 at Wed Jul  8 17:50:24 2026, MaxMem=  4026531840 cpu:             166.6 elap:              21.2
 (Enter /opt/packages/gaussian/g16RevC.01/g16/l701.exe)
 ... and contract with generalized density number  0.
 Compute integral first derivatives.
 R6Disp: Adding Grimme-D2 dispersion energy 1st derivatives to the gradient.
 D1PCM: PCM CHGder 1st derivatives, ID1Alg=3 FixD1E=F DoIter=F DoCFld=F I1PDM=0.
 GePol: Maximum number of non-zero 1st derivatives   =     259
 Leave Link  701 at Wed Jul  8 17:50:25 2026, MaxMem=  4026531840 cpu:               6.4 elap:               0.8
 (Enter /opt/packages/gaussian/g16RevC.01/g16/l702.exe)
 L702 exits ... SP integral derivatives will be done elsewhere.
 Leave Link  702 at Wed Jul  8 17:50:25 2026, MaxMem=  4026531840 cpu:               0.1 elap:               0.0
 (Enter /opt/packages/gaussian/g16RevC.01/g16/l703.exe)
 Integral derivatives from FoFJK, PRISM(SPDF).
 Compute integral first derivatives, UseDBF=F ICtDFT=           0.
 Calling FoFJK, ICntrl=      2127 FMM=F ISym2X=0 I1Cent= 0 IOpClX= 0 NMat=1 NMatS=1 NMatT=0.
 FoFJK:  IHMeth= 1 ICntrl=    2127 DoSepK=T KAlg= 0 I1Cent=           0 FoldK=F
 IRaf=         1 NMat=       1 IRICut=       1 DoRegI=T DoRafI=F ISym2E= 0 IDoP0=0 IntGTp=1.
 FoFCou: FMM=F IPFlag=           0 FMFlag=      100000 FMFlg1=         800
         NFxFlg=           0 DoJE=F BraDBF=F KetDBF=F FulRan=T
         wScrn=  0.000000 ICntrl=      2527 IOpCl=  0 I1Cent=           0 NGrid=           0
         NMat0=    1 NMatS0=      1 NMatT0=    0 NMatD0=    1 NMtDS0=    0 NMtDT0=    0
 Symmetry not used in FoFCou.
 Leave Link  703 at Wed Jul  8 17:50:33 2026, MaxMem=  4026531840 cpu:              64.0 elap:               8.0
 (Enter /opt/packages/gaussian/g16RevC.01/g16/l716.exe)
 Dipole        = 2.86005280D+00-1.51914336D-01 1.52379918D-01
 ***** Axes restored to original set *****
 -------------------------------------------------------------------
 Center     Atomic                   Forces (Hartrees/Bohr)
 Number     Number              X              Y              Z
 -------------------------------------------------------------------
      1        6           0.000063408   -0.000010026    0.000001862
      2        6           0.000003060   -0.000007305    0.000005508
      3        6          -0.000028455   -0.000015816    0.000005867
      4        6           0.000017726   -0.000012122   -0.000004509
      5        6          -0.000012225    0.000012840   -0.000000007
      6        6          -0.000007074    0.000021110    0.000000320
      7        1          -0.000001797    0.000003660    0.000000752
      8        1          -0.000012391    0.000001917    0.000005053
      9        1           0.000006964   -0.000000632    0.000002972
     10        1           0.000004727    0.000003612   -0.000003586
     11        8          -0.000042625    0.000029340    0.000013941
     12        6          -0.000019177   -0.000017475    0.000005347
     13        1           0.000005631    0.000006411    0.000009480
     14        1           0.000003189    0.000004178    0.000009503
     15        1           0.000002806    0.000011230    0.000010412
     16        6           0.000016476    0.000003739   -0.000003926
     17        6           0.000006545    0.000019731   -0.000004860
     18        7           0.000002782    0.000007722    0.000004259
     19        6           0.000005081   -0.000026225    0.000005769
     20        6          -0.000024155    0.000002981   -0.000013893
     21        1          -0.000003747   -0.000009942   -0.000000739
     22        1          -0.000002588   -0.000010895   -0.000006239
     23        1           0.000006217    0.000006983   -0.000015148
     24        1          -0.000003141    0.000000211   -0.000013732
     25        1           0.000009022   -0.000007442   -0.000004508
     26        1           0.000000987   -0.000007879   -0.000004810
     27        1           0.000002754   -0.000009905   -0.000005089
 -------------------------------------------------------------------
 Cartesian Forces:  Max     0.000063408 RMS     0.000013402
 Leave Link  716 at Wed Jul  8 17:50:33 2026, MaxMem=  4026531840 cpu:               0.1 elap:               0.0
 (Enter /opt/packages/gaussian/g16RevC.01/g16/l103.exe)

 GradGradGradGradGradGradGradGradGradGradGradGradGradGradGradGradGradGrad
 Berny optimization.
 Using GEDIIS/GDIIS optimizer.
 FormGI is forming the generalized inverse of G from B-inverse, IUseBI=4.
 GSVD:  received Info=                   1 from GESDD.
 Internal  Forces:  Max     0.000048429 RMS     0.000006892
 Search for a local minimum.
 Step number   5 out of a maximum of  154
 All quantities printed in internal units (Hartrees-Bohrs-Radians)
 RMS Force = .68917D-05 SwitMx=.10000D-02 MixMth= 2
 Mixed Optimization -- En-DIIS/RFO-DIIS
 Swapping is turned off.
 Update second derivatives using D2CorX and points    1    2    3    4    5
 DE= -1.20D-07 DEPred=-8.69D-08 R= 1.38D+00
 Trust test= 1.38D+00 RLast= 4.58D-03 DXMaxT set to 3.00D-01
 ITU=  0  0  1  1  0
     Eigenvalues ---    0.00225   0.01062   0.01186   0.01301   0.01367
     Eigenvalues ---    0.01848   0.01862   0.02017   0.02105   0.02137
     Eigenvalues ---    0.02166   0.02183   0.02197   0.02215   0.02273
     Eigenvalues ---    0.02375   0.03389   0.03636   0.04937   0.05241
     Eigenvalues ---    0.05639   0.05840   0.06936   0.07518   0.08431
     Eigenvalues ---    0.08453   0.09453   0.10296   0.10711   0.10944
     Eigenvalues ---    0.15656   0.15949   0.15982   0.16000   0.16000
     Eigenvalues ---    0.16013   0.16180   0.16831   0.21573   0.22024
     Eigenvalues ---    0.22699   0.22932   0.24189   0.24952   0.25104
     Eigenvalues ---    0.26458   0.27686   0.28716   0.31081   0.33923
     Eigenvalues ---    0.34187   0.34300   0.34350   0.34407   0.34581
     Eigenvalues ---    0.34667   0.34712   0.34778   0.34906   0.35071
     Eigenvalues ---    0.35380   0.35457   0.35620   0.37427   0.39149
     Eigenvalues ---    0.40649   0.42098   0.43714   0.44987   0.46601
     Eigenvalues ---    0.47026   0.47615   0.49919   0.62104   0.64014
 En-DIIS/RFO-DIIS/Sim-DIIS IScMMF=       -3 using points:     5    4    3    2    1
 RFO step:  Lambda=-7.22296047D-08.
 NNeg= 0 NGDIIS= 5 SimSw=  2.50D-01 Rises=F DC= -1.20D-07 SmlDif=  1.00D-05
 NRisDI= 0 DoIntr=F SqrtH=F CThrHd= 10.0 CDAdj=  3.0
 RMS Error=  0.3778230666D-03 NUsed= 5 OKEnD=F EnDIS=F
 InvSVX:  RCond= 6.09D-08 Info=           0 Equed=N FErr=  2.34D-13 BErr=  9.20D-17
 DIIS inversion failure, remove point   5.
 InvSVX:  RCond= 7.82D-08 Info=           0 Equed=N FErr=  1.95D-13 BErr=  9.40D-17
 DIIS inversion failure, remove point   4.
 InvSVX:  RCond= 1.05D-07 Info=           0 Equed=N FErr=  1.64D-13 BErr=  8.32D-17
 RFO-DIIS uses    3 points instead of    5
 DidBck=F Rises=F RFO-DIIS coefs:    1.76117   -0.64301   -0.11816    0.00000    0.00000
 Iteration  1 RMS(Cart)=  0.00049103 RMS(Int)=  0.00000012
 Iteration  2 RMS(Cart)=  0.00000016 RMS(Int)=  0.00000003
 ITry= 1 IFail=0 DXMaxC= 2.42D-03 DCOld= 1.00D+10 DXMaxT= 3.00D-01 DXLimC= 3.00D+00 Rises=F
 Variable       Old X    -DE/DX   Delta X   Delta X   Delta X     New X
                                 (Linear)    (Quad)   (Total)
    R1        2.64578   0.00000   0.00002  -0.00000   0.00002   2.64580
    R2        2.65814   0.00001  -0.00005   0.00005  -0.00001   2.65813
    R3        2.53969   0.00005  -0.00013   0.00015   0.00002   2.53972
    R4        2.62183   0.00000  -0.00005   0.00003  -0.00002   2.62181
    R5        2.04791   0.00001  -0.00002   0.00003   0.00001   2.04792
    R6        2.65202   0.00003  -0.00005   0.00010   0.00004   2.65206
    R7        2.05043   0.00000  -0.00000   0.00001   0.00001   2.05044
    R8        2.66825   0.00003  -0.00001   0.00006   0.00005   2.66830
    R9        2.73518   0.00002  -0.00001   0.00005   0.00003   2.73521
   R10        2.60296   0.00000  -0.00005   0.00004  -0.00001   2.60295
   R11        2.05181   0.00000  -0.00001   0.00002   0.00001   2.05182
   R12        2.05147   0.00000   0.00001   0.00000   0.00001   2.05148
   R13        2.69900   0.00002  -0.00008   0.00009   0.00001   2.69901
   R14        2.06877   0.00000  -0.00001   0.00001  -0.00000   2.06877
   R15        2.06882   0.00000  -0.00001   0.00001  -0.00000   2.06882
   R16        2.05984  -0.00000  -0.00002   0.00001  -0.00001   2.05983
   R17        2.83921  -0.00000  -0.00004   0.00001  -0.00003   2.83918
   R18        2.45729   0.00000  -0.00002   0.00000  -0.00001   2.45728
   R19        2.90642  -0.00001   0.00006  -0.00005   0.00001   2.90643
   R20        2.06329   0.00000   0.00002   0.00001   0.00002   2.06331
   R21        2.07433   0.00000  -0.00006   0.00003  -0.00002   2.07431
   R22        2.77476   0.00000  -0.00009   0.00006  -0.00003   2.77473
   R23        1.91914  -0.00001   0.00002  -0.00003  -0.00001   1.91913
   R24        2.89343  -0.00000   0.00013  -0.00007   0.00005   2.89349
   R25        2.06817  -0.00000  -0.00002  -0.00000  -0.00002   2.06815
   R26        2.06156   0.00000  -0.00000   0.00002   0.00001   2.06157
   R27        2.06640   0.00000  -0.00003   0.00001  -0.00001   2.06639
   R28        2.06145   0.00000  -0.00002   0.00003   0.00001   2.06145
    A1        2.09513   0.00002  -0.00009   0.00011   0.00002   2.09515
    A2        2.16924  -0.00001   0.00000  -0.00006  -0.00005   2.16919
    A3        2.01882  -0.00001   0.00008  -0.00005   0.00003   2.01885
    A4        2.08125  -0.00000   0.00006  -0.00006   0.00001   2.08126
    A5        2.11942  -0.00001  -0.00004  -0.00003  -0.00007   2.11935
    A6        2.08252   0.00001  -0.00002   0.00008   0.00006   2.08257
    A7        2.11997  -0.00000  -0.00001   0.00000  -0.00001   2.11997
    A8        2.06340   0.00001   0.00006   0.00001   0.00007   2.06347
    A9        2.09980  -0.00001  -0.00006  -0.00001  -0.00007   2.09973
   A10        2.06694  -0.00000  -0.00003   0.00001  -0.00002   2.06692
   A11        2.07735   0.00001  -0.00005   0.00006   0.00001   2.07736
   A12        2.13889  -0.00000   0.00009  -0.00008   0.00001   2.13890
   A13        2.10530   0.00000   0.00003  -0.00000   0.00002   2.10533
   A14        2.11910  -0.00000   0.00002  -0.00003  -0.00001   2.11909
   A15        2.05878  -0.00000  -0.00005   0.00003  -0.00002   2.05877
   A16        2.09775  -0.00001   0.00004  -0.00006  -0.00003   2.09773
   A17        2.07655   0.00000  -0.00002   0.00002  -0.00000   2.07655
   A18        2.10888   0.00001  -0.00001   0.00004   0.00003   2.10891
   A19        2.07568  -0.00002   0.00011  -0.00012  -0.00001   2.07567
   A20        1.93225  -0.00001   0.00007  -0.00009  -0.00002   1.93223
   A21        1.93165  -0.00000   0.00005  -0.00006  -0.00002   1.93163
   A22        1.84047  -0.00001  -0.00011   0.00007  -0.00003   1.84044
   A23        1.92705   0.00000  -0.00003   0.00000  -0.00002   1.92703
   A24        1.91542   0.00001   0.00001   0.00004   0.00005   1.91547
   A25        1.91517   0.00001   0.00001   0.00004   0.00005   1.91522
   A26        2.19230  -0.00000  -0.00004   0.00001  -0.00003   2.19228
   A27        2.18190   0.00001  -0.00002   0.00001  -0.00000   2.18190
   A28        1.90860  -0.00000   0.00006  -0.00003   0.00004   1.90863
   A29        1.81064   0.00000   0.00002   0.00005   0.00007   1.81071
   A30        1.95236   0.00000  -0.00023   0.00014  -0.00009   1.95227
   A31        1.87956   0.00000   0.00019  -0.00007   0.00012   1.87969
   A32        1.97587  -0.00000   0.00003  -0.00004  -0.00001   1.97586
   A33        1.96418   0.00000   0.00004  -0.00001   0.00003   1.96421
   A34        1.87972  -0.00000  -0.00004  -0.00007  -0.00010   1.87961
   A35        2.00827  -0.00000   0.00009  -0.00002   0.00007   2.00834
   A36        2.16547  -0.00000  -0.00009   0.00002  -0.00006   2.16540
   A37        2.10698   0.00000   0.00002  -0.00000   0.00002   2.10700
   A38        1.78446  -0.00000   0.00004   0.00003   0.00007   1.78453
   A39        1.89009  -0.00000   0.00004  -0.00000   0.00004   1.89013
   A40        1.91100  -0.00000  -0.00007  -0.00003  -0.00010   1.91089
   A41        1.97528   0.00001   0.00007   0.00004   0.00011   1.97539
   A42        1.99278   0.00000  -0.00006   0.00001  -0.00005   1.99272
   A43        1.90403  -0.00000  -0.00002  -0.00004  -0.00005   1.90398
   A44        1.81897   0.00000   0.00009   0.00000   0.00010   1.81906
   A45        1.91707   0.00000   0.00003   0.00006   0.00009   1.91717
   A46        1.96093  -0.00000  -0.00009   0.00001  -0.00008   1.96085
   A47        1.91875  -0.00000   0.00008  -0.00005   0.00003   1.91878
   A48        1.95306   0.00000  -0.00011   0.00004  -0.00007   1.95300
   A49        1.89428  -0.00000  -0.00000  -0.00006  -0.00006   1.89422
    D1       -0.00679   0.00000   0.00000   0.00003   0.00003  -0.00676
    D2        3.13762   0.00000   0.00002  -0.00001   0.00001   3.13764
    D3        3.13545   0.00000  -0.00005   0.00009   0.00004   3.13550
    D4       -0.00332   0.00000  -0.00003   0.00006   0.00003  -0.00330
    D5        0.00309  -0.00000  -0.00005  -0.00001  -0.00006   0.00303
    D6       -3.13853  -0.00000  -0.00009   0.00001  -0.00009  -3.13861
    D7       -3.13909  -0.00000  -0.00001  -0.00007  -0.00007  -3.13917
    D8        0.00247  -0.00000  -0.00005  -0.00005  -0.00010   0.00237
    D9       -0.00534  -0.00000  -0.00022  -0.00007  -0.00028  -0.00563
   D10        3.13687  -0.00000  -0.00027  -0.00001  -0.00027   3.13660
   D11        0.00379  -0.00000   0.00008  -0.00005   0.00003   0.00382
   D12        3.14032  -0.00000   0.00009  -0.00011  -0.00001   3.14031
   D13       -3.14056   0.00000   0.00006  -0.00002   0.00004  -3.14051
   D14       -0.00403  -0.00000   0.00008  -0.00007   0.00000  -0.00403
   D15        0.00283  -0.00000  -0.00010   0.00005  -0.00005   0.00278
   D16        3.13963  -0.00000   0.00007  -0.00011  -0.00003   3.13960
   D17       -3.13359   0.00000  -0.00012   0.00011  -0.00001  -3.13360
   D18        0.00321  -0.00000   0.00006  -0.00005   0.00001   0.00322
   D19       -0.00660  -0.00000   0.00005  -0.00003   0.00002  -0.00658
   D20        3.13594   0.00000   0.00018  -0.00006   0.00011   3.13605
   D21        3.13996   0.00000  -0.00013   0.00014   0.00000   3.13997
   D22       -0.00068   0.00000  -0.00001   0.00011   0.00010  -0.00059
   D23        0.00650   0.00001   0.00092  -0.00001   0.00091   0.00741
   D24       -3.10230   0.00001   0.00070   0.00008   0.00077  -3.10152
   D25       -3.14010   0.00000   0.00111  -0.00018   0.00093  -3.13917
   D26        0.03429   0.00000   0.00088  -0.00009   0.00079   0.03509
   D27        0.00369   0.00000   0.00003   0.00001   0.00004   0.00373
   D28       -3.13788   0.00000   0.00007  -0.00000   0.00006  -3.13781
   D29       -3.13882  -0.00000  -0.00009   0.00004  -0.00005  -3.13887
   D30        0.00280  -0.00000  -0.00005   0.00002  -0.00003   0.00277
   D31        1.07291  -0.00000   0.00022  -0.00008   0.00014   1.07305
   D32       -1.06975   0.00000   0.00017   0.00003   0.00020  -1.06955
   D33       -3.13971   0.00000   0.00020  -0.00004   0.00017  -3.13954
   D34        2.93804  -0.00000   0.00004   0.00014   0.00018   2.93822
   D35        0.80244  -0.00000   0.00013   0.00007   0.00020   0.80263
   D36       -1.25973   0.00000   0.00019   0.00011   0.00030  -1.25943
   D37       -0.23202  -0.00000   0.00024   0.00005   0.00030  -0.23172
   D38       -2.36763  -0.00000   0.00033  -0.00001   0.00031  -2.36731
   D39        1.85340   0.00000   0.00039   0.00003   0.00042   1.85381
   D40        3.09012   0.00000   0.00039  -0.00008   0.00030   3.09043
   D41        0.02360  -0.00000   0.00010  -0.00010  -0.00000   0.02359
   D42       -0.02321   0.00000   0.00019  -0.00000   0.00019  -0.02302
   D43       -3.08974  -0.00000  -0.00010  -0.00002  -0.00012  -3.08986
   D44        0.37848   0.00000  -0.00056  -0.00007  -0.00063   0.37785
   D45       -1.67638  -0.00000  -0.00072  -0.00004  -0.00076  -1.67714
   D46        2.49645   0.00000  -0.00068  -0.00001  -0.00069   2.49576
   D47        2.49842   0.00000  -0.00081   0.00011  -0.00070   2.49772
   D48        0.44356   0.00000  -0.00097   0.00015  -0.00083   0.44273
   D49       -1.66679   0.00000  -0.00093   0.00017  -0.00076  -1.66755
   D50       -1.64814  -0.00000  -0.00081  -0.00001  -0.00083  -1.64897
   D51        2.58018  -0.00000  -0.00097   0.00002  -0.00095   2.57923
   D52        0.46983  -0.00000  -0.00093   0.00005  -0.00089   0.46894
   D53        0.26751  -0.00000  -0.00054  -0.00005  -0.00059   0.26692
   D54       -1.82213  -0.00001  -0.00066  -0.00010  -0.00076  -1.82290
   D55        2.38677  -0.00000  -0.00063  -0.00004  -0.00066   2.38611
   D56       -2.94641   0.00000  -0.00027  -0.00002  -0.00030  -2.94671
   D57        1.24714  -0.00001  -0.00039  -0.00008  -0.00047   1.24666
   D58       -0.82715   0.00000  -0.00036  -0.00001  -0.00037  -0.82752
   D59       -0.38328  -0.00000   0.00064   0.00008   0.00071  -0.38257
   D60        1.67042   0.00000   0.00077   0.00012   0.00089   1.67131
   D61       -2.50647   0.00000   0.00075   0.00003   0.00078  -2.50569
   D62        1.64565   0.00000   0.00074   0.00011   0.00085   1.64650
   D63       -2.58383   0.00001   0.00087   0.00015   0.00102  -2.58281
   D64       -0.47754   0.00000   0.00085   0.00006   0.00091  -0.47662
   D65       -2.44527   0.00000   0.00073   0.00009   0.00082  -2.44445
   D66       -0.39157   0.00001   0.00086   0.00013   0.00100  -0.39058
   D67        1.71472   0.00000   0.00084   0.00005   0.00089   1.71561
         Item               Value     Threshold  Converged?
 Maximum Force            0.000048     0.000450     YES
 RMS     Force            0.000007     0.000300     YES
 Maximum Displacement     0.002422     0.001800     NO 
 RMS     Displacement     0.000491     0.001200     YES
 Predicted change in Energy=-3.589622D-08
 Lowest energy point so far.  Saving SCF results.
 GradGradGradGradGradGradGradGradGradGradGradGradGradGradGradGradGradGrad

 Leave Link  103 at Wed Jul  8 17:50:33 2026, MaxMem=  4026531840 cpu:               0.2 elap:               0.0
 (Enter /opt/packages/gaussian/g16RevC.01/g16/l202.exe)
                          Input orientation:                          
 ---------------------------------------------------------------------
 Center     Atomic      Atomic             Coordinates (Angstroms)
 Number     Number       Type             X           Y           Z
 ---------------------------------------------------------------------
      1          6           0       -2.479904    0.266512   -0.011616
      2          6           0       -1.847655   -0.981546    0.042036
      3          6           0       -0.461485   -1.039402    0.050382
      4          6           0        0.320564    0.125240    0.010817
      5          6           0       -0.335980    1.374489   -0.034860
      6          6           0       -1.711574    1.444190   -0.048116
      7          1           0       -2.219762    2.402718   -0.086725
      8          1           0       -2.417498   -1.902770    0.074572
      9          1           0        0.011198   -2.015125    0.093464
     10          1           0        0.221203    2.306020   -0.061516
     11          8           0       -3.812489    0.439896   -0.031218
     12          6           0       -4.659251   -0.709926   -0.002780
     13          1           0       -4.504501   -1.281983    0.917691
     14          1           0       -4.482670   -1.341750   -0.879216
     15          1           0       -5.677375   -0.321460   -0.028219
     16          6           0        1.762783    0.003479    0.024303
     17          6           0        2.531362   -1.286702    0.069105
     18          7           0        2.595766    1.001934    0.034076
     19          6           0        4.013534    0.628602    0.114887
     20          6           0        3.977550   -0.861368   -0.236069
     21          1           0        2.139242   -2.018281   -0.640249
     22          1           0        2.420072   -1.706583    1.077177
     23          1           0        4.362438    0.822893    1.133842
     24          1           0        4.590610    1.237954   -0.582121
     25          1           0        4.188270   -0.998999   -1.300194
     26          1           0        4.707941   -1.432494    0.338689
     27          1           0        2.314252    1.977513    0.053056
 ---------------------------------------------------------------------
                    Distance matrix (angstroms):
                    1          2          3          4          5
     1  C    0.000000
     2  C    1.400095   0.000000
     3  C    2.404843   1.387401   0.000000
     4  C    2.804118   2.434568   1.403409   0.000000
     5  C    2.413413   2.800353   2.418655   1.412005   0.000000
     6  C    1.406623   2.431222   2.782204   2.423363   1.377423
     7  H    2.153298   3.407093   3.867625   3.413162   2.146760
     8  H    2.171891   1.083713   2.138217   3.407913   3.883957
     9  H    3.379719   2.127502   1.085044   2.164186   3.409763
    10  H    3.384975   3.885741   3.416202   2.184240   1.085777
    11  O    1.343960   2.426198   3.663906   4.145226   3.599944
    12  C    2.388109   2.825042   4.211011   5.049380   4.799634
    13  H    2.713014   2.813515   4.142106   5.107244   5.033961
    14  H    2.711145   2.814561   4.138295   5.100516   5.028511
    15  H    3.251125   3.886825   5.265655   6.014677   5.604176
    16  C    4.250984   3.742439   2.456756   1.447413   2.507583
    17  C    5.247073   4.389720   3.003105   2.623854   3.913361
    18  N    5.128875   4.866029   3.676154   2.438376   2.956126
    19  C    6.504756   6.078768   4.776212   3.728570   4.415546
    20  C    6.559055   5.833077   4.451829   3.795773   4.862723
    21  H    5.191528   4.175605   2.863382   2.885509   4.243125
    22  H    5.393361   4.450920   3.130945   2.983394   4.280824
    23  H    6.959833   6.558452   5.283206   4.252605   4.872910
    24  H    7.159702   6.838640   5.577641   4.452303   4.958772
    25  H    6.908437   6.183387   4.842098   4.235778   5.263397
    26  H    7.394217   6.577780   5.192361   4.667239   5.784447
    27  H    5.090740   5.106624   4.099573   2.721671   2.719392
                    6          7          8          9         10
     6  C    0.000000
     7  H    1.085597   0.000000
     8  H    3.422795   4.313043   0.000000
     9  H    3.867151   4.952473   2.431367   0.000000
    10  H    2.116260   2.443009   4.969424   4.329020   0.000000
    11  O    2.328677   2.528346   2.728603   4.545686   4.444548
    12  C    3.651174   3.955592   2.540535   4.850351   5.737439
    13  H    4.020602   4.450383   2.334910   4.648482   6.013725
    14  H    4.016361   4.446328   2.342945   4.646976   6.008433
    15  H    4.341140   4.402234   3.624625   5.936597   6.457397
    16  C    3.761921   4.650735   4.594677   2.673498   2.772279
    17  C    5.047180   6.017415   4.987061   2.623436   4.273353
    18  N    4.330765   5.016582   5.794114   3.973180   2.710780
    19  C    5.785207   6.483989   6.911414   4.796712   4.150497
    20  C    6.141421   7.005942   6.486729   4.143874   4.916600
    21  H    5.212304   6.233180   4.613913   2.250981   4.765856
    22  H    5.316405   6.306273   4.944269   2.620222   4.715149
    23  H    6.219056   6.878298   7.383686   5.298115   4.558330
    24  H    6.328129   6.926994   7.707721   5.657734   4.528080
    25  H    6.507307   7.355750   6.807566   4.519151   5.309905
    26  H    7.045219   7.929873   7.145824   4.739091   5.853842
    27  H    4.062258   4.556052   6.119355   4.609430   2.121767
                   11         12         13         14         15
    11  O    0.000000
    12  C    1.428253   0.000000
    13  H    2.084269   1.094744   0.000000
    14  H    2.083868   1.094770   1.798033   0.000000
    15  H    2.014317   1.090014   1.786893   1.786759   0.000000
    16  C    5.592602   6.461594   6.459830   6.452260   7.447436
    17  C    6.575382   7.214066   7.086853   7.078063   8.265865
    18  N    6.433186   7.454334   7.510715   7.512071   8.378551
    19  C    7.829661   8.776258   8.766513   8.778155   9.738420
    20  C    7.900630   8.641278   8.570488   8.498218   9.672243
    21  H    6.468126   6.952529   6.863573   6.660669   8.022050
    22  H    6.684365   7.230246   6.939412   7.183900   8.289097
    23  H    8.266407   9.221297   9.115911   9.325985  10.171420
    24  H    8.458869   9.470470   9.556179   9.437560  10.400485
    25  H    8.227568   8.946814   8.975710   8.687917   9.970353
    26  H    8.731575   9.401223   9.231846   9.271400  10.451020
    27  H    6.317303   7.473633   7.607055   7.621337   8.316128
                   16         17         18         19         20
    16  C    0.000000
    17  C    1.502427   0.000000
    18  N    1.300334   2.289810   0.000000
    19  C    2.337705   2.422256   1.468324   0.000000
    20  C    2.391849   1.538018   2.335422   1.531168   0.000000
    21  H    2.161218   1.091856   3.128071   3.330044   2.209341
    22  H    2.113028   1.097677   2.907747   2.986338   2.205616
    23  H    2.942911   2.989464   2.088701   1.094419   2.204888
    24  H    3.144564   3.322422   2.101144   1.090938   2.214215
    25  H    2.939769   2.168663   2.884454   2.163809   1.093484
    26  H    3.291628   2.198051   3.237362   2.186414   1.090873
    27  H    2.049818   3.271467   1.015561   2.170471   3.302937
                   21         22         23         24         25
    21  H    0.000000
    22  H    1.767929   0.000000
    23  H    4.020233   3.189709   0.000000
    24  H    4.076230   4.016815   1.780131   0.000000
    25  H    2.381802   3.046160   3.045350   2.383582   0.000000
    26  H    2.810637   2.419676   2.416280   2.827181   1.773108
    27  H    4.059270   3.825256   2.587723   2.476328   3.768667
                   26         27
    26  H    0.000000
    27  H    4.176060   0.000000
 Stoichiometry    C11H14NO(1+)
 Framework group  C1[X(C11H14NO)]
 Deg. of freedom    75
 Full point group                 C1      NOp   1
 RotChk:  IX=0 Diff= 4.94D-05
 Largest Abelian subgroup         C1      NOp   1
 Largest concise Abelian subgroup C1      NOp   1
                         Standard orientation:                         
 ---------------------------------------------------------------------
 Center     Atomic      Atomic             Coordinates (Angstroms)
 Number     Number       Type             X           Y           Z
 ---------------------------------------------------------------------
      1          6           0       -2.479736    0.266029   -0.011030
      2          6           0       -1.847460   -0.982069    0.041353
      3          6           0       -0.461290   -1.039904    0.049654
      4          6           0        0.320734    0.124796    0.011289
      5          6           0       -0.335837    1.374077   -0.033117
      6          6           0       -1.711432    1.443761   -0.046316
      7          1           0       -2.219641    2.402316   -0.083951
      8          1           0       -2.417283   -1.903339    0.072940
      9          1           0        0.011415   -2.015659    0.091744
     10          1           0        0.221326    2.305647   -0.058814
     11          8           0       -3.812325    0.439403   -0.030469
     12          6           0       -4.659062   -0.710466   -0.003217
     13          1           0       -4.504309   -1.283461    0.916670
     14          1           0       -4.482457   -1.341389   -0.880296
     15          1           0       -5.677195   -0.321997   -0.028270
     16          6           0        1.762956    0.003053    0.024667
     17          6           0        2.531563   -1.287156    0.068158
     18          7           0        2.595917    1.001516    0.035470
     19          6           0        4.013692    0.628133    0.115915
     20          6           0        3.977745   -0.861478   -0.236565
     21          1           0        2.139467   -2.018018   -0.641948
     22          1           0        2.420272   -1.708071    1.075799
     23          1           0        4.362580    0.821390    1.135072
     24          1           0        4.590762    1.238211   -0.580463
     25          1           0        4.188480   -0.998015   -1.300828
     26          1           0        4.708143   -1.433175    0.337616
     27          1           0        2.314381    1.977069    0.055445
 ---------------------------------------------------------------------
 Rotational constants (GHZ):           2.8662956           0.3539655           0.3181189
 Leave Link  202 at Wed Jul  8 17:50:33 2026, MaxMem=  4026531840 cpu:               0.0 elap:               0.0
 (Enter /opt/packages/gaussian/g16RevC.01/g16/l301.exe)
 Standard basis: 6-31+G(d) (6D, 7F)
 Ernie: Thresh=  0.10000D-02 Tol=  0.10000D-05 Strict=F.
 There are   275 symmetry adapted cartesian basis functions of A   symmetry.
 There are   275 symmetry adapted basis functions of A   symmetry.
   275 basis functions,   472 primitive gaussians,   275 cartesian basis functions
    47 alpha electrons       47 beta electrons
       nuclear repulsion energy       757.6656395220 Hartrees.
 IExCor= 4639 DFT=T Ex+Corr=wB97XD ExCW=0 ScaHFX=  1.000000
 ScaDFX=  1.000000  1.000000  1.000000  1.000000 ScalE2=  1.000000  1.000000
 IRadAn=      5 IRanWt=     -1 IRanGd=            0 ICorTp=0 IEmpDi=121
 HFx  wShort=  0.000000 wLong=  0.200000 cFull=  0.222036 cShort=  0.000000 cLong=  0.777964
 DFx  wShort=  0.000000 wLong=  0.200000 cFull=  0.000000 cShort=  0.000000 cLong=  1.000000
 NAtoms=   27 NActive=   27 NUniq=   27 SFac= 1.00D+00 NAtFMM=   60 NAOKFM=F Big=F
 Integral buffers will be    131072 words long.
 Raffenetti 2 integral format.
 Two-electron integral symmetry is turned on.
 R6Disp:  Grimme-D2 Dispersion energy=       -0.0166020618 Hartrees.
 Nuclear repulsion after empirical dispersion term =      757.6490374602 Hartrees.
 ------------------------------------------------------------------------------
 Polarizable Continuum Model (PCM)
 =================================
 Model                : PCM.
 Atomic radii         : SMD-Coulomb.
 Polarization charges : Total charges.
 Charge compensation  : None.
 Solution method      : On-the-fly selection.
 Cavity type          : VdW (van der Waals Surface) (Alpha=1.000).
 Cavity algorithm     : GePol (No added spheres)
                        Default sphere list used, NSphG=   27.
                        Lebedev-Laikov grids with approx.  5.0 points / Ang**2.
                        Smoothing algorithm: York/Karplus (Gamma=1.0000).
                        Polarization charges: spherical gaussians, with
                                              point-specific exponents (IZeta= 3).
                        Self-potential: point-specific (ISelfS= 7).
                        Self-field    : sphere-specific E.n sum rule (ISelfD= 2).
 1st derivatives      : Analytical E(r).r(x)/FMM algorithm (CHGder, D1EAlg=3).
                        Cavity 1st derivative terms included.
 Solvent              : Methanol, Eps=  32.613000 Eps(inf)=   1.765709
 ------------------------------------------------------------------------------
 GePol: Number of generator spheres                  =      27
 GePol: Total number of spheres                      =      27
 GePol: Number of exposed spheres                    =      27 (100.00%)
 GePol: Number of points                             =    1983
 GePol: Average weight of points                     =       0.11
 GePol: Minimum weight of points                     =   0.11D-11
 GePol: Maximum weight of points                     =    0.21991
 GePol: Number of points with low weight             =     122
 GePol: Fraction of low-weight points (<1% of avg)   =       6.15%
 GePol: Cavity surface area                          =    215.104 Ang**2
 GePol: Cavity volume                                =    191.299 Ang**3
 ------------------------------------------------------------------------------
 Atomic radii for non-electrostatic terms: SMD-CDS.
 ------------------------------------------------------------------------------
 PCM non-electrostatic energy =        -0.0004812139 Hartrees.
 Nuclear repulsion after PCM non-electrostatic terms =      757.6485562463 Hartrees.
 Leave Link  301 at Wed Jul  8 17:50:33 2026, MaxMem=  4026531840 cpu:               0.4 elap:               0.1
 (Enter /opt/packages/gaussian/g16RevC.01/g16/l302.exe)
 NPDir=0 NMtPBC=     1 NCelOv=     1 NCel=       1 NClECP=     1 NCelD=      1
         NCelK=      1 NCelE2=     1 NClLst=     1 CellRange=     0.0.
 One-electron integrals computed using PRISM.
 One-electron integral symmetry used in STVInt
 NBasis=   275 RedAO= T EigKep=  2.09D-06  NBF=   275
 NBsUse=   273 1.00D-06 EigRej=  8.36D-07 NBFU=   273
 Precomputing XC quadrature grid using
 IXCGrd= 4 IRadAn=           5 IRanWt=          -1 IRanGd=           0 AccXCQ= 0.00D+00.
 Generated NRdTot=       0 NPtTot=           0 NUsed=           0 NTot=          32
 NSgBfM=   274   274   274   274   274 MxSgAt=    27 MxSgA2=    27.
 Leave Link  302 at Wed Jul  8 17:50:34 2026, MaxMem=  4026531840 cpu:               1.4 elap:               0.2
 (Enter /opt/packages/gaussian/g16RevC.01/g16/l303.exe)
 DipDrv:  MaxL=1.
 Leave Link  303 at Wed Jul  8 17:50:34 2026, MaxMem=  4026531840 cpu:               0.1 elap:               0.0
 (Enter /opt/packages/gaussian/g16RevC.01/g16/l401.exe)
 Initial guess from the checkpoint file:  "iminium_ground_opt_wb97.chk"
 B after Tr=    -0.000000   -0.000000   -0.000000
         Rot=    1.000000   -0.000013    0.000001   -0.000000 Ang=  -0.00 deg.
 Guess basis will be translated and rotated to current coordinates.
 JPrj=2 DoOrth=T DoCkMO=T.
 Leave Link  401 at Wed Jul  8 17:50:34 2026, MaxMem=  4026531840 cpu:               0.6 elap:               0.1
 (Enter /opt/packages/gaussian/g16RevC.01/g16/l502.exe)
 Integral symmetry usage will be decided dynamically.
 Closed shell SCF:
 Using DIIS extrapolation, IDIIS=  1040.
 NGot=  4026531840 LenX=  4026374748 LenY=  4026298682
 Requested convergence on RMS density matrix=1.00D-08 within 128 cycles.
 Requested convergence on MAX density matrix=1.00D-06.
 Requested convergence on             energy=1.00D-06.
 No special actions if energy rises.
 Fock matrices will be formed incrementally for  20 cycles.

 Cycle   1  Pass 1  IDiag  1:
 FoFJK:  IHMeth= 1 ICntrl=       0 DoSepK=T KAlg= 0 I1Cent=           0 FoldK=F
 IRaf=         1 NMat=       1 IRICut=       1 DoRegI=T DoRafI=F ISym2E= 0 IDoP0=0 IntGTp=1.
 FoFCou: FMM=F IPFlag=           0 FMFlag=      100000 FMFlg1=           0
         NFxFlg=           0 DoJE=T BraDBF=F KetDBF=F FulRan=T
         wScrn=  0.000000 ICntrl=       500 IOpCl=  0 I1Cent=           0 NGrid=           0
         NMat0=    1 NMatS0=      1 NMatT0=    0 NMatD0=    1 NMtDS0=    0 NMtDT0=    0
 Symmetry not used in FoFCou.
 Inv3:  Mode=1 IEnd=    11796867.
 Iteration    1 A*A^-1 deviation from unit magnitude is 3.55D-15 for   1221.
 Iteration    1 A*A^-1 deviation from orthogonality  is 2.84D-15 for    737    624.
 Iteration    1 A^-1*A deviation from unit magnitude is 3.11D-15 for   1221.
 Iteration    1 A^-1*A deviation from orthogonality  is 1.15D-13 for   1313   1221.
 E= -557.278948259016    
 DIIS: error= 6.43D-05 at cycle   1 NSaved=   1.
 NSaved= 1 IEnMin= 1 EnMin= -557.278948259016     IErMin= 1 ErrMin= 6.43D-05
 ErrMax= 6.43D-05  0.00D+00 EMaxC= 1.00D-01 BMatC= 7.39D-07 BMatP= 7.39D-07
 IDIUse=1 WtCom= 1.00D+00 WtEn= 0.00D+00
 Coeff-Com:  0.100D+01
 Coeff:      0.100D+01
 Gap=     0.562 Goal=   None    Shift=    0.000
 RMSDP=2.35D-05 MaxDP=8.23D-04              OVMax= 2.37D-04

 Cycle   2  Pass 1  IDiag  1:
 RMSU=  2.32D-05    CP:  1.00D+00
 E= -557.278949261186     Delta-E=       -0.000001002170 Rises=F Damp=F
 DIIS: error= 6.90D-06 at cycle   2 NSaved=   2.
 NSaved= 2 IEnMin= 2 EnMin= -557.278949261186     IErMin= 2 ErrMin= 6.90D-06
 ErrMax= 6.90D-06  0.00D+00 EMaxC= 1.00D-01 BMatC= 1.88D-08 BMatP= 7.39D-07
 IDIUse=1 WtCom= 1.00D+00 WtEn= 0.00D+00
 Coeff-Com: -0.111D+00 0.111D+01
 Coeff:     -0.111D+00 0.111D+01
 Gap=     0.298 Goal=   None    Shift=    0.000
 RMSDP=5.57D-06 MaxDP=1.66D-04 DE=-1.00D-06 OVMax= 4.96D-05

 Cycle   3  Pass 1  IDiag  1:
 RMSU=  3.60D-06    CP:  1.00D+00  1.17D+00
 E= -557.278949315037     Delta-E=       -0.000000053851 Rises=F Damp=F
 DIIS: error= 1.92D-06 at cycle   3 NSaved=   3.
 NSaved= 3 IEnMin= 3 EnMin= -557.278949315037     IErMin= 3 ErrMin= 1.92D-06
 ErrMax= 1.92D-06  0.00D+00 EMaxC= 1.00D-01 BMatC= 1.02D-09 BMatP= 1.88D-08
 IDIUse=1 WtCom= 1.00D+00 WtEn= 0.00D+00
 Coeff-Com: -0.338D-02-0.103D+00 0.111D+01
 Coeff:     -0.338D-02-0.103D+00 0.111D+01
 Gap=     0.298 Goal=   None    Shift=    0.000
 RMSDP=1.81D-06 MaxDP=6.68D-05 DE=-5.39D-08 OVMax= 1.61D-05

 Cycle   4  Pass 1  IDiag  1:
 RMSU=  1.26D-06    CP:  1.00D+00  1.18D+00  1.35D+00
 E= -557.278949317867     Delta-E=       -0.000000002830 Rises=F Damp=F
 DIIS: error= 8.01D-07 at cycle   4 NSaved=   4.
 NSaved= 4 IEnMin= 4 EnMin= -557.278949317867     IErMin= 4 ErrMin= 8.01D-07
 ErrMax= 8.01D-07  0.00D+00 EMaxC= 1.00D-01 BMatC= 5.13D-10 BMatP= 1.02D-09
 IDIUse=1 WtCom= 1.00D+00 WtEn= 0.00D+00
 Coeff-Com:  0.575D-02-0.121D+00 0.501D+00 0.614D+00
 Coeff:      0.575D-02-0.121D+00 0.501D+00 0.614D+00
 Gap=     0.298 Goal=   None    Shift=    0.000
 RMSDP=4.12D-07 MaxDP=1.50D-05 DE=-2.83D-09 OVMax= 4.76D-06

 Cycle   5  Pass 1  IDiag  1:
 RMSU=  3.48D-07    CP:  1.00D+00  1.18D+00  1.38D+00  8.56D-01
 E= -557.278949318408     Delta-E=       -0.000000000541 Rises=F Damp=F
 DIIS: error= 2.41D-07 at cycle   5 NSaved=   5.
 NSaved= 5 IEnMin= 5 EnMin= -557.278949318408     IErMin= 5 ErrMin= 2.41D-07
 ErrMax= 2.41D-07  0.00D+00 EMaxC= 1.00D-01 BMatC= 3.15D-11 BMatP= 5.13D-10
 IDIUse=1 WtCom= 1.00D+00 WtEn= 0.00D+00
 Coeff-Com:  0.189D-02-0.181D-01-0.206D-01 0.158D+00 0.879D+00
 Coeff:      0.189D-02-0.181D-01-0.206D-01 0.158D+00 0.879D+00
 Gap=     0.298 Goal=   None    Shift=    0.000
 RMSDP=1.86D-07 MaxDP=6.81D-06 DE=-5.41D-10 OVMax= 2.64D-06

 Cycle   6  Pass 1  IDiag  1:
 RMSU=  1.06D-07    CP:  1.00D+00  1.18D+00  1.39D+00  8.99D-01  1.33D+00
 E= -557.278949318463     Delta-E=       -0.000000000055 Rises=F Damp=F
 DIIS: error= 1.01D-07 at cycle   6 NSaved=   6.
 NSaved= 6 IEnMin= 6 EnMin= -557.278949318463     IErMin= 6 ErrMin= 1.01D-07
 ErrMax= 1.01D-07  0.00D+00 EMaxC= 1.00D-01 BMatC= 5.36D-12 BMatP= 3.15D-11
 IDIUse=1 WtCom= 1.00D+00 WtEn= 0.00D+00
 Coeff-Com:  0.269D-05 0.828D-02-0.703D-01-0.157D-01 0.332D+00 0.745D+00
 Coeff:      0.269D-05 0.828D-02-0.703D-01-0.157D-01 0.332D+00 0.745D+00
 Gap=     0.298 Goal=   None    Shift=    0.000
 RMSDP=7.35D-08 MaxDP=3.18D-06 DE=-5.46D-11 OVMax= 1.03D-06

 Cycle   7  Pass 1  IDiag  1:
 RMSU=  2.82D-08    CP:  1.00D+00  1.18D+00  1.40D+00  9.44D-01  1.41D+00
                    CP:  9.98D-01
 E= -557.278949318475     Delta-E=       -0.000000000012 Rises=F Damp=F
 DIIS: error= 3.08D-08 at cycle   7 NSaved=   7.
 NSaved= 7 IEnMin= 7 EnMin= -557.278949318475     IErMin= 7 ErrMin= 3.08D-08
 ErrMax= 3.08D-08  0.00D+00 EMaxC= 1.00D-01 BMatC= 4.44D-13 BMatP= 5.36D-12
 IDIUse=1 WtCom= 1.00D+00 WtEn= 0.00D+00
 Coeff-Com: -0.238D-03 0.487D-02-0.178D-01-0.246D-01-0.153D-01 0.212D+00
 Coeff-Com:  0.841D+00
 Coeff:     -0.238D-03 0.487D-02-0.178D-01-0.246D-01-0.153D-01 0.212D+00
 Coeff:      0.841D+00
 Gap=     0.298 Goal=   None    Shift=    0.000
 RMSDP=1.78D-08 MaxDP=4.79D-07 DE=-1.17D-11 OVMax= 4.20D-07

 Cycle   8  Pass 1  IDiag  1:
 RMSU=  1.03D-08    CP:  1.00D+00  1.18D+00  1.40D+00  9.43D-01  1.44D+00
                    CP:  1.03D+00  1.03D+00
 E= -557.278949318467     Delta-E=        0.000000000008 Rises=F Damp=F
 DIIS: error= 1.11D-08 at cycle   8 NSaved=   8.
 NSaved= 8 IEnMin= 7 EnMin= -557.278949318475     IErMin= 8 ErrMin= 1.11D-08
 ErrMax= 1.11D-08  0.00D+00 EMaxC= 1.00D-01 BMatC= 4.12D-14 BMatP= 4.44D-13
 IDIUse=1 WtCom= 1.00D+00 WtEn= 0.00D+00
 Coeff-Com: -0.669D-04 0.658D-03 0.103D-02-0.545D-02-0.325D-01-0.136D-02
 Coeff-Com:  0.223D+00 0.815D+00
 Coeff:     -0.669D-04 0.658D-03 0.103D-02-0.545D-02-0.325D-01-0.136D-02
 Coeff:      0.223D+00 0.815D+00
 Gap=     0.298 Goal=   None    Shift=    0.000
 RMSDP=7.10D-09 MaxDP=3.83D-07 DE= 8.19D-12 OVMax= 1.44D-07

 Error on total polarization charges =  0.04777
 SCF Done:  E(RwB97XD) =  -557.278949318     A.U. after    8 cycles
            NFock=  8  Conv=0.71D-08     -V/T= 2.0095
 KE= 5.520157356343D+02 PE=-2.793316448515D+03 EE= 9.263732073158D+02
 SMD-CDS (non-electrostatic) energy       (kcal/mol) =      -0.30
 (included in total energy above)
 Leave Link  502 at Wed Jul  8 17:50:54 2026, MaxMem=  4026531840 cpu:             158.4 elap:              20.0
 (Enter /opt/packages/gaussian/g16RevC.01/g16/l701.exe)
 ... and contract with generalized density number  0.
 Compute integral first derivatives.
 R6Disp: Adding Grimme-D2 dispersion energy 1st derivatives to the gradient.
 D1PCM: PCM CHGder 1st derivatives, ID1Alg=3 FixD1E=F DoIter=F DoCFld=F I1PDM=0.
 GePol: Maximum number of non-zero 1st derivatives   =     257
 Leave Link  701 at Wed Jul  8 17:50:55 2026, MaxMem=  4026531840 cpu:               6.4 elap:               0.8
 (Enter /opt/packages/gaussian/g16RevC.01/g16/l702.exe)
 L702 exits ... SP integral derivatives will be done elsewhere.
 Leave Link  702 at Wed Jul  8 17:50:55 2026, MaxMem=  4026531840 cpu:               0.1 elap:               0.1
 (Enter /opt/packages/gaussian/g16RevC.01/g16/l703.exe)
 Integral derivatives from FoFJK, PRISM(SPDF).
 Compute integral first derivatives, UseDBF=F ICtDFT=           0.
 Calling FoFJK, ICntrl=      2127 FMM=F ISym2X=0 I1Cent= 0 IOpClX= 0 NMat=1 NMatS=1 NMatT=0.
 FoFJK:  IHMeth= 1 ICntrl=    2127 DoSepK=T KAlg= 0 I1Cent=           0 FoldK=F
 IRaf=         1 NMat=       1 IRICut=       1 DoRegI=T DoRafI=F ISym2E= 0 IDoP0=0 IntGTp=1.
 FoFCou: FMM=F IPFlag=           0 FMFlag=      100000 FMFlg1=         800
         NFxFlg=           0 DoJE=F BraDBF=F KetDBF=F FulRan=T
         wScrn=  0.000000 ICntrl=      2527 IOpCl=  0 I1Cent=           0 NGrid=           0
         NMat0=    1 NMatS0=      1 NMatT0=    0 NMatD0=    1 NMtDS0=    0 NMtDT0=    0
 Symmetry not used in FoFCou.
 Leave Link  703 at Wed Jul  8 17:51:03 2026, MaxMem=  4026531840 cpu:              64.3 elap:               8.1
 (Enter /opt/packages/gaussian/g16RevC.01/g16/l716.exe)
 Dipole        = 2.86022928D+00-1.51997098D-01 1.52495224D-01
 ***** Axes restored to original set *****
 -------------------------------------------------------------------
 Center     Atomic                   Forces (Hartrees/Bohr)
 Number     Number              X              Y              Z
 -------------------------------------------------------------------
      1        6           0.000055089   -0.000019845    0.000004746
      2        6          -0.000009191   -0.000001743    0.000005613
      3        6          -0.000000512   -0.000002511    0.000002306
      4        6          -0.000002207   -0.000001970   -0.000001292
      5        6           0.000010803    0.000001878    0.000000379
      6        6          -0.000015994    0.000016361    0.000001472
      7        1           0.000002677    0.000000476    0.000001882
      8        1          -0.000003336    0.000001838    0.000004975
      9        1           0.000001312   -0.000001194    0.000001858
     10        1           0.000006328    0.000001133   -0.000003258
     11        8          -0.000031740    0.000034077    0.000008478
     12        6          -0.000009786   -0.000013259    0.000007268
     13        1           0.000000600    0.000006451    0.000011260
     14        1          -0.000001639    0.000004686    0.000007648
     15        1          -0.000001046    0.000006406    0.000010630
     16        6           0.000005704    0.000000792   -0.000003675
     17        6           0.000004631    0.000007678   -0.000011147
     18        7          -0.000011575    0.000005233   -0.000000706
     19        6           0.000006983   -0.000017696   -0.000005423
     20        6          -0.000012882    0.000003710   -0.000005478
     21        1          -0.000004141   -0.000005913   -0.000000966
     22        1          -0.000003308   -0.000004448    0.000001781
     23        1           0.000003553    0.000001097   -0.000009303
     24        1           0.000000911   -0.000002896   -0.000011120
     25        1           0.000001274   -0.000006013   -0.000006696
     26        1           0.000001060   -0.000007231   -0.000006094
     27        1           0.000006434   -0.000007097   -0.000005136
 -------------------------------------------------------------------
 Cartesian Forces:  Max     0.000055089 RMS     0.000010509
 Leave Link  716 at Wed Jul  8 17:51:03 2026, MaxMem=  4026531840 cpu:               0.1 elap:               0.0
 (Enter /opt/packages/gaussian/g16RevC.01/g16/l103.exe)

 GradGradGradGradGradGradGradGradGradGradGradGradGradGradGradGradGradGrad
 Berny optimization.
 Using GEDIIS/GDIIS optimizer.
 FormGI is forming the generalized inverse of G from B-inverse, IUseBI=4.
 GSVD:  received Info=                   1 from GESDD.
 Internal  Forces:  Max     0.000042476 RMS     0.000004775
 Search for a local minimum.
 Step number   6 out of a maximum of  154
 All quantities printed in internal units (Hartrees-Bohrs-Radians)
 RMS Force = .47748D-05 SwitMx=.10000D-02 MixMth= 2
 Mixed Optimization -- En-DIIS/RFO-DIIS
 Swapping is turned off.
 Update second derivatives using D2CorX and points    1    2    3    4    5
                                                      6
 DE= -4.36D-08 DEPred=-3.59D-08 R= 1.22D+00
 Trust test= 1.22D+00 RLast= 4.29D-03 DXMaxT set to 3.00D-01
 ITU=  0  0  0  1  1  0
     Eigenvalues ---    0.00199   0.01037   0.01203   0.01308   0.01371
     Eigenvalues ---    0.01848   0.01860   0.02011   0.02103   0.02139
     Eigenvalues ---    0.02167   0.02183   0.02196   0.02215   0.02273
     Eigenvalues ---    0.02368   0.03356   0.03638   0.04945   0.05243
     Eigenvalues ---    0.05613   0.05798   0.06936   0.07520   0.08328
     Eigenvalues ---    0.08451   0.09438   0.10350   0.10710   0.10934
     Eigenvalues ---    0.15399   0.15978   0.15981   0.16000   0.16008
     Eigenvalues ---    0.16057   0.16139   0.17059   0.21590   0.21956
     Eigenvalues ---    0.22652   0.22766   0.24356   0.24923   0.25479
     Eigenvalues ---    0.26865   0.27622   0.28766   0.31104   0.33848
     Eigenvalues ---    0.34063   0.34302   0.34350   0.34410   0.34565
     Eigenvalues ---    0.34665   0.34708   0.34730   0.34863   0.35108
     Eigenvalues ---    0.35390   0.35495   0.35705   0.36917   0.39326
     Eigenvalues ---    0.39969   0.42186   0.43797   0.44969   0.46675
     Eigenvalues ---    0.46787   0.48592   0.50425   0.60514   0.64244
 En-DIIS/RFO-DIIS/Sim-DIIS IScMMF=       -3 using points:     6    5    4    3    2    1
 RFO step:  Lambda=-8.19105344D-09.
 NNeg= 0 NGDIIS= 6 SimSw=  2.50D-01 Rises=F DC= -4.36D-08 SmlDif=  1.00D-05
 NRisDI= 0 DoIntr=F SqrtH=F CThrHd= 10.0 CDAdj=  3.0
 RMS Error=  0.1222291575D-03 NUsed= 6 OKEnD=F EnDIS=F
 InvSVX:  RCond= 9.79D-09 Info=           0 Equed=N FErr=  3.73D-13 BErr=  7.31D-17
 DIIS inversion failure, remove point   6.
 InvSVX:  RCond= 1.17D-08 Info=           0 Equed=N FErr=  3.05D-13 BErr=  3.98D-17
 DIIS inversion failure, remove point   5.
 InvSVX:  RCond= 1.50D-08 Info=           0 Equed=N FErr=  2.79D-13 BErr=  8.05D-17
 DIIS inversion failure, remove point   4.
 InvSVX:  RCond= 2.05D-08 Info=           0 Equed=N FErr=  2.41D-13 BErr=  7.28D-17
 DIIS inversion failure, remove point   3.
 InvSVX:  RCond= 4.60D-06 Info=           0 Equed=N FErr=  1.70D-15 BErr=  3.58D-17
 RFO-DIIS uses    2 points instead of    6
 DidBck=F Rises=F RFO-DIIS coefs:    1.33293   -0.33293    0.00000    0.00000    0.00000
                  RFO-DIIS coefs:    0.00000
 Iteration  1 RMS(Cart)=  0.00014020 RMS(Int)=  0.00000001
 Iteration  2 RMS(Cart)=  0.00000001 RMS(Int)=  0.00000001
 ITry= 1 IFail=0 DXMaxC= 6.49D-04 DCOld= 1.00D+10 DXMaxT= 3.00D-01 DXLimC= 3.00D+00 Rises=F
 Variable       Old X    -DE/DX   Delta X   Delta X   Delta X     New X
                                 (Linear)    (Quad)   (Total)
    R1        2.64580  -0.00000   0.00001  -0.00001  -0.00000   2.64579
    R2        2.65813   0.00001  -0.00000   0.00000   0.00000   2.65813
    R3        2.53972   0.00004   0.00001   0.00008   0.00009   2.53980
    R4        2.62181   0.00000  -0.00001   0.00001  -0.00000   2.62181
    R5        2.04792   0.00000   0.00000  -0.00000   0.00000   2.04792
    R6        2.65206   0.00001   0.00001  -0.00000   0.00001   2.65207
    R7        2.05044   0.00000   0.00000   0.00001   0.00001   2.05044
    R8        2.66830   0.00000   0.00002  -0.00001   0.00001   2.66831
    R9        2.73521  -0.00000   0.00001  -0.00001  -0.00000   2.73521
   R10        2.60295   0.00001  -0.00000   0.00002   0.00001   2.60297
   R11        2.05182   0.00000   0.00000   0.00000   0.00001   2.05183
   R12        2.05148  -0.00000   0.00000  -0.00001  -0.00000   2.05148
   R13        2.69901   0.00002   0.00000   0.00005   0.00005   2.69905
   R14        2.06877   0.00000  -0.00000   0.00000   0.00000   2.06877
   R15        2.06882   0.00000  -0.00000   0.00000   0.00000   2.06882
   R16        2.05983   0.00000  -0.00000   0.00000  -0.00000   2.05983
   R17        2.83918  -0.00000  -0.00001  -0.00002  -0.00003   2.83915
   R18        2.45728  -0.00000  -0.00000  -0.00000  -0.00001   2.45727
   R19        2.90643  -0.00000   0.00000  -0.00002  -0.00001   2.90642
   R20        2.06331   0.00000   0.00001   0.00000   0.00001   2.06332
   R21        2.07431   0.00001  -0.00001   0.00002   0.00001   2.07432
   R22        2.77473   0.00001  -0.00001   0.00002   0.00001   2.77474
   R23        1.91913  -0.00001  -0.00000  -0.00001  -0.00001   1.91912
   R24        2.89349  -0.00000   0.00002  -0.00002   0.00000   2.89349
   R25        2.06815  -0.00000  -0.00001   0.00000  -0.00001   2.06815
   R26        2.06157   0.00000   0.00000   0.00001   0.00001   2.06158
   R27        2.06639   0.00000  -0.00000   0.00000   0.00000   2.06639
   R28        2.06145   0.00000   0.00000   0.00001   0.00001   2.06146
    A1        2.09515   0.00001   0.00001   0.00004   0.00005   2.09520
    A2        2.16919   0.00000  -0.00002   0.00001  -0.00000   2.16918
    A3        2.01885  -0.00001   0.00001  -0.00006  -0.00005   2.01880
    A4        2.08126  -0.00001   0.00000  -0.00003  -0.00003   2.08123
    A5        2.11935   0.00000  -0.00002   0.00001  -0.00001   2.11934
    A6        2.08257   0.00000   0.00002   0.00001   0.00003   2.08261
    A7        2.11997  -0.00000  -0.00000  -0.00001  -0.00001   2.11996
    A8        2.06347   0.00000   0.00002   0.00002   0.00004   2.06351
    A9        2.09973  -0.00000  -0.00002  -0.00001  -0.00003   2.09970
   A10        2.06692   0.00001  -0.00001   0.00003   0.00003   2.06694
   A11        2.07736  -0.00000   0.00000  -0.00002  -0.00001   2.07735
   A12        2.13890  -0.00000   0.00000  -0.00001  -0.00001   2.13889
   A13        2.10533  -0.00000   0.00001  -0.00002  -0.00001   2.10532
   A14        2.11909  -0.00000  -0.00000  -0.00001  -0.00001   2.11908
   A15        2.05877   0.00000  -0.00001   0.00003   0.00002   2.05879
   A16        2.09773  -0.00001  -0.00001  -0.00002  -0.00003   2.09769
   A17        2.07655   0.00000  -0.00000   0.00001   0.00001   2.07655
   A18        2.10891   0.00000   0.00001   0.00002   0.00003   2.10894
   A19        2.07567  -0.00001  -0.00000  -0.00003  -0.00003   2.07564
   A20        1.93223  -0.00000  -0.00001   0.00000  -0.00001   1.93222
   A21        1.93163  -0.00000  -0.00001  -0.00000  -0.00001   1.93162
   A22        1.84044   0.00000  -0.00001  -0.00001  -0.00002   1.84042
   A23        1.92703   0.00000  -0.00001   0.00002   0.00001   1.92704
   A24        1.91547   0.00000   0.00002  -0.00001   0.00001   1.91547
   A25        1.91522   0.00000   0.00002  -0.00000   0.00002   1.91524
   A26        2.19228  -0.00001  -0.00001  -0.00003  -0.00004   2.19224
   A27        2.18190   0.00000  -0.00000   0.00002   0.00002   2.18191
   A28        1.90863   0.00000   0.00001   0.00001   0.00002   1.90865
   A29        1.81071   0.00000   0.00002   0.00000   0.00003   1.81073
   A30        1.95227   0.00000  -0.00003   0.00002  -0.00001   1.95226
   A31        1.87969  -0.00000   0.00004  -0.00004   0.00001   1.87969
   A32        1.97586   0.00000  -0.00000   0.00002   0.00002   1.97588
   A33        1.96421   0.00000   0.00001   0.00001   0.00002   1.96422
   A34        1.87961  -0.00000  -0.00003  -0.00002  -0.00005   1.87956
   A35        2.00834  -0.00000   0.00002  -0.00001   0.00001   2.00835
   A36        2.16540   0.00000  -0.00002   0.00003   0.00001   2.16541
   A37        2.10700  -0.00000   0.00001  -0.00001  -0.00001   2.10699
   A38        1.78453   0.00000   0.00002   0.00000   0.00002   1.78455
   A39        1.89013  -0.00000   0.00001  -0.00002  -0.00001   1.89012
   A40        1.91089   0.00000  -0.00003  -0.00000  -0.00004   1.91086
   A41        1.97539   0.00000   0.00004   0.00003   0.00006   1.97545
   A42        1.99272   0.00000  -0.00002   0.00000  -0.00001   1.99271
   A43        1.90398  -0.00000  -0.00002  -0.00001  -0.00003   1.90395
   A44        1.81906   0.00000   0.00003   0.00001   0.00004   1.81911
   A45        1.91717   0.00000   0.00003   0.00001   0.00004   1.91721
   A46        1.96085  -0.00000  -0.00003  -0.00001  -0.00003   1.96082
   A47        1.91878  -0.00000   0.00001   0.00000   0.00001   1.91879
   A48        1.95300   0.00000  -0.00002   0.00001  -0.00001   1.95298
   A49        1.89422  -0.00000  -0.00002  -0.00002  -0.00004   1.89417
    D1       -0.00676   0.00000   0.00001   0.00002   0.00003  -0.00672
    D2        3.13764   0.00000   0.00000   0.00004   0.00004   3.13768
    D3        3.13550   0.00000   0.00001   0.00001   0.00002   3.13552
    D4       -0.00330   0.00000   0.00001   0.00002   0.00003  -0.00327
    D5        0.00303  -0.00000  -0.00002  -0.00001  -0.00003   0.00300
    D6       -3.13861  -0.00000  -0.00003  -0.00002  -0.00005  -3.13867
    D7       -3.13917  -0.00000  -0.00002   0.00000  -0.00002  -3.13919
    D8        0.00237  -0.00000  -0.00003  -0.00000  -0.00004   0.00233
    D9       -0.00563  -0.00000  -0.00009  -0.00001  -0.00011  -0.00573
   D10        3.13660  -0.00000  -0.00009  -0.00003  -0.00012   3.13648
   D11        0.00382  -0.00000   0.00001  -0.00001   0.00000   0.00382
   D12        3.14031  -0.00000  -0.00000  -0.00000  -0.00001   3.14030
   D13       -3.14051  -0.00000   0.00001  -0.00002  -0.00000  -3.14052
   D14       -0.00403  -0.00000   0.00000  -0.00001  -0.00001  -0.00404
   D15        0.00278  -0.00000  -0.00002  -0.00002  -0.00004   0.00274
   D16        3.13960  -0.00000  -0.00001  -0.00004  -0.00005   3.13955
   D17       -3.13360  -0.00000  -0.00000  -0.00003  -0.00003  -3.13363
   D18        0.00322  -0.00000   0.00000  -0.00004  -0.00004   0.00318
   D19       -0.00658   0.00000   0.00001   0.00003   0.00004  -0.00655
   D20        3.13605   0.00000   0.00004   0.00003   0.00007   3.13612
   D21        3.13997   0.00000   0.00000   0.00005   0.00005   3.14001
   D22       -0.00059   0.00000   0.00003   0.00005   0.00008  -0.00051
   D23        0.00741   0.00000   0.00030  -0.00009   0.00021   0.00762
   D24       -3.10152   0.00000   0.00026  -0.00003   0.00023  -3.10129
   D25       -3.13917   0.00000   0.00031  -0.00011   0.00020  -3.13896
   D26        0.03509   0.00000   0.00026  -0.00004   0.00022   0.03531
   D27        0.00373  -0.00000   0.00001  -0.00001  -0.00000   0.00372
   D28       -3.13781   0.00000   0.00002  -0.00001   0.00002  -3.13780
   D29       -3.13887  -0.00000  -0.00002  -0.00002  -0.00003  -3.13891
   D30        0.00277  -0.00000  -0.00001  -0.00001  -0.00002   0.00276
   D31        1.07305   0.00000   0.00005   0.00004   0.00009   1.07314
   D32       -1.06955   0.00000   0.00007   0.00002   0.00009  -1.06947
   D33       -3.13954   0.00000   0.00006   0.00003   0.00008  -3.13946
   D34        2.93822   0.00000   0.00006   0.00003   0.00009   2.93831
   D35        0.80263  -0.00000   0.00007  -0.00001   0.00006   0.80269
   D36       -1.25943   0.00000   0.00010   0.00003   0.00012  -1.25930
   D37       -0.23172   0.00000   0.00010  -0.00002   0.00007  -0.23165
   D38       -2.36731  -0.00000   0.00010  -0.00006   0.00004  -2.36727
   D39        1.85381   0.00000   0.00014  -0.00003   0.00011   1.85392
   D40        3.09043  -0.00000   0.00010  -0.00001   0.00009   3.09052
   D41        0.02359  -0.00000  -0.00000  -0.00003  -0.00004   0.02356
   D42       -0.02302   0.00000   0.00006   0.00005   0.00011  -0.02291
   D43       -3.08986  -0.00000  -0.00004   0.00002  -0.00002  -3.08988
   D44        0.37785  -0.00000  -0.00021  -0.00000  -0.00021   0.37764
   D45       -1.67714  -0.00000  -0.00025  -0.00001  -0.00027  -1.67740
   D46        2.49576   0.00000  -0.00023   0.00001  -0.00022   2.49554
   D47        2.49772   0.00000  -0.00023   0.00003  -0.00020   2.49752
   D48        0.44273   0.00000  -0.00028   0.00002  -0.00025   0.44248
   D49       -1.66755   0.00000  -0.00025   0.00005  -0.00020  -1.66776
   D50       -1.64897   0.00000  -0.00028   0.00003  -0.00024  -1.64921
   D51        2.57923  -0.00000  -0.00032   0.00002  -0.00029   2.57893
   D52        0.46894   0.00000  -0.00030   0.00005  -0.00025   0.46870
   D53        0.26692  -0.00000  -0.00020  -0.00005  -0.00025   0.26667
   D54       -1.82290  -0.00000  -0.00025  -0.00007  -0.00033  -1.82322
   D55        2.38611  -0.00000  -0.00022  -0.00005  -0.00027   2.38584
   D56       -2.94671   0.00000  -0.00010  -0.00002  -0.00012  -2.94683
   D57        1.24666  -0.00000  -0.00016  -0.00004  -0.00020   1.24646
   D58       -0.82752   0.00000  -0.00012  -0.00002  -0.00014  -0.82766
   D59       -0.38257   0.00000   0.00024   0.00003   0.00027  -0.38230
   D60        1.67131   0.00000   0.00030   0.00004   0.00034   1.67165
   D61       -2.50569   0.00000   0.00026   0.00002   0.00028  -2.50541
   D62        1.64650  -0.00000   0.00028   0.00002   0.00030   1.64680
   D63       -2.58281   0.00000   0.00034   0.00004   0.00038  -2.58243
   D64       -0.47662  -0.00000   0.00030   0.00001   0.00032  -0.47630
   D65       -2.44445   0.00000   0.00027   0.00003   0.00030  -2.44415
   D66       -0.39058   0.00000   0.00033   0.00005   0.00038  -0.39020
   D67        1.71561   0.00000   0.00030   0.00002   0.00032   1.71593
         Item               Value     Threshold  Converged?
 Maximum Force            0.000042     0.000450     YES
 RMS     Force            0.000005     0.000300     YES
 Maximum Displacement     0.000649     0.001800     YES
 RMS     Displacement     0.000140     0.001200     YES
 Predicted change in Energy=-7.283041D-09
 Optimization completed.
    -- Stationary point found.
                           ----------------------------
                           !   Optimized Parameters   !
                           ! (Angstroms and Degrees)  !
 --------------------------                            --------------------------
 ! Name  Definition              Value          Derivative Info.                !
 --------------------------------------------------------------------------------
 ! R1    R(1,2)                  1.4001         -DE/DX =    0.0                 !
 ! R2    R(1,6)                  1.4066         -DE/DX =    0.0                 !
 ! R3    R(1,11)                 1.344          -DE/DX =    0.0                 !
 ! R4    R(2,3)                  1.3874         -DE/DX =    0.0                 !
 ! R5    R(2,8)                  1.0837         -DE/DX =    0.0                 !
 ! R6    R(3,4)                  1.4034         -DE/DX =    0.0                 !
 ! R7    R(3,9)                  1.085          -DE/DX =    0.0                 !
 ! R8    R(4,5)                  1.412          -DE/DX =    0.0                 !
 ! R9    R(4,16)                 1.4474         -DE/DX =    0.0                 !
 ! R10   R(5,6)                  1.3774         -DE/DX =    0.0                 !
 ! R11   R(5,10)                 1.0858         -DE/DX =    0.0                 !
 ! R12   R(6,7)                  1.0856         -DE/DX =    0.0                 !
 ! R13   R(11,12)                1.4283         -DE/DX =    0.0                 !
 ! R14   R(12,13)                1.0947         -DE/DX =    0.0                 !
 ! R15   R(12,14)                1.0948         -DE/DX =    0.0                 !
 ! R16   R(12,15)                1.09           -DE/DX =    0.0                 !
 ! R17   R(16,17)                1.5024         -DE/DX =    0.0                 !
 ! R18   R(16,18)                1.3003         -DE/DX =    0.0                 !
 ! R19   R(17,20)                1.538          -DE/DX =    0.0                 !
 ! R20   R(17,21)                1.0919         -DE/DX =    0.0                 !
 ! R21   R(17,22)                1.0977         -DE/DX =    0.0                 !
 ! R22   R(18,19)                1.4683         -DE/DX =    0.0                 !
 ! R23   R(18,27)                1.0156         -DE/DX =    0.0                 !
 ! R24   R(19,20)                1.5312         -DE/DX =    0.0                 !
 ! R25   R(19,23)                1.0944         -DE/DX =    0.0                 !
 ! R26   R(19,24)                1.0909         -DE/DX =    0.0                 !
 ! R27   R(20,25)                1.0935         -DE/DX =    0.0                 !
 ! R28   R(20,26)                1.0909         -DE/DX =    0.0                 !
 ! A1    A(2,1,6)              120.0434         -DE/DX =    0.0                 !
 ! A2    A(2,1,11)             124.2852         -DE/DX =    0.0                 !
 ! A3    A(6,1,11)             115.6714         -DE/DX =    0.0                 !
 ! A4    A(1,2,3)              119.2472         -DE/DX =    0.0                 !
 ! A5    A(1,2,8)              121.4299         -DE/DX =    0.0                 !
 ! A6    A(3,2,8)              119.3228         -DE/DX =    0.0                 !
 ! A7    A(2,3,4)              121.4651         -DE/DX =    0.0                 !
 ! A8    A(2,3,9)              118.2284         -DE/DX =    0.0                 !
 ! A9    A(4,3,9)              120.3059         -DE/DX =    0.0                 !
 ! A10   A(3,4,5)              118.4256         -DE/DX =    0.0                 !
 ! A11   A(3,4,16)             119.024          -DE/DX =    0.0                 !
 ! A12   A(5,4,16)             122.5498         -DE/DX =    0.0                 !
 ! A13   A(4,5,6)              120.6263         -DE/DX =    0.0                 !
 ! A14   A(4,5,10)             121.4151         -DE/DX =    0.0                 !
 ! A15   A(6,5,10)             117.9586         -DE/DX =    0.0                 !
 ! A16   A(1,6,5)              120.1908         -DE/DX =    0.0                 !
 ! A17   A(1,6,7)              118.9775         -DE/DX =    0.0                 !
 ! A18   A(5,6,7)              120.8317         -DE/DX =    0.0                 !
 ! A19   A(1,11,12)            118.9272         -DE/DX =    0.0                 !
 ! A20   A(11,12,13)           110.7086         -DE/DX =    0.0                 !
 ! A21   A(11,12,14)           110.6743         -DE/DX =    0.0                 !
 ! A22   A(11,12,15)           105.4495         -DE/DX =    0.0                 !
 ! A23   A(13,12,14)           110.4106         -DE/DX =    0.0                 !
 ! A24   A(13,12,15)           109.7482         -DE/DX =    0.0                 !
 ! A25   A(14,12,15)           109.7341         -DE/DX =    0.0                 !
 ! A26   A(4,16,17)            125.6082         -DE/DX =    0.0                 !
 ! A27   A(4,16,18)            125.0135         -DE/DX =    0.0                 !
 ! A28   A(17,16,18)           109.3567         -DE/DX =    0.0                 !
 ! A29   A(16,17,20)           103.746          -DE/DX =    0.0                 !
 ! A30   A(16,17,21)           111.8568         -DE/DX =    0.0                 !
 ! A31   A(16,17,22)           107.6981         -DE/DX =    0.0                 !
 ! A32   A(20,17,21)           113.2083         -DE/DX =    0.0                 !
 ! A33   A(20,17,22)           112.5407         -DE/DX =    0.0                 !
 ! A34   A(21,17,22)           107.694          -DE/DX =    0.0                 !
 ! A35   A(16,18,19)           115.0696         -DE/DX =    0.0                 !
 ! A36   A(16,18,27)           124.0685         -DE/DX =    0.0                 !
 ! A37   A(19,18,27)           120.7221         -DE/DX =    0.0                 !
 ! A38   A(18,19,20)           102.246          -DE/DX =    0.0                 !
 ! A39   A(18,19,23)           108.2962         -DE/DX =    0.0                 !
 ! A40   A(18,19,24)           109.4861         -DE/DX =    0.0                 !
 ! A41   A(20,19,23)           113.1817         -DE/DX =    0.0                 !
 ! A42   A(20,19,24)           114.1746         -DE/DX =    0.0                 !
 ! A43   A(23,19,24)           109.0901         -DE/DX =    0.0                 !
 ! A44   A(17,20,19)           104.2247         -DE/DX =    0.0                 !
 ! A45   A(17,20,25)           109.8455         -DE/DX =    0.0                 !
 ! A46   A(17,20,26)           112.3486         -DE/DX =    0.0                 !
 ! A47   A(19,20,25)           109.938          -DE/DX =    0.0                 !
 ! A48   A(19,20,26)           111.8984         -DE/DX =    0.0                 !
 ! A49   A(25,20,26)           108.5306         -DE/DX =    0.0                 !
 ! D1    D(6,1,2,3)             -0.3871         -DE/DX =    0.0                 !
 ! D2    D(6,1,2,8)            179.7733         -DE/DX =    0.0                 !
 ! D3    D(11,1,2,3)           179.6508         -DE/DX =    0.0                 !
 ! D4    D(11,1,2,8)            -0.1889         -DE/DX =    0.0                 !
 ! D5    D(2,1,6,5)              0.1737         -DE/DX =    0.0                 !
 ! D6    D(2,1,6,7)           -179.8294         -DE/DX =    0.0                 !
 ! D7    D(11,1,6,5)          -179.861          -DE/DX =    0.0                 !
 ! D8    D(11,1,6,7)             0.1359         -DE/DX =    0.0                 !
 ! D9    D(2,1,11,12)           -0.3225         -DE/DX =    0.0                 !
 ! D10   D(6,1,11,12)          179.7138         -DE/DX =    0.0                 !
 ! D11   D(1,2,3,4)              0.2189         -DE/DX =    0.0                 !
 ! D12   D(1,2,3,9)            179.9263         -DE/DX =    0.0                 !
 ! D13   D(8,2,3,4)           -179.938          -DE/DX =    0.0                 !
 ! D14   D(8,2,3,9)             -0.2307         -DE/DX =    0.0                 !
 ! D15   D(2,3,4,5)              0.1594         -DE/DX =    0.0                 !
 ! D16   D(2,3,4,16)           179.8857         -DE/DX =    0.0                 !
 ! D17   D(9,3,4,5)           -179.542          -DE/DX =    0.0                 !
 ! D18   D(9,3,4,16)             0.1844         -DE/DX =    0.0                 !
 ! D19   D(3,4,5,6)             -0.3772         -DE/DX =    0.0                 !
 ! D20   D(3,4,5,10)           179.6825         -DE/DX =    0.0                 !
 ! D21   D(16,4,5,6)           179.9068         -DE/DX =    0.0                 !
 ! D22   D(16,4,5,10)           -0.0336         -DE/DX =    0.0                 !
 ! D23   D(3,4,16,17)            0.4245         -DE/DX =    0.0                 !
 ! D24   D(3,4,16,18)         -177.7041         -DE/DX =    0.0                 !
 ! D25   D(5,4,16,17)         -179.861          -DE/DX =    0.0                 !
 ! D26   D(5,4,16,18)            2.0103         -DE/DX =    0.0                 !
 ! D27   D(4,5,6,1)              0.2135         -DE/DX =    0.0                 !
 ! D28   D(4,5,6,7)           -179.7834         -DE/DX =    0.0                 !
 ! D29   D(10,5,6,1)          -179.8442         -DE/DX =    0.0                 !
 ! D30   D(10,5,6,7)             0.159          -DE/DX =    0.0                 !
 ! D31   D(1,11,12,13)          61.4811         -DE/DX =    0.0                 !
 ! D32   D(1,11,12,14)         -61.2809         -DE/DX =    0.0                 !
 ! D33   D(1,11,12,15)        -179.8826         -DE/DX =    0.0                 !
 ! D34   D(4,16,17,20)         168.3476         -DE/DX =    0.0                 !
 ! D35   D(4,16,17,21)          45.9874         -DE/DX =    0.0                 !
 ! D36   D(4,16,17,22)         -72.1599         -DE/DX =    0.0                 !
 ! D37   D(18,16,17,20)        -13.2768         -DE/DX =    0.0                 !
 ! D38   D(18,16,17,21)       -135.637          -DE/DX =    0.0                 !
 ! D39   D(18,16,17,22)        106.2157         -DE/DX =    0.0                 !
 ! D40   D(4,16,18,19)         177.0684         -DE/DX =    0.0                 !
 ! D41   D(4,16,18,27)           1.3517         -DE/DX =    0.0                 !
 ! D42   D(17,16,18,19)         -1.3191         -DE/DX =    0.0                 !
 ! D43   D(17,16,18,27)       -177.0358         -DE/DX =    0.0                 !
 ! D44   D(16,17,20,19)         21.6493         -DE/DX =    0.0                 !
 ! D45   D(16,17,20,25)        -96.0928         -DE/DX =    0.0                 !
 ! D46   D(16,17,20,26)        142.9966         -DE/DX =    0.0                 !
 ! D47   D(21,17,20,19)        143.109          -DE/DX =    0.0                 !
 ! D48   D(21,17,20,25)         25.3668         -DE/DX =    0.0                 !
 ! D49   D(21,17,20,26)        -95.5437         -DE/DX =    0.0                 !
 ! D50   D(22,17,20,19)        -94.4789         -DE/DX =    0.0                 !
 ! D51   D(22,17,20,25)        147.779          -DE/DX =    0.0                 !
 ! D52   D(22,17,20,26)         26.8685         -DE/DX =    0.0                 !
 ! D53   D(16,18,19,20)         15.2933         -DE/DX =    0.0                 !
 ! D54   D(16,18,19,23)       -104.4442         -DE/DX =    0.0                 !
 ! D55   D(16,18,19,24)        136.7138         -DE/DX =    0.0                 !
 ! D56   D(27,18,19,20)       -168.8339         -DE/DX =    0.0                 !
 ! D57   D(27,18,19,23)         71.4286         -DE/DX =    0.0                 !
 ! D58   D(27,18,19,24)        -47.4133         -DE/DX =    0.0                 !
 ! D59   D(18,19,20,17)        -21.9194         -DE/DX =    0.0                 !
 ! D60   D(18,19,20,25)         95.759          -DE/DX =    0.0                 !
 ! D61   D(18,19,20,26)       -143.5654         -DE/DX =    0.0                 !
 ! D62   D(23,19,20,17)         94.3376         -DE/DX =    0.0                 !
 ! D63   D(23,19,20,25)       -147.984          -DE/DX =    0.0                 !
 ! D64   D(23,19,20,26)        -27.3084         -DE/DX =    0.0                 !
 ! D65   D(24,19,20,17)       -140.0568         -DE/DX =    0.0                 !
 ! D66   D(24,19,20,25)        -22.3784         -DE/DX =    0.0                 !
 ! D67   D(24,19,20,26)         98.2972         -DE/DX =    0.0                 !
 --------------------------------------------------------------------------------
 Lowest energy point so far.  Saving SCF results.
 Largest change from initial coordinates is atom   21       0.018 Angstoms.
 GradGradGradGradGradGradGradGradGradGradGradGradGradGradGradGradGradGrad

 Leave Link  103 at Wed Jul  8 17:51:03 2026, MaxMem=  4026531840 cpu:               0.5 elap:               0.1
 (Enter /opt/packages/gaussian/g16RevC.01/g16/l202.exe)
                          Input orientation:                          
 ---------------------------------------------------------------------
 Center     Atomic      Atomic             Coordinates (Angstroms)
 Number     Number       Type             X           Y           Z
 ---------------------------------------------------------------------
      1          6           0       -2.479904    0.266512   -0.011616
      2          6           0       -1.847655   -0.981546    0.042036
      3          6           0       -0.461485   -1.039402    0.050382
      4          6           0        0.320564    0.125240    0.010817
      5          6           0       -0.335980    1.374489   -0.034860
      6          6           0       -1.711574    1.444190   -0.048116
      7          1           0       -2.219762    2.402718   -0.086725
      8          1           0       -2.417498   -1.902770    0.074572
      9          1           0        0.011198   -2.015125    0.093464
     10          1           0        0.221203    2.306020   -0.061516
     11          8           0       -3.812489    0.439896   -0.031218
     12          6           0       -4.659251   -0.709926   -0.002780
     13          1           0       -4.504501   -1.281983    0.917691
     14          1           0       -4.482670   -1.341750   -0.879216
     15          1           0       -5.677375   -0.321460   -0.028219
     16          6           0        1.762783    0.003479    0.024303
     17          6           0        2.531362   -1.286702    0.069105
     18          7           0        2.595766    1.001934    0.034076
     19          6           0        4.013534    0.628602    0.114887
     20          6           0        3.977550   -0.861368   -0.236069
     21          1           0        2.139242   -2.018281   -0.640249
     22          1           0        2.420072   -1.706583    1.077177
     23          1           0        4.362438    0.822893    1.133842
     24          1           0        4.590610    1.237954   -0.582121
     25          1           0        4.188270   -0.998999   -1.300194
     26          1           0        4.707941   -1.432494    0.338689
     27          1           0        2.314252    1.977513    0.053056
 ---------------------------------------------------------------------
                    Distance matrix (angstroms):
                    1          2          3          4          5
     1  C    0.000000
     2  C    1.400095   0.000000
     3  C    2.404843   1.387401   0.000000
     4  C    2.804118   2.434568   1.403409   0.000000
     5  C    2.413413   2.800353   2.418655   1.412005   0.000000
     6  C    1.406623   2.431222   2.782204   2.423363   1.377423
     7  H    2.153298   3.407093   3.867625   3.413162   2.146760
     8  H    2.171891   1.083713   2.138217   3.407913   3.883957
     9  H    3.379719   2.127502   1.085044   2.164186   3.409763
    10  H    3.384975   3.885741   3.416202   2.184240   1.085777
    11  O    1.343960   2.426198   3.663906   4.145226   3.599944
    12  C    2.388109   2.825042   4.211011   5.049380   4.799634
    13  H    2.713014   2.813515   4.142106   5.107244   5.033961
    14  H    2.711145   2.814561   4.138295   5.100516   5.028511
    15  H    3.251125   3.886825   5.265655   6.014677   5.604176
    16  C    4.250984   3.742439   2.456756   1.447413   2.507583
    17  C    5.247073   4.389720   3.003105   2.623854   3.913361
    18  N    5.128875   4.866029   3.676154   2.438376   2.956126
    19  C    6.504756   6.078768   4.776212   3.728570   4.415546
    20  C    6.559055   5.833077   4.451829   3.795773   4.862723
    21  H    5.191528   4.175605   2.863382   2.885509   4.243125
    22  H    5.393361   4.450920   3.130945   2.983394   4.280824
    23  H    6.959833   6.558452   5.283206   4.252605   4.872910
    24  H    7.159702   6.838640   5.577641   4.452303   4.958772
    25  H    6.908437   6.183387   4.842098   4.235778   5.263397
    26  H    7.394217   6.577780   5.192361   4.667239   5.784447
    27  H    5.090740   5.106624   4.099573   2.721671   2.719392
                    6          7          8          9         10
     6  C    0.000000
     7  H    1.085597   0.000000
     8  H    3.422795   4.313043   0.000000
     9  H    3.867151   4.952473   2.431367   0.000000
    10  H    2.116260   2.443009   4.969424   4.329020   0.000000
    11  O    2.328677   2.528346   2.728603   4.545686   4.444548
    12  C    3.651174   3.955592   2.540535   4.850351   5.737439
    13  H    4.020602   4.450383   2.334910   4.648482   6.013725
    14  H    4.016361   4.446328   2.342945   4.646976   6.008433
    15  H    4.341140   4.402234   3.624625   5.936597   6.457397
    16  C    3.761921   4.650735   4.594677   2.673498   2.772279
    17  C    5.047180   6.017415   4.987061   2.623436   4.273353
    18  N    4.330765   5.016582   5.794114   3.973180   2.710780
    19  C    5.785207   6.483989   6.911414   4.796712   4.150497
    20  C    6.141421   7.005942   6.486729   4.143874   4.916600
    21  H    5.212304   6.233180   4.613913   2.250981   4.765856
    22  H    5.316405   6.306273   4.944269   2.620222   4.715149
    23  H    6.219056   6.878298   7.383686   5.298115   4.558330
    24  H    6.328129   6.926994   7.707721   5.657734   4.528080
    25  H    6.507307   7.355750   6.807566   4.519151   5.309905
    26  H    7.045219   7.929873   7.145824   4.739091   5.853842
    27  H    4.062258   4.556052   6.119355   4.609430   2.121767
                   11         12         13         14         15
    11  O    0.000000
    12  C    1.428253   0.000000
    13  H    2.084269   1.094744   0.000000
    14  H    2.083868   1.094770   1.798033   0.000000
    15  H    2.014317   1.090014   1.786893   1.786759   0.000000
    16  C    5.592602   6.461594   6.459830   6.452260   7.447436
    17  C    6.575382   7.214066   7.086853   7.078063   8.265865
    18  N    6.433186   7.454334   7.510715   7.512071   8.378551
    19  C    7.829661   8.776258   8.766513   8.778155   9.738420
    20  C    7.900630   8.641278   8.570488   8.498218   9.672243
    21  H    6.468126   6.952529   6.863573   6.660669   8.022050
    22  H    6.684365   7.230246   6.939412   7.183900   8.289097
    23  H    8.266407   9.221297   9.115911   9.325985  10.171420
    24  H    8.458869   9.470470   9.556179   9.437560  10.400485
    25  H    8.227568   8.946814   8.975710   8.687917   9.970353
    26  H    8.731575   9.401223   9.231846   9.271400  10.451020
    27  H    6.317303   7.473633   7.607055   7.621337   8.316128
                   16         17         18         19         20
    16  C    0.000000
    17  C    1.502427   0.000000
    18  N    1.300334   2.289810   0.000000
    19  C    2.337705   2.422256   1.468324   0.000000
    20  C    2.391849   1.538018   2.335422   1.531168   0.000000
    21  H    2.161218   1.091856   3.128071   3.330044   2.209341
    22  H    2.113028   1.097677   2.907747   2.986338   2.205616
    23  H    2.942911   2.989464   2.088701   1.094419   2.204888
    24  H    3.144564   3.322422   2.101144   1.090938   2.214215
    25  H    2.939769   2.168663   2.884454   2.163809   1.093484
    26  H    3.291628   2.198051   3.237362   2.186414   1.090873
    27  H    2.049818   3.271467   1.015561   2.170471   3.302937
                   21         22         23         24         25
    21  H    0.000000
    22  H    1.767929   0.000000
    23  H    4.020233   3.189709   0.000000
    24  H    4.076230   4.016815   1.780131   0.000000
    25  H    2.381802   3.046160   3.045350   2.383582   0.000000
    26  H    2.810637   2.419676   2.416280   2.827181   1.773108
    27  H    4.059270   3.825256   2.587723   2.476328   3.768667
                   26         27
    26  H    0.000000
    27  H    4.176060   0.000000
 Stoichiometry    C11H14NO(1+)
 Framework group  C1[X(C11H14NO)]
 Deg. of freedom    75
 Full point group                 C1      NOp   1
 RotChk:  IX=0 Diff= 4.11D-16
 Largest Abelian subgroup         C1      NOp   1
 Largest concise Abelian subgroup C1      NOp   1
                         Standard orientation:                         
 ---------------------------------------------------------------------
 Center     Atomic      Atomic             Coordinates (Angstroms)
 Number     Number       Type             X           Y           Z
 ---------------------------------------------------------------------
      1          6           0       -2.479736    0.266029   -0.011030
      2          6           0       -1.847460   -0.982069    0.041353
      3          6           0       -0.461290   -1.039904    0.049654
      4          6           0        0.320734    0.124796    0.011289
      5          6           0       -0.335837    1.374077   -0.033117
      6          6           0       -1.711432    1.443761   -0.046316
      7          1           0       -2.219641    2.402316   -0.083951
      8          1           0       -2.417283   -1.903339    0.072940
      9          1           0        0.011415   -2.015659    0.091744
     10          1           0        0.221326    2.305647   -0.058814
     11          8           0       -3.812325    0.439403   -0.030469
     12          6           0       -4.659062   -0.710466   -0.003217
     13          1           0       -4.504309   -1.283461    0.916670
     14          1           0       -4.482457   -1.341389   -0.880296
     15          1           0       -5.677195   -0.321997   -0.028270
     16          6           0        1.762956    0.003053    0.024667
     17          6           0        2.531563   -1.287156    0.068158
     18          7           0        2.595917    1.001516    0.035470
     19          6           0        4.013692    0.628133    0.115915
     20          6           0        3.977745   -0.861478   -0.236565
     21          1           0        2.139467   -2.018018   -0.641948
     22          1           0        2.420272   -1.708071    1.075799
     23          1           0        4.362580    0.821390    1.135072
     24          1           0        4.590762    1.238211   -0.580463
     25          1           0        4.188480   -0.998015   -1.300828
     26          1           0        4.708143   -1.433175    0.337616
     27          1           0        2.314381    1.977069    0.055445
 ---------------------------------------------------------------------
 Rotational constants (GHZ):           2.8662956           0.3539655           0.3181189
 Leave Link  202 at Wed Jul  8 17:51:03 2026, MaxMem=  4026531840 cpu:               0.0 elap:               0.0
 (Enter /opt/packages/gaussian/g16RevC.01/g16/l601.exe)
 Copying SCF densities to generalized density rwf, IOpCl= 0 IROHF=0.

 **********************************************************************

            Population analysis using the SCF Density.

 **********************************************************************

 Orbital symmetries:
       Occupied  (A) (A) (A) (A) (A) (A) (A) (A) (A) (A) (A) (A)
                 (A) (A) (A) (A) (A) (A) (A) (A) (A) (A) (A) (A)
                 (A) (A) (A) (A) (A) (A) (A) (A) (A) (A) (A) (A)
                 (A) (A) (A) (A) (A) (A) (A) (A) (A) (A) (A)
       Virtual   (A) (A) (A) (A) (A) (A) (A) (A) (A) (A) (A) (A)
                 (A) (A) (A) (A) (A) (A) (A) (A) (A) (A) (A) (A)
                 (A) (A) (A) (A) (A) (A) (A) (A) (A) (A) (A) (A)
                 (A) (A) (A) (A) (A) (A) (A) (A) (A) (A) (A) (A)
                 (A) (A) (A) (A) (A) (A) (A) (A) (A) (A) (A) (A)
                 (A) (A) (A) (A) (A) (A) (A) (A) (A) (A) (A) (A)
                 (A) (A) (A) (A) (A) (A) (A) (A) (A) (A) (A) (A)
                 (A) (A) (A) (A) (A) (A) (A) (A) (A) (A) (A) (A)
                 (A) (A) (A) (A) (A) (A) (A) (A) (A) (A) (A) (A)
                 (A) (A) (A) (A) (A) (A) (A) (A) (A) (A) (A) (A)
                 (A) (A) (A) (A) (A) (A) (A) (A) (A) (A) (A) (A)
                 (A) (A) (A) (A) (A) (A) (A) (A) (A) (A) (A) (A)
                 (A) (A) (A) (A) (A) (A) (A) (A) (A) (A) (A) (A)
                 (A) (A) (A) (A) (A) (A) (A) (A) (A) (A) (A) (A)
                 (A) (A) (A) (A) (A) (A) (A) (A) (A) (A) (A) (A)
                 (A) (A) (A) (A) (A) (A) (A) (A) (A) (A) (A) (A)
                 (A) (A) (A) (A) (A) (A) (A) (A) (A) (A) (A) (A)
                 (A) (A) (A) (A) (A) (A) (A) (A) (A) (A) (A) (A)
                 (A) (A) (A) (A) (A) (A) (A) (A) (A) (A)
 The electronic state is 1-A.
 Alpha  occ. eigenvalues --  -19.33012 -14.54141 -10.41511 -10.39318 -10.34836
 Alpha  occ. eigenvalues --  -10.34706 -10.33698 -10.33489 -10.33427 -10.32276
 Alpha  occ. eigenvalues --  -10.31880 -10.31830 -10.31068  -1.19452  -1.11963
 Alpha  occ. eigenvalues --   -0.98490  -0.90737  -0.90341  -0.87344  -0.85016
 Alpha  occ. eigenvalues --   -0.80500  -0.73918  -0.72799  -0.70953  -0.70648
 Alpha  occ. eigenvalues --   -0.65969  -0.62844  -0.60550  -0.59124  -0.56900
 Alpha  occ. eigenvalues --   -0.56479  -0.54739  -0.53011  -0.52338  -0.51734
 Alpha  occ. eigenvalues --   -0.50852  -0.50322  -0.48896  -0.47433  -0.46367
 Alpha  occ. eigenvalues --   -0.45577  -0.45176  -0.42819  -0.42417  -0.40106
 Alpha  occ. eigenvalues --   -0.35475  -0.31871
 Alpha virt. eigenvalues --   -0.02119   0.04141   0.06532   0.08000   0.08104
 Alpha virt. eigenvalues --    0.08849   0.09105   0.09132   0.09655   0.10126
 Alpha virt. eigenvalues --    0.10841   0.11229   0.11500   0.12560   0.13077
 Alpha virt. eigenvalues --    0.13539   0.13795   0.14342   0.15484   0.16276
 Alpha virt. eigenvalues --    0.17147   0.17495   0.17908   0.18432   0.18839
 Alpha virt. eigenvalues --    0.19198   0.19586   0.20204   0.20767   0.21032
 Alpha virt. eigenvalues --    0.21086   0.22010   0.22367   0.23195   0.23369
 Alpha virt. eigenvalues --    0.24143   0.24475   0.25060   0.25185   0.25896
 Alpha virt. eigenvalues --    0.26470   0.26702   0.26975   0.27904   0.28358
 Alpha virt. eigenvalues --    0.29364   0.29744   0.30306   0.30382   0.30521
 Alpha virt. eigenvalues --    0.31126   0.32239   0.32528   0.32952   0.33441
 Alpha virt. eigenvalues --    0.34061   0.34293   0.34839   0.35406   0.36217
 Alpha virt. eigenvalues --    0.36758   0.37128   0.37721   0.38562   0.39205
 Alpha virt. eigenvalues --    0.39662   0.40180   0.40855   0.41648   0.42775
 Alpha virt. eigenvalues --    0.42937   0.43926   0.45984   0.46888   0.47090
 Alpha virt. eigenvalues --    0.50307   0.51800   0.52240   0.53540   0.55652
 Alpha virt. eigenvalues --    0.65791   0.68594   0.70672   0.73725   0.74122
 Alpha virt. eigenvalues --    0.75258   0.76017   0.76625   0.77036   0.77908
 Alpha virt. eigenvalues --    0.78151   0.79331   0.79872   0.80081   0.80690
 Alpha virt. eigenvalues --    0.81450   0.82086   0.83383   0.84710   0.86010
 Alpha virt. eigenvalues --    0.86623   0.88023   0.90965   0.91900   0.92803
 Alpha virt. eigenvalues --    0.97110   0.98257   1.00791   1.01566   1.02701
 Alpha virt. eigenvalues --    1.03458   1.04169   1.05045   1.06118   1.07422
 Alpha virt. eigenvalues --    1.07762   1.08783   1.12245   1.14097   1.14184
 Alpha virt. eigenvalues --    1.15657   1.17266   1.17859   1.18300   1.20851
 Alpha virt. eigenvalues --    1.21921   1.23333   1.24385   1.25372   1.27206
 Alpha virt. eigenvalues --    1.28994   1.29332   1.30185   1.31519   1.33280
 Alpha virt. eigenvalues --    1.35848   1.36422   1.38301   1.41187   1.44035
 Alpha virt. eigenvalues --    1.44363   1.47603   1.49647   1.50477   1.52050
 Alpha virt. eigenvalues --    1.52541   1.54209   1.56551   1.58411   1.61063
 Alpha virt. eigenvalues --    1.61709   1.66049   1.69488   1.72487   1.80004
 Alpha virt. eigenvalues --    1.81363   1.83757   1.89237   1.90652   1.91077
 Alpha virt. eigenvalues --    1.92643   1.94106   1.96299   2.00225   2.01221
 Alpha virt. eigenvalues --    2.03140   2.04267   2.05653   2.08347   2.09032
 Alpha virt. eigenvalues --    2.10877   2.12893   2.14721   2.16881   2.18147
 Alpha virt. eigenvalues --    2.18806   2.19689   2.22965   2.23824   2.25824
 Alpha virt. eigenvalues --    2.27780   2.28430   2.31368   2.33119   2.37679
 Alpha virt. eigenvalues --    2.38329   2.38989   2.40804   2.43654   2.48622
 Alpha virt. eigenvalues --    2.48925   2.52489   2.56686   2.59444   2.62357
 Alpha virt. eigenvalues --    2.64317   2.65356   2.70098   2.71795   2.73707
 Alpha virt. eigenvalues --    2.75731   2.79556   2.83482   2.86807   2.89017
 Alpha virt. eigenvalues --    2.91565   2.94668   2.97510   3.11218   3.13889
 Alpha virt. eigenvalues --    3.21682   3.34833   3.52631   4.19474   4.33670
 Alpha virt. eigenvalues --    4.34649   4.36082   4.39238   4.42357   4.45860
 Alpha virt. eigenvalues --    4.48391   4.52549   4.59954   4.67556   4.73797
 Alpha virt. eigenvalues --    4.89782
          Condensed to atoms (all electrons):
               1          2          3          4          5          6
     1  C    6.345043   0.566683  -0.094107  -0.588990  -0.551240   0.236794
     2  C    0.566683   6.990701   1.310206  -0.870981  -0.171312  -1.811568
     3  C   -0.094107   1.310206   8.910949   1.876536  -3.525099   0.008499
     4  C   -0.588990  -0.870981   1.876536  10.012517  -3.164213   0.860141
     5  C   -0.551240  -0.171312  -3.525099  -3.164213  12.744228  -2.697568
     6  C    0.236794  -1.811568   0.008499   0.860141  -2.697568  11.193868
     7  H   -0.003481  -0.001030  -0.007207   0.010031   0.008058   0.307091
     8  H   -0.036446   0.331862  -0.031034   0.044658  -0.004530   0.011075
     9  H    0.009155  -0.046640   0.266238  -0.013911   0.043700  -0.028558
    10  H    0.001125  -0.008877  -0.000006  -0.011509   0.279763  -0.020989
    11  O    0.439055   0.086353   0.012782  -0.036695   0.001824  -0.515201
    12  C   -0.111598  -0.109942  -0.023697  -0.025073   0.027573   0.091466
    13  H   -0.043115   0.023856   0.005165  -0.001212  -0.000895   0.001621
    14  H   -0.037020   0.018745   0.001068  -0.002192   0.000071   0.006039
    15  H    0.024109  -0.008954   0.000200   0.001140  -0.001545   0.004255
    16  C   -0.105184  -0.041443  -0.971696  -0.879715   2.172635  -1.002284
    17  C    0.004278   0.010565  -0.734716  -1.226567   0.514669  -0.316471
    18  N   -0.013434  -0.052080  -0.096167   0.167269   0.006475   0.207595
    19  C   -0.000553   0.000056  -0.030815  -0.080395  -0.052614  -0.033205
    20  C   -0.000956   0.002013  -0.061879   0.023163   0.060830   0.004177
    21  H   -0.001196  -0.004437   0.014025  -0.001871  -0.007413   0.005525
    22  H   -0.001645  -0.012360  -0.049731   0.024091   0.026442   0.005719
    23  H   -0.000084  -0.000532  -0.004771  -0.014922   0.011109   0.001469
    24  H   -0.000056  -0.000087   0.000599  -0.001290  -0.001401   0.000218
    25  H   -0.000093  -0.001253  -0.006167   0.001786   0.007963   0.001213
    26  H    0.000022   0.000187   0.003368   0.003453  -0.000006   0.000010
    27  H    0.001505  -0.002936  -0.035405  -0.083667   0.072787   0.024791
               7          8          9         10         11         12
     1  C   -0.003481  -0.036446   0.009155   0.001125   0.439055  -0.111598
     2  C   -0.001030   0.331862  -0.046640  -0.008877   0.086353  -0.109942
     3  C   -0.007207  -0.031034   0.266238  -0.000006   0.012782  -0.023697
     4  C    0.010031   0.044658  -0.013911  -0.011509  -0.036695  -0.025073
     5  C    0.008058  -0.004530   0.043700   0.279763   0.001824   0.027573
     6  C    0.307091   0.011075  -0.028558  -0.020989  -0.515201   0.091466
     7  H    0.421955  -0.000082   0.000010  -0.002756  -0.002477  -0.000511
     8  H   -0.000082   0.426259  -0.002782   0.000011  -0.009159   0.000763
     9  H    0.000010  -0.002782   0.428750  -0.000084  -0.000505   0.000393
    10  H   -0.002756   0.000011  -0.000084   0.433300  -0.000386   0.000410
    11  O   -0.002477  -0.009159  -0.000505  -0.000386   8.497482   0.064434
    12  C   -0.000511   0.000763   0.000393   0.000410   0.064434   5.314780
    13  H    0.000001  -0.001154   0.000002   0.000000  -0.030397   0.390279
    14  H    0.000001  -0.001178   0.000002   0.000000  -0.030731   0.389564
    15  H   -0.000004   0.000160  -0.000000  -0.000000  -0.058016   0.390035
    16  C    0.000022   0.001104   0.042614   0.039499  -0.002929   0.004223
    17  C   -0.000088   0.001560   0.025842   0.021102  -0.001123   0.000975
    18  N    0.000231   0.000098   0.000075  -0.002128   0.000028  -0.000299
    19  C    0.000069   0.000003   0.001878   0.005086  -0.000026   0.000166
    20  C   -0.000007  -0.000097   0.002174  -0.001006   0.000038  -0.000118
    21  H   -0.000000   0.000001  -0.000132   0.000001  -0.000000  -0.000015
    22  H   -0.000000   0.000000  -0.001219  -0.000004   0.000000  -0.000006
    23  H    0.000000   0.000000  -0.000000  -0.000004   0.000000  -0.000000
    24  H    0.000000   0.000000   0.000000   0.000002   0.000000  -0.000000
    25  H    0.000000   0.000000  -0.000009  -0.000001   0.000000  -0.000001
    26  H    0.000000  -0.000000  -0.000000   0.000000  -0.000000  -0.000000
    27  H    0.000000   0.000000   0.000002   0.004492  -0.000001   0.000005
              13         14         15         16         17         18
     1  C   -0.043115  -0.037020   0.024109  -0.105184   0.004278  -0.013434
     2  C    0.023856   0.018745  -0.008954  -0.041443   0.010565  -0.052080
     3  C    0.005165   0.001068   0.000200  -0.971696  -0.734716  -0.096167
     4  C   -0.001212  -0.002192   0.001140  -0.879715  -1.226567   0.167269
     5  C   -0.000895   0.000071  -0.001545   2.172635   0.514669   0.006475
     6  C    0.001621   0.006039   0.004255  -1.002284  -0.316471   0.207595
     7  H    0.000001   0.000001  -0.000004   0.000022  -0.000088   0.000231
     8  H   -0.001154  -0.001178   0.000160   0.001104   0.001560   0.000098
     9  H    0.000002   0.000002  -0.000000   0.042614   0.025842   0.000075
    10  H    0.000000   0.000000  -0.000000   0.039499   0.021102  -0.002128
    11  O   -0.030397  -0.030731  -0.058016  -0.002929  -0.001123   0.000028
    12  C    0.390279   0.389564   0.390035   0.004223   0.000975  -0.000299
    13  H    0.466721  -0.034404  -0.022855   0.000096  -0.000026  -0.000000
    14  H   -0.034404   0.466390  -0.022828  -0.000156  -0.000056  -0.000000
    15  H   -0.022855  -0.022828   0.444687  -0.000008   0.000002   0.000000
    16  C    0.000096  -0.000156  -0.000008   6.723804  -0.751254   0.322096
    17  C   -0.000026  -0.000056   0.000002  -0.751254   8.696312  -0.404403
    18  N   -0.000000  -0.000000   0.000000   0.322096  -0.404403   6.989456
    19  C    0.000001  -0.000001  -0.000000  -0.433709   0.424891   0.091630
    20  C   -0.000004   0.000002   0.000000   0.266481  -0.642524  -0.084713
    21  H   -0.000000   0.000000   0.000000  -0.056751   0.393511   0.009073
    22  H    0.000000  -0.000000   0.000000   0.009400   0.316331   0.005159
    23  H   -0.000000   0.000000   0.000000  -0.001058   0.003611  -0.033027
    24  H    0.000000  -0.000000   0.000000  -0.000179   0.036396  -0.044041
    25  H    0.000000  -0.000000   0.000000   0.031363  -0.087478   0.012571
    26  H   -0.000000   0.000000   0.000000   0.055242  -0.090971   0.004993
    27  H    0.000000  -0.000000  -0.000000  -0.005704   0.008669   0.257937
              19         20         21         22         23         24
     1  C   -0.000553  -0.000956  -0.001196  -0.001645  -0.000084  -0.000056
     2  C    0.000056   0.002013  -0.004437  -0.012360  -0.000532  -0.000087
     3  C   -0.030815  -0.061879   0.014025  -0.049731  -0.004771   0.000599
     4  C   -0.080395   0.023163  -0.001871   0.024091  -0.014922  -0.001290
     5  C   -0.052614   0.060830  -0.007413   0.026442   0.011109  -0.001401
     6  C   -0.033205   0.004177   0.005525   0.005719   0.001469   0.000218
     7  H    0.000069  -0.000007  -0.000000  -0.000000   0.000000   0.000000
     8  H    0.000003  -0.000097   0.000001   0.000000   0.000000   0.000000
     9  H    0.001878   0.002174  -0.000132  -0.001219  -0.000000   0.000000
    10  H    0.005086  -0.001006   0.000001  -0.000004  -0.000004   0.000002
    11  O   -0.000026   0.000038  -0.000000   0.000000   0.000000   0.000000
    12  C    0.000166  -0.000118  -0.000015  -0.000006  -0.000000  -0.000000
    13  H    0.000001  -0.000004  -0.000000   0.000000  -0.000000   0.000000
    14  H   -0.000001   0.000002   0.000000  -0.000000   0.000000  -0.000000
    15  H   -0.000000   0.000000   0.000000   0.000000   0.000000   0.000000
    16  C   -0.433709   0.266481  -0.056751   0.009400  -0.001058  -0.000179
    17  C    0.424891  -0.642524   0.393511   0.316331   0.003611   0.036396
    18  N    0.091630  -0.084713   0.009073   0.005159  -0.033027  -0.044041
    19  C    5.952491  -0.221522   0.021637   0.001667   0.387088   0.430481
    20  C   -0.221522   6.510935  -0.049019  -0.013087  -0.027125  -0.087573
    21  H    0.021637  -0.049019   0.413692  -0.020202  -0.000165  -0.000041
    22  H    0.001667  -0.013087  -0.020202   0.404654   0.000933  -0.000144
    23  H    0.387088  -0.027125  -0.000165   0.000933   0.432796  -0.025766
    24  H    0.430481  -0.087573  -0.000041  -0.000144  -0.025766   0.430183
    25  H   -0.079638   0.446382  -0.004490   0.002421   0.002413  -0.004511
    26  H   -0.061266   0.417226   0.000710  -0.003778  -0.002961   0.001051
    27  H   -0.016596   0.013934  -0.000063  -0.000182   0.000058  -0.000861
              25         26         27
     1  C   -0.000093   0.000022   0.001505
     2  C   -0.001253   0.000187  -0.002936
     3  C   -0.006167   0.003368  -0.035405
     4  C    0.001786   0.003453  -0.083667
     5  C    0.007963  -0.000006   0.072787
     6  C    0.001213   0.000010   0.024791
     7  H    0.000000   0.000000   0.000000
     8  H    0.000000  -0.000000   0.000000
     9  H   -0.000009  -0.000000   0.000002
    10  H   -0.000001   0.000000   0.004492
    11  O    0.000000  -0.000000  -0.000001
    12  C   -0.000001  -0.000000   0.000005
    13  H    0.000000  -0.000000   0.000000
    14  H   -0.000000   0.000000  -0.000000
    15  H    0.000000   0.000000  -0.000000
    16  C    0.031363   0.055242  -0.005704
    17  C   -0.087478  -0.090971   0.008669
    18  N    0.012571   0.004993   0.257937
    19  C   -0.079638  -0.061266  -0.016596
    20  C    0.446382   0.417226   0.013934
    21  H   -0.004490   0.000710  -0.000063
    22  H    0.002421  -0.003778  -0.000182
    23  H    0.002413  -0.002961   0.000058
    24  H   -0.004511   0.001051  -0.000861
    25  H    0.433972  -0.020391  -0.000135
    26  H   -0.020391   0.431312  -0.000057
    27  H   -0.000135  -0.000057   0.249424
 Mulliken charges:
               1
     1  C   -0.038570
     2  C   -0.196796
     3  C   -0.737141
     4  C   -0.021581
     5  C    0.199706
     6  C   -0.545721
     7  H    0.270173
     8  H    0.268910
     9  H    0.273005
    10  H    0.262958
    11  O   -0.414350
    12  C   -0.403805
    13  H    0.246320
    14  H    0.246685
    15  H    0.249622
    16  C    0.583488
    17  C   -0.203036
    18  N   -0.344392
    19  C   -0.306808
    20  C   -0.557724
    21  H    0.287621
    22  H    0.305539
    23  H    0.270938
    24  H    0.267020
    25  H    0.264082
    26  H    0.261855
    27  H    0.512002
 Sum of Mulliken charges =   1.00000
 Mulliken charges with hydrogens summed into heavy atoms:
               1
     1  C   -0.038570
     2  C    0.072113
     3  C   -0.464136
     4  C   -0.021581
     5  C    0.462664
     6  C   -0.275548
    11  O   -0.414350
    12  C    0.338822
    16  C    0.583488
    17  C    0.390124
    18  N    0.167610
    19  C    0.231149
    20  C   -0.031786
 Electronic spatial extent (au):  <R**2>=           3365.5882
 Charge=              1.0000 electrons
 Dipole moment (field-independent basis, Debye):
    X=              7.2700    Y=             -0.3863    Z=              0.3876  Tot=              7.2905
 Quadrupole moment (field-independent basis, Debye-Ang):
   XX=            -23.5357   YY=            -57.5569   ZZ=            -76.9729
   XY=             12.3520   XZ=              0.8642   YZ=             -0.2699
 Traceless Quadrupole moment (field-independent basis, Debye-Ang):
   XX=             29.1528   YY=             -4.8684   ZZ=            -24.2844
   XY=             12.3520   XZ=              0.8642   YZ=             -0.2699
 Octapole moment (field-independent basis, Debye-Ang**2):
  XXX=             42.5534  YYY=             14.7487  ZZZ=              0.7868  XYY=             14.2899
  XXY=            -23.1954  XXZ=              3.9692  XZZ=              8.5619  YZZ=             -2.7902
  YYZ=              0.1881  XYZ=              0.0057
 Hexadecapole moment (field-independent basis, Debye-Ang**3):
 XXXX=          -2757.6474 YYYY=           -459.7138 ZZZZ=           -110.1180 XXXY=            206.7713
 XXXZ=             11.6091 YYYX=             29.9671 YYYZ=             -2.0340 ZZZX=              1.9336
 ZZZY=              0.8723 XXYY=           -619.4628 XXZZ=           -621.9330 YYZZ=           -111.4758
 XXYZ=             -4.0137 YYXZ=              1.8712 ZZXY=              3.7908
 N-N= 7.576485562463D+02 E-N=-2.793316449816D+03  KE= 5.520157356343D+02
 No NMR shielding tensors so no spin-rotation constants.
 Leave Link  601 at Wed Jul  8 17:51:03 2026, MaxMem=  4026531840 cpu:               0.6 elap:               0.1
 (Enter /opt/packages/gaussian/g16RevC.01/g16/l9999.exe)
 Unable to Open any file for archive entry.
 1\1\GINC-R129\FOpt\RwB97XD\6-31+G(d)\C11H14N1O1(1+)\ZLAB\08-Jul-2026\0
 \\#p wB97XD/6-31+G(d) Opt Freq SCRF=(SMD,Solvent=Methanol)\\Ground-sta
 te geometry optimization (S0) with wB97XD\\1,1\C,-2.479903768,0.266512
 291,-0.0116157614\C,-1.8476546078,-0.9815460307,0.0420359497\C,-0.4614
 854355,-1.0394024956,0.0503816246\C,0.3205635397,0.1252397536,0.010816
 8058\C,-0.3359797896,1.3744889773,-0.0348603752\C,-1.7115742722,1.4441
 904014,-0.0481155549\H,-2.2197615424,2.4027180268,-0.0867245312\H,-2.4
 174978533,-1.9027699649,0.0745722514\H,0.011198278,-2.0151251967,0.093
 4643246\H,0.2212028072,2.30601984,-0.0615160024\O,-3.8124890769,0.4398
 960351,-0.0312176576\C,-4.6592511135,-0.7099261624,-0.0027804186\H,-4.
 5045010221,-1.2819832499,0.9176905577\H,-4.4826695571,-1.3417497588,-0
 .8792159891\H,-5.6773753635,-0.3214596667,-0.0282193549\C,1.7627829468
 ,0.003478526,0.0243027483\C,2.5313617873,-1.286702442,0.0691053521\N,2
 .5957658609,1.0019339031,0.0340759341\C,4.0135341646,0.6286021632,0.11
 48871563\C,3.9775496254,-0.8613677331,-0.2360690001\H,2.1392418577,-2.
 0182813535,-0.6402486762\H,2.4200723215,-1.7065834374,1.0771773195\H,4
 .362437682,0.8228930331,1.1338423111\H,4.5906095417,1.2379543149,-0.58
 21206711\H,4.1882702872,-0.9989986439,-1.3001938008\H,4.7079411135,-1.
 4324938111,0.3386891111\H,2.3142515883,1.9775126812,0.053056347\\Versi
 on=ES64L-G16RevC.01\State=1-A\HF=-557.2789493\RMSD=7.100e-09\RMSF=1.05
 1e-05\Dipole=2.8602276,-0.1519045,0.1526192\Quadrupole=21.6747999,-3.6
 2035,-18.0544498,9.1835103,0.6326449,-0.2155409\PG=C01 [X(C11H14N1O1)]
 \\@
 The archive entry for this job was punched.


 GOD DOES NOT PLAY WITH DICE.
               -- A. EINSTEIN
 Leave Link 9999 at Wed Jul  8 17:51:04 2026, MaxMem=  4026531840 cpu:               0.4 elap:               0.1
 Job cpu time:       0 days  0 hours 29 minutes 30.6 seconds.
 Elapsed time:       0 days  0 hours  3 minutes 51.3 seconds.
 File lengths (MBytes):  RWF=    117 Int=      0 D2E=      0 Chk=     10 Scr=      1
 Normal termination of Gaussian 16 at Wed Jul  8 17:51:04 2026.
 (Enter /opt/packages/gaussian/g16RevC.01/g16/l1.exe)
 Link1:  Proceeding to internal job step number  2.
 ----------------------------------------------------------------------
 #P Geom=AllCheck Guess=TCheck SCRF=Check GenChk RwB97XD/6-31+G(d) Freq
 ----------------------------------------------------------------------
 1/10=4,29=7,30=1,38=1,40=1/1,3;
 2/12=2,40=1/2;
 3/5=1,6=6,7=11,11=2,14=-4,25=1,30=1,70=2,71=2,74=-58,116=1,140=1/1,2,3;
 4/5=101/1;
 5/5=2,38=6,98=1/2;
 8/6=4,10=90,11=11/1;
 11/6=1,8=1,9=11,15=111,16=1/1,2,10;
 10/6=1/2;
 6/7=2,8=2,9=2,10=2,28=1/1;
 7/8=1,10=1,25=1/1,2,3,16;
 1/10=4,30=1/3;
 99//99;
 Leave Link    1 at Wed Jul  8 17:51:04 2026, MaxMem=  4026531840 cpu:               0.2 elap:               0.0
 (Enter /opt/packages/gaussian/g16RevC.01/g16/l101.exe)
 Structure from the checkpoint file:  "iminium_ground_opt_wb97.chk"
 ---------------------------------------------------
 Ground-state geometry optimization (S0) with wB97XD
 ---------------------------------------------------
 Charge =  1 Multiplicity = 1
 Redundant internal coordinates found in file.  (old form).
 C,0,-2.479903768,0.266512291,-0.0116157614
 C,0,-1.8476546078,-0.9815460307,0.0420359497
 C,0,-0.4614854355,-1.0394024956,0.0503816246
 C,0,0.3205635397,0.1252397536,0.0108168058
 C,0,-0.3359797896,1.3744889773,-0.0348603752
 C,0,-1.7115742722,1.4441904014,-0.0481155549
 H,0,-2.2197615424,2.4027180268,-0.0867245312
 H,0,-2.4174978533,-1.9027699649,0.0745722514
 H,0,0.011198278,-2.0151251967,0.0934643246
 H,0,0.2212028072,2.30601984,-0.0615160024
 O,0,-3.8124890769,0.4398960351,-0.0312176576
 C,0,-4.6592511135,-0.7099261624,-0.0027804186
 H,0,-4.5045010221,-1.2819832499,0.9176905577
 H,0,-4.4826695571,-1.3417497588,-0.8792159891
 H,0,-5.6773753635,-0.3214596667,-0.0282193549
 C,0,1.7627829468,0.003478526,0.0243027483
 C,0,2.5313617873,-1.286702442,0.0691053521
 N,0,2.5957658609,1.0019339031,0.0340759341
 C,0,4.0135341646,0.6286021632,0.1148871563
 C,0,3.9775496254,-0.8613677331,-0.2360690001
 H,0,2.1392418577,-2.0182813535,-0.6402486762
 H,0,2.4200723215,-1.7065834374,1.0771773195
 H,0,4.362437682,0.8228930331,1.1338423111
 H,0,4.5906095417,1.2379543149,-0.5821206711
 H,0,4.1882702872,-0.9989986439,-1.3001938008
 H,0,4.7079411135,-1.4324938111,0.3386891111
 H,0,2.3142515883,1.9775126812,0.053056347
 Recover connectivity data from disk.
 ITRead=  0  0  0  0  0  0  0  0  0  0  0  0  0  0  0  0  0  0  0  0
 ITRead=  0  0  0  0  0  0  0
 MicOpt= -1 -1 -1 -1 -1 -1 -1 -1 -1 -1 -1 -1 -1 -1 -1 -1 -1 -1 -1 -1
 MicOpt= -1 -1 -1 -1 -1 -1 -1
 NAtoms=     27 NQM=       27 NQMF=       0 NMMI=      0 NMMIF=      0
                NMic=       0 NMicF=      0.
                    Isotopes and Nuclear Properties:
 (Nuclear quadrupole moments (NQMom) in fm**2, nuclear magnetic moments (NMagM)
  in nuclear magnetons)

  Atom         1           2           3           4           5           6           7           8           9          10
 IAtWgt=          12          12          12          12          12          12           1           1           1           1
 AtmWgt=  12.0000000  12.0000000  12.0000000  12.0000000  12.0000000  12.0000000   1.0078250   1.0078250   1.0078250   1.0078250
 NucSpn=           0           0           0           0           0           0           1           1           1           1
 AtZEff=   3.6000000   3.6000000   3.6000000   3.6000000   3.6000000   3.6000000   1.0000000   1.0000000   1.0000000   1.0000000
 NQMom=    0.0000000   0.0000000   0.0000000   0.0000000   0.0000000   0.0000000   0.0000000   0.0000000   0.0000000   0.0000000
 NMagM=    0.0000000   0.0000000   0.0000000   0.0000000   0.0000000   0.0000000   2.7928460   2.7928460   2.7928460   2.7928460
 AtZNuc=   6.0000000   6.0000000   6.0000000   6.0000000   6.0000000   6.0000000   1.0000000   1.0000000   1.0000000   1.0000000

  Atom        11          12          13          14          15          16          17          18          19          20
 IAtWgt=          16          12           1           1           1          12          12          14          12          12
 AtmWgt=  15.9949146  12.0000000   1.0078250   1.0078250   1.0078250  12.0000000  12.0000000  14.0030740  12.0000000  12.0000000
 NucSpn=           0           0           1           1           1           0           0           2           0           0
 AtZEff=   5.6000000   3.6000000   1.0000000   1.0000000   1.0000000   3.6000000   3.6000000   4.5500000   3.6000000   3.6000000
 NQMom=    0.0000000   0.0000000   0.0000000   0.0000000   0.0000000   0.0000000   0.0000000   2.0440000   0.0000000   0.0000000
 NMagM=    0.0000000   0.0000000   2.7928460   2.7928460   2.7928460   0.0000000   0.0000000   0.4037610   0.0000000   0.0000000
 AtZNuc=   8.0000000   6.0000000   1.0000000   1.0000000   1.0000000   6.0000000   6.0000000   7.0000000   6.0000000   6.0000000

  Atom        21          22          23          24          25          26          27
 IAtWgt=           1           1           1           1           1           1           1
 AtmWgt=   1.0078250   1.0078250   1.0078250   1.0078250   1.0078250   1.0078250   1.0078250
 NucSpn=           1           1           1           1           1           1           1
 AtZEff=   1.0000000   1.0000000   1.0000000   1.0000000   1.0000000   1.0000000   1.0000000
 NQMom=    0.0000000   0.0000000   0.0000000   0.0000000   0.0000000   0.0000000   0.0000000
 NMagM=    2.7928460   2.7928460   2.7928460   2.7928460   2.7928460   2.7928460   2.7928460
 AtZNuc=   1.0000000   1.0000000   1.0000000   1.0000000   1.0000000   1.0000000   1.0000000
 Leave Link  101 at Wed Jul  8 17:51:04 2026, MaxMem=  4026531840 cpu:               1.2 elap:               0.2
 (Enter /opt/packages/gaussian/g16RevC.01/g16/l103.exe)

 GradGradGradGradGradGradGradGradGradGradGradGradGradGradGradGradGradGrad
 Berny optimization.
 Initialization pass.
                           ----------------------------
                           !    Initial Parameters    !
                           ! (Angstroms and Degrees)  !
 --------------------------                            --------------------------
 ! Name  Definition              Value          Derivative Info.                !
 --------------------------------------------------------------------------------
 ! R1    R(1,2)                  1.4001         calculate D2E/DX2 analytically  !
 ! R2    R(1,6)                  1.4066         calculate D2E/DX2 analytically  !
 ! R3    R(1,11)                 1.344          calculate D2E/DX2 analytically  !
 ! R4    R(2,3)                  1.3874         calculate D2E/DX2 analytically  !
 ! R5    R(2,8)                  1.0837         calculate D2E/DX2 analytically  !
 ! R6    R(3,4)                  1.4034         calculate D2E/DX2 analytically  !
 ! R7    R(3,9)                  1.085          calculate D2E/DX2 analytically  !
 ! R8    R(4,5)                  1.412          calculate D2E/DX2 analytically  !
 ! R9    R(4,16)                 1.4474         calculate D2E/DX2 analytically  !
 ! R10   R(5,6)                  1.3774         calculate D2E/DX2 analytically  !
 ! R11   R(5,10)                 1.0858         calculate D2E/DX2 analytically  !
 ! R12   R(6,7)                  1.0856         calculate D2E/DX2 analytically  !
 ! R13   R(11,12)                1.4283         calculate D2E/DX2 analytically  !
 ! R14   R(12,13)                1.0947         calculate D2E/DX2 analytically  !
 ! R15   R(12,14)                1.0948         calculate D2E/DX2 analytically  !
 ! R16   R(12,15)                1.09           calculate D2E/DX2 analytically  !
 ! R17   R(16,17)                1.5024         calculate D2E/DX2 analytically  !
 ! R18   R(16,18)                1.3003         calculate D2E/DX2 analytically  !
 ! R19   R(17,20)                1.538          calculate D2E/DX2 analytically  !
 ! R20   R(17,21)                1.0919         calculate D2E/DX2 analytically  !
 ! R21   R(17,22)                1.0977         calculate D2E/DX2 analytically  !
 ! R22   R(18,19)                1.4683         calculate D2E/DX2 analytically  !
 ! R23   R(18,27)                1.0156         calculate D2E/DX2 analytically  !
 ! R24   R(19,20)                1.5312         calculate D2E/DX2 analytically  !
 ! R25   R(19,23)                1.0944         calculate D2E/DX2 analytically  !
 ! R26   R(19,24)                1.0909         calculate D2E/DX2 analytically  !
 ! R27   R(20,25)                1.0935         calculate D2E/DX2 analytically  !
 ! R28   R(20,26)                1.0909         calculate D2E/DX2 analytically  !
 ! A1    A(2,1,6)              120.0434         calculate D2E/DX2 analytically  !
 ! A2    A(2,1,11)             124.2852         calculate D2E/DX2 analytically  !
 ! A3    A(6,1,11)             115.6714         calculate D2E/DX2 analytically  !
 ! A4    A(1,2,3)              119.2472         calculate D2E/DX2 analytically  !
 ! A5    A(1,2,8)              121.4299         calculate D2E/DX2 analytically  !
 ! A6    A(3,2,8)              119.3228         calculate D2E/DX2 analytically  !
 ! A7    A(2,3,4)              121.4651         calculate D2E/DX2 analytically  !
 ! A8    A(2,3,9)              118.2284         calculate D2E/DX2 analytically  !
 ! A9    A(4,3,9)              120.3059         calculate D2E/DX2 analytically  !
 ! A10   A(3,4,5)              118.4256         calculate D2E/DX2 analytically  !
 ! A11   A(3,4,16)             119.024          calculate D2E/DX2 analytically  !
 ! A12   A(5,4,16)             122.5498         calculate D2E/DX2 analytically  !
 ! A13   A(4,5,6)              120.6263         calculate D2E/DX2 analytically  !
 ! A14   A(4,5,10)             121.4151         calculate D2E/DX2 analytically  !
 ! A15   A(6,5,10)             117.9586         calculate D2E/DX2 analytically  !
 ! A16   A(1,6,5)              120.1908         calculate D2E/DX2 analytically  !
 ! A17   A(1,6,7)              118.9775         calculate D2E/DX2 analytically  !
 ! A18   A(5,6,7)              120.8317         calculate D2E/DX2 analytically  !
 ! A19   A(1,11,12)            118.9272         calculate D2E/DX2 analytically  !
 ! A20   A(11,12,13)           110.7086         calculate D2E/DX2 analytically  !
 ! A21   A(11,12,14)           110.6743         calculate D2E/DX2 analytically  !
 ! A22   A(11,12,15)           105.4495         calculate D2E/DX2 analytically  !
 ! A23   A(13,12,14)           110.4106         calculate D2E/DX2 analytically  !
 ! A24   A(13,12,15)           109.7482         calculate D2E/DX2 analytically  !
 ! A25   A(14,12,15)           109.7341         calculate D2E/DX2 analytically  !
 ! A26   A(4,16,17)            125.6082         calculate D2E/DX2 analytically  !
 ! A27   A(4,16,18)            125.0135         calculate D2E/DX2 analytically  !
 ! A28   A(17,16,18)           109.3567         calculate D2E/DX2 analytically  !
 ! A29   A(16,17,20)           103.746          calculate D2E/DX2 analytically  !
 ! A30   A(16,17,21)           111.8568         calculate D2E/DX2 analytically  !
 ! A31   A(16,17,22)           107.6981         calculate D2E/DX2 analytically  !
 ! A32   A(20,17,21)           113.2083         calculate D2E/DX2 analytically  !
 ! A33   A(20,17,22)           112.5407         calculate D2E/DX2 analytically  !
 ! A34   A(21,17,22)           107.694          calculate D2E/DX2 analytically  !
 ! A35   A(16,18,19)           115.0696         calculate D2E/DX2 analytically  !
 ! A36   A(16,18,27)           124.0685         calculate D2E/DX2 analytically  !
 ! A37   A(19,18,27)           120.7221         calculate D2E/DX2 analytically  !
 ! A38   A(18,19,20)           102.246          calculate D2E/DX2 analytically  !
 ! A39   A(18,19,23)           108.2962         calculate D2E/DX2 analytically  !
 ! A40   A(18,19,24)           109.4861         calculate D2E/DX2 analytically  !
 ! A41   A(20,19,23)           113.1817         calculate D2E/DX2 analytically  !
 ! A42   A(20,19,24)           114.1746         calculate D2E/DX2 analytically  !
 ! A43   A(23,19,24)           109.0901         calculate D2E/DX2 analytically  !
 ! A44   A(17,20,19)           104.2247         calculate D2E/DX2 analytically  !
 ! A45   A(17,20,25)           109.8455         calculate D2E/DX2 analytically  !
 ! A46   A(17,20,26)           112.3486         calculate D2E/DX2 analytically  !
 ! A47   A(19,20,25)           109.938          calculate D2E/DX2 analytically  !
 ! A48   A(19,20,26)           111.8984         calculate D2E/DX2 analytically  !
 ! A49   A(25,20,26)           108.5306         calculate D2E/DX2 analytically  !
 ! D1    D(6,1,2,3)             -0.3871         calculate D2E/DX2 analytically  !
 ! D2    D(6,1,2,8)            179.7733         calculate D2E/DX2 analytically  !
 ! D3    D(11,1,2,3)           179.6508         calculate D2E/DX2 analytically  !
 ! D4    D(11,1,2,8)            -0.1889         calculate D2E/DX2 analytically  !
 ! D5    D(2,1,6,5)              0.1737         calculate D2E/DX2 analytically  !
 ! D6    D(2,1,6,7)           -179.8294         calculate D2E/DX2 analytically  !
 ! D7    D(11,1,6,5)          -179.861          calculate D2E/DX2 analytically  !
 ! D8    D(11,1,6,7)             0.1359         calculate D2E/DX2 analytically  !
 ! D9    D(2,1,11,12)           -0.3225         calculate D2E/DX2 analytically  !
 ! D10   D(6,1,11,12)          179.7138         calculate D2E/DX2 analytically  !
 ! D11   D(1,2,3,4)              0.2189         calculate D2E/DX2 analytically  !
 ! D12   D(1,2,3,9)            179.9263         calculate D2E/DX2 analytically  !
 ! D13   D(8,2,3,4)           -179.938          calculate D2E/DX2 analytically  !
 ! D14   D(8,2,3,9)             -0.2307         calculate D2E/DX2 analytically  !
 ! D15   D(2,3,4,5)              0.1594         calculate D2E/DX2 analytically  !
 ! D16   D(2,3,4,16)           179.8857         calculate D2E/DX2 analytically  !
 ! D17   D(9,3,4,5)           -179.542          calculate D2E/DX2 analytically  !
 ! D18   D(9,3,4,16)             0.1844         calculate D2E/DX2 analytically  !
 ! D19   D(3,4,5,6)             -0.3772         calculate D2E/DX2 analytically  !
 ! D20   D(3,4,5,10)           179.6825         calculate D2E/DX2 analytically  !
 ! D21   D(16,4,5,6)           179.9068         calculate D2E/DX2 analytically  !
 ! D22   D(16,4,5,10)           -0.0336         calculate D2E/DX2 analytically  !
 ! D23   D(3,4,16,17)            0.4245         calculate D2E/DX2 analytically  !
 ! D24   D(3,4,16,18)         -177.7041         calculate D2E/DX2 analytically  !
 ! D25   D(5,4,16,17)         -179.861          calculate D2E/DX2 analytically  !
 ! D26   D(5,4,16,18)            2.0103         calculate D2E/DX2 analytically  !
 ! D27   D(4,5,6,1)              0.2135         calculate D2E/DX2 analytically  !
 ! D28   D(4,5,6,7)           -179.7834         calculate D2E/DX2 analytically  !
 ! D29   D(10,5,6,1)          -179.8442         calculate D2E/DX2 analytically  !
 ! D30   D(10,5,6,7)             0.159          calculate D2E/DX2 analytically  !
 ! D31   D(1,11,12,13)          61.4811         calculate D2E/DX2 analytically  !
 ! D32   D(1,11,12,14)         -61.2809         calculate D2E/DX2 analytically  !
 ! D33   D(1,11,12,15)        -179.8826         calculate D2E/DX2 analytically  !
 ! D34   D(4,16,17,20)         168.3476         calculate D2E/DX2 analytically  !
 ! D35   D(4,16,17,21)          45.9874         calculate D2E/DX2 analytically  !
 ! D36   D(4,16,17,22)         -72.1599         calculate D2E/DX2 analytically  !
 ! D37   D(18,16,17,20)        -13.2768         calculate D2E/DX2 analytically  !
 ! D38   D(18,16,17,21)       -135.637          calculate D2E/DX2 analytically  !
 ! D39   D(18,16,17,22)        106.2157         calculate D2E/DX2 analytically  !
 ! D40   D(4,16,18,19)         177.0684         calculate D2E/DX2 analytically  !
 ! D41   D(4,16,18,27)           1.3517         calculate D2E/DX2 analytically  !
 ! D42   D(17,16,18,19)         -1.3191         calculate D2E/DX2 analytically  !
 ! D43   D(17,16,18,27)       -177.0358         calculate D2E/DX2 analytically  !
 ! D44   D(16,17,20,19)         21.6493         calculate D2E/DX2 analytically  !
 ! D45   D(16,17,20,25)        -96.0928         calculate D2E/DX2 analytically  !
 ! D46   D(16,17,20,26)        142.9966         calculate D2E/DX2 analytically  !
 ! D47   D(21,17,20,19)        143.109          calculate D2E/DX2 analytically  !
 ! D48   D(21,17,20,25)         25.3668         calculate D2E/DX2 analytically  !
 ! D49   D(21,17,20,26)        -95.5437         calculate D2E/DX2 analytically  !
 ! D50   D(22,17,20,19)        -94.4789         calculate D2E/DX2 analytically  !
 ! D51   D(22,17,20,25)        147.779          calculate D2E/DX2 analytically  !
 ! D52   D(22,17,20,26)         26.8685         calculate D2E/DX2 analytically  !
 ! D53   D(16,18,19,20)         15.2933         calculate D2E/DX2 analytically  !
 ! D54   D(16,18,19,23)       -104.4442         calculate D2E/DX2 analytically  !
 ! D55   D(16,18,19,24)        136.7138         calculate D2E/DX2 analytically  !
 ! D56   D(27,18,19,20)       -168.8339         calculate D2E/DX2 analytically  !
 ! D57   D(27,18,19,23)         71.4286         calculate D2E/DX2 analytically  !
 ! D58   D(27,18,19,24)        -47.4133         calculate D2E/DX2 analytically  !
 ! D59   D(18,19,20,17)        -21.9194         calculate D2E/DX2 analytically  !
 ! D60   D(18,19,20,25)         95.759          calculate D2E/DX2 analytically  !
 ! D61   D(18,19,20,26)       -143.5654         calculate D2E/DX2 analytically  !
 ! D62   D(23,19,20,17)         94.3376         calculate D2E/DX2 analytically  !
 ! D63   D(23,19,20,25)       -147.984          calculate D2E/DX2 analytically  !
 ! D64   D(23,19,20,26)        -27.3084         calculate D2E/DX2 analytically  !
 ! D65   D(24,19,20,17)       -140.0568         calculate D2E/DX2 analytically  !
 ! D66   D(24,19,20,25)        -22.3784         calculate D2E/DX2 analytically  !
 ! D67   D(24,19,20,26)         98.2972         calculate D2E/DX2 analytically  !
 --------------------------------------------------------------------------------
 Trust Radius=3.00D-01 FncErr=1.00D-07 GrdErr=1.00D-07 EigMax=2.50D+02 EigMin=1.00D-04
 Number of steps in this run=      2 maximum allowed number of steps=      2.
 GradGradGradGradGradGradGradGradGradGradGradGradGradGradGradGradGradGrad

 Leave Link  103 at Wed Jul  8 17:51:04 2026, MaxMem=  4026531840 cpu:               0.1 elap:               0.0
 (Enter /opt/packages/gaussian/g16RevC.01/g16/l202.exe)
                          Input orientation:                          
 ---------------------------------------------------------------------
 Center     Atomic      Atomic             Coordinates (Angstroms)
 Number     Number       Type             X           Y           Z
 ---------------------------------------------------------------------
      1          6           0       -2.479904    0.266512   -0.011616
      2          6           0       -1.847655   -0.981546    0.042036
      3          6           0       -0.461485   -1.039402    0.050382
      4          6           0        0.320564    0.125240    0.010817
      5          6           0       -0.335980    1.374489   -0.034860
      6          6           0       -1.711574    1.444190   -0.048116
      7          1           0       -2.219762    2.402718   -0.086725
      8          1           0       -2.417498   -1.902770    0.074572
      9          1           0        0.011198   -2.015125    0.093464
     10          1           0        0.221203    2.306020   -0.061516
     11          8           0       -3.812489    0.439896   -0.031218
     12          6           0       -4.659251   -0.709926   -0.002780
     13          1           0       -4.504501   -1.281983    0.917691
     14          1           0       -4.482670   -1.341750   -0.879216
     15          1           0       -5.677375   -0.321460   -0.028219
     16          6           0        1.762783    0.003479    0.024303
     17          6           0        2.531362   -1.286702    0.069105
     18          7           0        2.595766    1.001934    0.034076
     19          6           0        4.013534    0.628602    0.114887
     20          6           0        3.977550   -0.861368   -0.236069
     21          1           0        2.139242   -2.018281   -0.640249
     22          1           0        2.420072   -1.706583    1.077177
     23          1           0        4.362438    0.822893    1.133842
     24          1           0        4.590610    1.237954   -0.582121
     25          1           0        4.188270   -0.998999   -1.300194
     26          1           0        4.707941   -1.432494    0.338689
     27          1           0        2.314252    1.977513    0.053056
 ---------------------------------------------------------------------
                    Distance matrix (angstroms):
                    1          2          3          4          5
     1  C    0.000000
     2  C    1.400095   0.000000
     3  C    2.404843   1.387401   0.000000
     4  C    2.804118   2.434568   1.403409   0.000000
     5  C    2.413413   2.800353   2.418655   1.412005   0.000000
     6  C    1.406623   2.431222   2.782204   2.423363   1.377423
     7  H    2.153298   3.407093   3.867625   3.413162   2.146760
     8  H    2.171891   1.083713   2.138217   3.407913   3.883957
     9  H    3.379719   2.127502   1.085044   2.164186   3.409763
    10  H    3.384975   3.885741   3.416202   2.184240   1.085777
    11  O    1.343960   2.426198   3.663906   4.145226   3.599944
    12  C    2.388109   2.825042   4.211011   5.049380   4.799634
    13  H    2.713014   2.813515   4.142106   5.107244   5.033961
    14  H    2.711145   2.814561   4.138295   5.100516   5.028511
    15  H    3.251125   3.886825   5.265655   6.014677   5.604176
    16  C    4.250984   3.742439   2.456756   1.447413   2.507583
    17  C    5.247073   4.389720   3.003105   2.623854   3.913361
    18  N    5.128875   4.866029   3.676154   2.438376   2.956126
    19  C    6.504756   6.078768   4.776212   3.728570   4.415546
    20  C    6.559055   5.833077   4.451829   3.795773   4.862723
    21  H    5.191528   4.175605   2.863382   2.885509   4.243125
    22  H    5.393361   4.450920   3.130945   2.983394   4.280824
    23  H    6.959833   6.558452   5.283206   4.252605   4.872910
    24  H    7.159702   6.838640   5.577641   4.452303   4.958772
    25  H    6.908437   6.183387   4.842098   4.235778   5.263397
    26  H    7.394217   6.577780   5.192361   4.667239   5.784447
    27  H    5.090740   5.106624   4.099573   2.721671   2.719392
                    6          7          8          9         10
     6  C    0.000000
     7  H    1.085597   0.000000
     8  H    3.422795   4.313043   0.000000
     9  H    3.867151   4.952473   2.431367   0.000000
    10  H    2.116260   2.443009   4.969424   4.329020   0.000000
    11  O    2.328677   2.528346   2.728603   4.545686   4.444548
    12  C    3.651174   3.955592   2.540535   4.850351   5.737439
    13  H    4.020602   4.450383   2.334910   4.648482   6.013725
    14  H    4.016361   4.446328   2.342945   4.646976   6.008433
    15  H    4.341140   4.402234   3.624625   5.936597   6.457397
    16  C    3.761921   4.650735   4.594677   2.673498   2.772279
    17  C    5.047180   6.017415   4.987061   2.623436   4.273353
    18  N    4.330765   5.016582   5.794114   3.973180   2.710780
    19  C    5.785207   6.483989   6.911414   4.796712   4.150497
    20  C    6.141421   7.005942   6.486729   4.143874   4.916600
    21  H    5.212304   6.233180   4.613913   2.250981   4.765856
    22  H    5.316405   6.306273   4.944269   2.620222   4.715149
    23  H    6.219056   6.878298   7.383686   5.298115   4.558330
    24  H    6.328129   6.926994   7.707721   5.657734   4.528080
    25  H    6.507307   7.355750   6.807566   4.519151   5.309905
    26  H    7.045219   7.929873   7.145824   4.739091   5.853842
    27  H    4.062258   4.556052   6.119355   4.609430   2.121767
                   11         12         13         14         15
    11  O    0.000000
    12  C    1.428253   0.000000
    13  H    2.084269   1.094744   0.000000
    14  H    2.083868   1.094770   1.798033   0.000000
    15  H    2.014317   1.090014   1.786893   1.786759   0.000000
    16  C    5.592602   6.461594   6.459830   6.452260   7.447436
    17  C    6.575382   7.214066   7.086853   7.078063   8.265865
    18  N    6.433186   7.454334   7.510715   7.512071   8.378551
    19  C    7.829661   8.776258   8.766513   8.778155   9.738420
    20  C    7.900630   8.641278   8.570488   8.498218   9.672243
    21  H    6.468126   6.952529   6.863573   6.660669   8.022050
    22  H    6.684365   7.230246   6.939412   7.183900   8.289097
    23  H    8.266407   9.221297   9.115911   9.325985  10.171420
    24  H    8.458869   9.470470   9.556179   9.437560  10.400485
    25  H    8.227568   8.946814   8.975710   8.687917   9.970353
    26  H    8.731575   9.401223   9.231846   9.271400  10.451020
    27  H    6.317303   7.473633   7.607055   7.621337   8.316128
                   16         17         18         19         20
    16  C    0.000000
    17  C    1.502427   0.000000
    18  N    1.300334   2.289810   0.000000
    19  C    2.337705   2.422256   1.468324   0.000000
    20  C    2.391849   1.538018   2.335422   1.531168   0.000000
    21  H    2.161218   1.091856   3.128071   3.330044   2.209341
    22  H    2.113028   1.097677   2.907747   2.986338   2.205616
    23  H    2.942911   2.989464   2.088701   1.094419   2.204888
    24  H    3.144564   3.322422   2.101144   1.090938   2.214215
    25  H    2.939769   2.168663   2.884454   2.163809   1.093484
    26  H    3.291628   2.198051   3.237362   2.186414   1.090873
    27  H    2.049818   3.271467   1.015561   2.170471   3.302937
                   21         22         23         24         25
    21  H    0.000000
    22  H    1.767929   0.000000
    23  H    4.020233   3.189709   0.000000
    24  H    4.076230   4.016815   1.780131   0.000000
    25  H    2.381802   3.046160   3.045350   2.383582   0.000000
    26  H    2.810637   2.419676   2.416280   2.827181   1.773108
    27  H    4.059270   3.825256   2.587723   2.476328   3.768667
                   26         27
    26  H    0.000000
    27  H    4.176060   0.000000
 Stoichiometry    C11H14NO(1+)
 Framework group  C1[X(C11H14NO)]
 Deg. of freedom    75
 Full point group                 C1      NOp   1
 RotChk:  IX=0 Diff= 5.59D-16
 Largest Abelian subgroup         C1      NOp   1
 Largest concise Abelian subgroup C1      NOp   1
                         Standard orientation:                         
 ---------------------------------------------------------------------
 Center     Atomic      Atomic             Coordinates (Angstroms)
 Number     Number       Type             X           Y           Z
 ---------------------------------------------------------------------
      1          6           0       -2.479736    0.266029   -0.011030
      2          6           0       -1.847460   -0.982069    0.041353
      3          6           0       -0.461290   -1.039904    0.049654
      4          6           0        0.320734    0.124796    0.011289
      5          6           0       -0.335837    1.374077   -0.033117
      6          6           0       -1.711432    1.443761   -0.046316
      7          1           0       -2.219641    2.402316   -0.083951
      8          1           0       -2.417283   -1.903339    0.072940
      9          1           0        0.011415   -2.015659    0.091744
     10          1           0        0.221326    2.305647   -0.058814
     11          8           0       -3.812325    0.439403   -0.030469
     12          6           0       -4.659062   -0.710466   -0.003217
     13          1           0       -4.504309   -1.283461    0.916670
     14          1           0       -4.482457   -1.341389   -0.880296
     15          1           0       -5.677195   -0.321997   -0.028270
     16          6           0        1.762956    0.003053    0.024667
     17          6           0        2.531563   -1.287156    0.068158
     18          7           0        2.595917    1.001516    0.035470
     19          6           0        4.013692    0.628133    0.115915
     20          6           0        3.977745   -0.861478   -0.236565
     21          1           0        2.139467   -2.018018   -0.641948
     22          1           0        2.420272   -1.708071    1.075799
     23          1           0        4.362580    0.821390    1.135072
     24          1           0        4.590762    1.238211   -0.580463
     25          1           0        4.188480   -0.998015   -1.300828
     26          1           0        4.708143   -1.433175    0.337616
     27          1           0        2.314381    1.977069    0.055445
 ---------------------------------------------------------------------
 Rotational constants (GHZ):           2.8662956           0.3539655           0.3181189
 Leave Link  202 at Wed Jul  8 17:51:04 2026, MaxMem=  4026531840 cpu:               0.0 elap:               0.0
 (Enter /opt/packages/gaussian/g16RevC.01/g16/l301.exe)
 Standard basis: 6-31+G(d) (6D, 7F)
 Ernie: Thresh=  0.10000D-02 Tol=  0.10000D-05 Strict=F.
 There are   275 symmetry adapted cartesian basis functions of A   symmetry.
 There are   275 symmetry adapted basis functions of A   symmetry.
   275 basis functions,   472 primitive gaussians,   275 cartesian basis functions
    47 alpha electrons       47 beta electrons
       nuclear repulsion energy       757.6656395220 Hartrees.
 IExCor= 4639 DFT=T Ex+Corr=wB97XD ExCW=0 ScaHFX=  1.000000
 ScaDFX=  1.000000  1.000000  1.000000  1.000000 ScalE2=  1.000000  1.000000
 IRadAn=      5 IRanWt=     -1 IRanGd=            0 ICorTp=0 IEmpDi=121
 HFx  wShort=  0.000000 wLong=  0.200000 cFull=  0.222036 cShort=  0.000000 cLong=  0.777964
 DFx  wShort=  0.000000 wLong=  0.200000 cFull=  0.000000 cShort=  0.000000 cLong=  1.000000
 NAtoms=   27 NActive=   27 NUniq=   27 SFac= 1.00D+00 NAtFMM=   60 NAOKFM=F Big=F
 Integral buffers will be    131072 words long.
 Raffenetti 2 integral format.
 Two-electron integral symmetry is turned on.
 R6Disp:  Grimme-D2 Dispersion energy=       -0.0166020618 Hartrees.
 Nuclear repulsion after empirical dispersion term =      757.6490374602 Hartrees.
 Force inversion solution in PCM.
 ------------------------------------------------------------------------------
 Polarizable Continuum Model (PCM)
 =================================
 Model                : PCM.
 Atomic radii         : SMD-Coulomb.
 Polarization charges : Total charges.
 Charge compensation  : None.
 Solution method      : Matrix inversion.
 Cavity type          : VdW (van der Waals Surface) (Alpha=1.000).
 Cavity algorithm     : GePol (No added spheres)
                        Default sphere list used, NSphG=   27.
                        Lebedev-Laikov grids with approx.  5.0 points / Ang**2.
                        Smoothing algorithm: York/Karplus (Gamma=1.0000).
                        Polarization charges: spherical gaussians, with
                                              point-specific exponents (IZeta= 3).
                        Self-potential: point-specific (ISelfS= 7).
                        Self-field    : sphere-specific E.n sum rule (ISelfD= 2).
 1st derivatives      : Analytical E(r).r(x)/FMM algorithm (CHGder, D1EAlg=3).
                        Cavity 1st derivative terms included.
 2nd derivatives      : Analytical E(r).r(xy)/FMM algorithm (CHGder, D2EAlg=3).
                        Cavity 2nd derivative terms included.
 Solvent              : Methanol, Eps=  32.613000 Eps(inf)=   1.765709
 ------------------------------------------------------------------------------
 GePol: Number of generator spheres                  =      27
 GePol: Total number of spheres                      =      27
 GePol: Number of exposed spheres                    =      27 (100.00%)
 GePol: Number of points                             =    1983
 GePol: Average weight of points                     =       0.11
 GePol: Minimum weight of points                     =   0.11D-11
 GePol: Maximum weight of points                     =    0.21991
 GePol: Number of points with low weight             =     122
 GePol: Fraction of low-weight points (<1% of avg)   =       6.15%
 GePol: Cavity surface area                          =    215.104 Ang**2
 GePol: Cavity volume                                =    191.299 Ang**3
 ------------------------------------------------------------------------------
 Atomic radii for non-electrostatic terms: SMD-CDS.
 ------------------------------------------------------------------------------
 PCM non-electrostatic energy =        -0.0004812139 Hartrees.
 Nuclear repulsion after PCM non-electrostatic terms =      757.6485562463 Hartrees.
 Leave Link  301 at Wed Jul  8 17:51:04 2026, MaxMem=  4026531840 cpu:               0.3 elap:               0.1
 (Enter /opt/packages/gaussian/g16RevC.01/g16/l302.exe)
 NPDir=0 NMtPBC=     1 NCelOv=     1 NCel=       1 NClECP=     1 NCelD=      1
         NCelK=      1 NCelE2=     1 NClLst=     1 CellRange=     0.0.
 One-electron integrals computed using PRISM.
 One-electron integral symmetry used in STVInt
 NBasis=   275 RedAO= T EigKep=  2.09D-06  NBF=   275
 NBsUse=   273 1.00D-06 EigRej=  8.36D-07 NBFU=   273
 Precomputing XC quadrature grid using
 IXCGrd= 4 IRadAn=           5 IRanWt=          -1 IRanGd=           0 AccXCQ= 0.00D+00.
 Generated NRdTot=       0 NPtTot=           0 NUsed=           0 NTot=          32
 NSgBfM=   274   274   274   274   274 MxSgAt=    27 MxSgA2=    27.
 Leave Link  302 at Wed Jul  8 17:51:04 2026, MaxMem=  4026531840 cpu:               1.4 elap:               0.2
 (Enter /opt/packages/gaussian/g16RevC.01/g16/l303.exe)
 DipDrv:  MaxL=1.
 Leave Link  303 at Wed Jul  8 17:51:04 2026, MaxMem=  4026531840 cpu:               0.1 elap:               0.0
 (Enter /opt/packages/gaussian/g16RevC.01/g16/l401.exe)
 Initial guess from the checkpoint file:  "iminium_ground_opt_wb97.chk"
 B after Tr=     0.000000   -0.000000   -0.000000
         Rot=    1.000000   -0.000000    0.000000   -0.000000 Ang=   0.00 deg.
 Guess basis will be translated and rotated to current coordinates.
 JPrj=2 DoOrth=T DoCkMO=T.
 Leave Link  401 at Wed Jul  8 17:51:04 2026, MaxMem=  4026531840 cpu:               1.5 elap:               0.2
 (Enter /opt/packages/gaussian/g16RevC.01/g16/l502.exe)
 Integral symmetry usage will be decided dynamically.
 Closed shell SCF:
 Using DIIS extrapolation, IDIIS=  1040.
 NGot=  4026531840 LenX=  4026374748 LenY=  4026298682
 Requested convergence on RMS density matrix=1.00D-08 within 128 cycles.
 Requested convergence on MAX density matrix=1.00D-06.
 Requested convergence on             energy=1.00D-06.
 No special actions if energy rises.
 Fock matrices will be formed incrementally for  20 cycles.

 Cycle   1  Pass 1  IDiag  1:
 FoFJK:  IHMeth= 1 ICntrl=       0 DoSepK=T KAlg= 0 I1Cent=           0 FoldK=F
 IRaf=         1 NMat=       1 IRICut=       1 DoRegI=T DoRafI=F ISym2E= 0 IDoP0=0 IntGTp=1.
 FoFCou: FMM=F IPFlag=           0 FMFlag=      100000 FMFlg1=           0
         NFxFlg=           0 DoJE=T BraDBF=F KetDBF=F FulRan=T
         wScrn=  0.000000 ICntrl=       500 IOpCl=  0 I1Cent=           0 NGrid=           0
         NMat0=    1 NMatS0=      1 NMatT0=    0 NMatD0=    1 NMtDS0=    0 NMtDT0=    0
 Symmetry not used in FoFCou.
 Inv3:  Mode=1 IEnd=    11796867.
 Iteration    1 A*A^-1 deviation from unit magnitude is 3.11D-15 for   1221.
 Iteration    1 A*A^-1 deviation from orthogonality  is 3.00D-15 for   1016    193.
 Iteration    1 A^-1*A deviation from unit magnitude is 3.11D-15 for   1221.
 Iteration    1 A^-1*A deviation from orthogonality  is 1.01D-13 for   1249   1221.
 E= -557.278949318471    
 DIIS: error= 4.73D-09 at cycle   1 NSaved=   1.
 NSaved= 1 IEnMin= 1 EnMin= -557.278949318471     IErMin= 1 ErrMin= 4.73D-09
 ErrMax= 4.73D-09  0.00D+00 EMaxC= 1.00D-01 BMatC= 8.48D-15 BMatP= 8.48D-15
 IDIUse=1 WtCom= 1.00D+00 WtEn= 0.00D+00
 Coeff-Com:  0.100D+01
 Coeff:      0.100D+01
 Gap=     0.298 Goal=   None    Shift=    0.000
 RMSDP=3.81D-09 MaxDP=1.29D-07              OVMax= 4.55D-08

 Error on total polarization charges =  0.04777
 SCF Done:  E(RwB97XD) =  -557.278949318     A.U. after    1 cycles
            NFock=  1  Conv=0.38D-08     -V/T= 2.0095
 KE= 5.520157351127D+02 PE=-2.793316449295D+03 EE= 9.263732086172D+02
 SMD-CDS (non-electrostatic) energy       (kcal/mol) =      -0.30
 (included in total energy above)
 Leave Link  502 at Wed Jul  8 17:51:08 2026, MaxMem=  4026531840 cpu:              30.1 elap:               3.9
 (Enter /opt/packages/gaussian/g16RevC.01/g16/l801.exe)
 DoSCS=F DFT=T ScalE2(SS,OS)=  1.000000  1.000000
 Range of M.O.s used for correlation:     1   273
 NBasis=   275 NAE=    47 NBE=    47 NFC=     0 NFV=     0
 NROrb=    273 NOA=    47 NOB=    47 NVA=   226 NVB=   226

 **** Warning!!: The largest alpha MO coefficient is  0.14401012D+03

 Leave Link  801 at Wed Jul  8 17:51:08 2026, MaxMem=  4026531840 cpu:               0.1 elap:               0.0
 (Enter /opt/packages/gaussian/g16RevC.01/g16/l1101.exe)
 Using compressed storage, NAtomX=    27.
 Will process     28 centers per pass.
 R6Disp: Adding Grimme-D2 dispersion energy 1st derivatives to the gradient.
 Leave Link 1101 at Wed Jul  8 17:51:09 2026, MaxMem=  4026531840 cpu:               1.0 elap:               0.2
 (Enter /opt/packages/gaussian/g16RevC.01/g16/l1102.exe)
 Symmetrizing basis deriv contribution to polar:
 IMax=3 JMax=2 DiffMx= 0.00D+00
 Leave Link 1102 at Wed Jul  8 17:51:09 2026, MaxMem=  4026531840 cpu:               0.2 elap:               0.1
 (Enter /opt/packages/gaussian/g16RevC.01/g16/l1110.exe)
 Forming Gx(P) for the SCF density, NAtomX=    27.
 Integral derivatives from FoFJK, PRISM(SPDF).
 Do as many integral derivatives as possible in FoFJK.
 G2DrvN: MDV=    4026528923.
 G2DrvN: will do    28 centers at a time, making    1 passes.
 Calling FoFCou, ICntrl=  3107 FMM=F I1Cent=   0 AccDes= 0.00D+00.
 FoFJK:  IHMeth= 1 ICntrl=    3107 DoSepK=T KAlg= 0 I1Cent=           0 FoldK=F
 IRaf=         1 NMat=       1 IRICut=       1 DoRegI=T DoRafI=F ISym2E= 0 IDoP0=0 IntGTp=1.
 FoFCou: FMM=F IPFlag=           0 FMFlag=      100000 FMFlg1=           0
         NFxFlg=           0 DoJE=F BraDBF=F KetDBF=F FulRan=T
         wScrn=  0.000000 ICntrl=      3507 IOpCl=  0 I1Cent=           0 NGrid=           0
         NMat0=    1 NMatS0=      1 NMatT0=    0 NMatD0=    1 NMtDS0=    0 NMtDT0=    0
 Symmetry not used in FoFCou.
 NEqPCM:  Using equilibrium solvation (IEInf=0, Eps=  32.6130, EpsInf=   1.7657)
 G2PCM: DoFxE=T DoFxN=T DoGrad=T DoDP/DQ/DG/TGxP=FFFF NFrqRd=   0 IEInf=0 SqF1=F DoCFld=F IF1Alg=4.
 GePol: Maximum number of non-zero 1st derivatives   =     257
 End of G2Drv F.D. properties file   721 does not exist.
 End of G2Drv F.D. properties file   722 does not exist.
 End of G2Drv F.D. properties file   788 does not exist.
 Leave Link 1110 at Wed Jul  8 17:51:57 2026, MaxMem=  4026531840 cpu:             378.6 elap:              47.6
 (Enter /opt/packages/gaussian/g16RevC.01/g16/l1002.exe)
 Minotr:  Closed shell wavefunction.
          IDoAtm=111111111111111111111111111
 NEqPCM:  Using equilibrium solvation (IEInf=0, Eps=  32.6130, EpsInf=   1.7657)
          Direct CPHF calculation.
          Differentiating once with respect to electric field.
                with respect to dipole field.
          Differentiating once with respect to nuclear coordinates.
          Requested convergence is 1.0D-08 RMS, and 1.0D-07 maximum.
          Secondary convergence is 1.0D-12 RMS, and 1.0D-12 maximum.
          NewPWx=T KeepS1=F KeepF1=F KeepIn=T MapXYZ=F SortEE=F KeepMc=T.
         8348 words used for storage of precomputed grid.
 Keep R1 ints in memory in canonical form, NReq=1461278823.
 FoFCou: FMM=F IPFlag=           0 FMFlag=           0 FMFlg1=           0
         NFxFlg=           0 DoJE=F BraDBF=F KetDBF=F FulRan=T
         wScrn=  0.000000 ICntrl=       600 IOpCl=  0 I1Cent=           0 NGrid=           0
         NMat0=    1 NMatS0=  37950 NMatT0=    0 NMatD0=    1 NMtDS0=    0 NMtDT0=    0
 Symmetry not used in FoFCou.
 Two-electron integral symmetry not used.
          MDV=    4026531840 using IRadAn=       1.
          Solving linear equations simultaneously, MaxMat=       0.
          There are    84 degrees of freedom in the 1st order CPHF.  IDoFFX=6 NUNeed=     3.
     81 vectors produced by pass  0 Test12= 1.26D-14 1.19D-09 XBig12= 1.05D+02 7.61D+00.
 AX will form    81 AO Fock derivatives at one time.
     81 vectors produced by pass  1 Test12= 1.26D-14 1.19D-09 XBig12= 6.19D+00 4.39D-01.
     81 vectors produced by pass  2 Test12= 1.26D-14 1.19D-09 XBig12= 1.44D-01 5.81D-02.
     81 vectors produced by pass  3 Test12= 1.26D-14 1.19D-09 XBig12= 1.14D-03 4.92D-03.
     81 vectors produced by pass  4 Test12= 1.26D-14 1.19D-09 XBig12= 7.22D-06 2.69D-04.
     81 vectors produced by pass  5 Test12= 1.26D-14 1.19D-09 XBig12= 3.84D-08 1.86D-05.
     76 vectors produced by pass  6 Test12= 1.26D-14 1.19D-09 XBig12= 1.97D-10 1.15D-06.
     17 vectors produced by pass  7 Test12= 1.26D-14 1.19D-09 XBig12= 8.94D-13 8.66D-08.
      3 vectors produced by pass  8 Test12= 1.26D-14 1.19D-09 XBig12= 4.64D-15 7.37D-09.
 InvSVY:  IOpt=1 It=  1 EMax= 2.66D-15
 Solved reduced A of dimension   582 with    84 vectors.
 FullF1:  Do perturbations      1 to       3.
 Isotropic polarizability for W=    0.000000      196.34 Bohr**3.
 End of Minotr F.D. properties file   721 does not exist.
 End of Minotr F.D. properties file   722 does not exist.
 End of Minotr F.D. properties file   788 does not exist.
 Leave Link 1002 at Wed Jul  8 17:53:14 2026, MaxMem=  4026531840 cpu:             613.3 elap:              77.1
 (Enter /opt/packages/gaussian/g16RevC.01/g16/l601.exe)
 Copying SCF densities to generalized density rwf, IOpCl= 0 IROHF=0.

 **********************************************************************

            Population analysis using the SCF Density.

 **********************************************************************

 Orbital symmetries:
       Occupied  (A) (A) (A) (A) (A) (A) (A) (A) (A) (A) (A) (A)
                 (A) (A) (A) (A) (A) (A) (A) (A) (A) (A) (A) (A)
                 (A) (A) (A) (A) (A) (A) (A) (A) (A) (A) (A) (A)
                 (A) (A) (A) (A) (A) (A) (A) (A) (A) (A) (A)
       Virtual   (A) (A) (A) (A) (A) (A) (A) (A) (A) (A) (A) (A)
                 (A) (A) (A) (A) (A) (A) (A) (A) (A) (A) (A) (A)
                 (A) (A) (A) (A) (A) (A) (A) (A) (A) (A) (A) (A)
                 (A) (A) (A) (A) (A) (A) (A) (A) (A) (A) (A) (A)
                 (A) (A) (A) (A) (A) (A) (A) (A) (A) (A) (A) (A)
                 (A) (A) (A) (A) (A) (A) (A) (A) (A) (A) (A) (A)
                 (A) (A) (A) (A) (A) (A) (A) (A) (A) (A) (A) (A)
                 (A) (A) (A) (A) (A) (A) (A) (A) (A) (A) (A) (A)
                 (A) (A) (A) (A) (A) (A) (A) (A) (A) (A) (A) (A)
                 (A) (A) (A) (A) (A) (A) (A) (A) (A) (A) (A) (A)
                 (A) (A) (A) (A) (A) (A) (A) (A) (A) (A) (A) (A)
                 (A) (A) (A) (A) (A) (A) (A) (A) (A) (A) (A) (A)
                 (A) (A) (A) (A) (A) (A) (A) (A) (A) (A) (A) (A)
                 (A) (A) (A) (A) (A) (A) (A) (A) (A) (A) (A) (A)
                 (A) (A) (A) (A) (A) (A) (A) (A) (A) (A) (A) (A)
                 (A) (A) (A) (A) (A) (A) (A) (A) (A) (A) (A) (A)
                 (A) (A) (A) (A) (A) (A) (A) (A) (A) (A) (A) (A)
                 (A) (A) (A) (A) (A) (A) (A) (A) (A) (A) (A) (A)
                 (A) (A) (A) (A) (A) (A) (A) (A) (A) (A)
 The electronic state is 1-A.
 Alpha  occ. eigenvalues --  -19.33012 -14.54141 -10.41511 -10.39318 -10.34836
 Alpha  occ. eigenvalues --  -10.34706 -10.33698 -10.33489 -10.33427 -10.32276
 Alpha  occ. eigenvalues --  -10.31880 -10.31830 -10.31068  -1.19452  -1.11963
 Alpha  occ. eigenvalues --   -0.98490  -0.90737  -0.90341  -0.87344  -0.85016
 Alpha  occ. eigenvalues --   -0.80500  -0.73918  -0.72799  -0.70953  -0.70648
 Alpha  occ. eigenvalues --   -0.65969  -0.62844  -0.60550  -0.59124  -0.56900
 Alpha  occ. eigenvalues --   -0.56479  -0.54739  -0.53011  -0.52338  -0.51734
 Alpha  occ. eigenvalues --   -0.50852  -0.50322  -0.48896  -0.47433  -0.46367
 Alpha  occ. eigenvalues --   -0.45577  -0.45176  -0.42819  -0.42417  -0.40106
 Alpha  occ. eigenvalues --   -0.35475  -0.31871
 Alpha virt. eigenvalues --   -0.02119   0.04141   0.06532   0.08000   0.08104
 Alpha virt. eigenvalues --    0.08849   0.09105   0.09132   0.09655   0.10126
 Alpha virt. eigenvalues --    0.10841   0.11229   0.11500   0.12560   0.13077
 Alpha virt. eigenvalues --    0.13539   0.13795   0.14342   0.15484   0.16276
 Alpha virt. eigenvalues --    0.17147   0.17495   0.17908   0.18432   0.18839
 Alpha virt. eigenvalues --    0.19198   0.19586   0.20204   0.20767   0.21032
 Alpha virt. eigenvalues --    0.21086   0.22010   0.22367   0.23195   0.23369
 Alpha virt. eigenvalues --    0.24143   0.24475   0.25060   0.25185   0.25896
 Alpha virt. eigenvalues --    0.26470   0.26702   0.26975   0.27904   0.28358
 Alpha virt. eigenvalues --    0.29364   0.29744   0.30306   0.30382   0.30521
 Alpha virt. eigenvalues --    0.31126   0.32239   0.32528   0.32952   0.33441
 Alpha virt. eigenvalues --    0.34061   0.34293   0.34839   0.35406   0.36217
 Alpha virt. eigenvalues --    0.36758   0.37128   0.37721   0.38562   0.39205
 Alpha virt. eigenvalues --    0.39662   0.40180   0.40855   0.41648   0.42775
 Alpha virt. eigenvalues --    0.42937   0.43926   0.45984   0.46888   0.47090
 Alpha virt. eigenvalues --    0.50307   0.51800   0.52240   0.53540   0.55652
 Alpha virt. eigenvalues --    0.65791   0.68594   0.70672   0.73725   0.74122
 Alpha virt. eigenvalues --    0.75258   0.76017   0.76625   0.77036   0.77908
 Alpha virt. eigenvalues --    0.78151   0.79331   0.79872   0.80081   0.80690
 Alpha virt. eigenvalues --    0.81450   0.82086   0.83383   0.84710   0.86010
 Alpha virt. eigenvalues --    0.86623   0.88023   0.90965   0.91900   0.92803
 Alpha virt. eigenvalues --    0.97110   0.98257   1.00791   1.01566   1.02701
 Alpha virt. eigenvalues --    1.03458   1.04169   1.05045   1.06118   1.07422
 Alpha virt. eigenvalues --    1.07762   1.08783   1.12245   1.14097   1.14184
 Alpha virt. eigenvalues --    1.15657   1.17266   1.17859   1.18300   1.20851
 Alpha virt. eigenvalues --    1.21921   1.23333   1.24385   1.25372   1.27206
 Alpha virt. eigenvalues --    1.28994   1.29332   1.30185   1.31519   1.33280
 Alpha virt. eigenvalues --    1.35848   1.36422   1.38301   1.41187   1.44035
 Alpha virt. eigenvalues --    1.44363   1.47603   1.49647   1.50477   1.52050
 Alpha virt. eigenvalues --    1.52541   1.54209   1.56551   1.58411   1.61063
 Alpha virt. eigenvalues --    1.61709   1.66049   1.69488   1.72487   1.80004
 Alpha virt. eigenvalues --    1.81363   1.83757   1.89237   1.90652   1.91077
 Alpha virt. eigenvalues --    1.92643   1.94106   1.96299   2.00225   2.01221
 Alpha virt. eigenvalues --    2.03140   2.04267   2.05653   2.08347   2.09032
 Alpha virt. eigenvalues --    2.10877   2.12893   2.14721   2.16881   2.18147
 Alpha virt. eigenvalues --    2.18806   2.19689   2.22965   2.23824   2.25824
 Alpha virt. eigenvalues --    2.27780   2.28430   2.31368   2.33119   2.37679
 Alpha virt. eigenvalues --    2.38329   2.38989   2.40804   2.43654   2.48622
 Alpha virt. eigenvalues --    2.48925   2.52489   2.56686   2.59444   2.62357
 Alpha virt. eigenvalues --    2.64317   2.65356   2.70098   2.71795   2.73707
 Alpha virt. eigenvalues --    2.75731   2.79556   2.83482   2.86807   2.89017
 Alpha virt. eigenvalues --    2.91565   2.94668   2.97510   3.11218   3.13889
 Alpha virt. eigenvalues --    3.21682   3.34833   3.52631   4.19474   4.33670
 Alpha virt. eigenvalues --    4.34649   4.36082   4.39238   4.42357   4.45860
 Alpha virt. eigenvalues --    4.48391   4.52549   4.59954   4.67556   4.73797
 Alpha virt. eigenvalues --    4.89782
          Condensed to atoms (all electrons):
               1          2          3          4          5          6
     1  C    6.345043   0.566683  -0.094107  -0.588989  -0.551240   0.236794
     2  C    0.566683   6.990701   1.310206  -0.870981  -0.171312  -1.811568
     3  C   -0.094107   1.310206   8.910949   1.876536  -3.525098   0.008499
     4  C   -0.588989  -0.870981   1.876536  10.012517  -3.164212   0.860141
     5  C   -0.551240  -0.171312  -3.525098  -3.164212  12.744228  -2.697568
     6  C    0.236794  -1.811568   0.008499   0.860141  -2.697568  11.193868
     7  H   -0.003481  -0.001030  -0.007207   0.010031   0.008058   0.307091
     8  H   -0.036446   0.331862  -0.031034   0.044658  -0.004530   0.011075
     9  H    0.009155  -0.046640   0.266238  -0.013911   0.043700  -0.028558
    10  H    0.001125  -0.008877  -0.000006  -0.011509   0.279763  -0.020989
    11  O    0.439055   0.086353   0.012782  -0.036695   0.001824  -0.515201
    12  C   -0.111598  -0.109942  -0.023697  -0.025073   0.027573   0.091466
    13  H   -0.043115   0.023856   0.005165  -0.001212  -0.000895   0.001621
    14  H   -0.037020   0.018745   0.001068  -0.002192   0.000071   0.006039
    15  H    0.024109  -0.008954   0.000200   0.001140  -0.001545   0.004255
    16  C   -0.105184  -0.041443  -0.971696  -0.879714   2.172635  -1.002284
    17  C    0.004278   0.010565  -0.734716  -1.226567   0.514669  -0.316471
    18  N   -0.013434  -0.052080  -0.096167   0.167269   0.006475   0.207595
    19  C   -0.000553   0.000056  -0.030815  -0.080395  -0.052614  -0.033205
    20  C   -0.000956   0.002013  -0.061879   0.023163   0.060830   0.004177
    21  H   -0.001196  -0.004437   0.014025  -0.001871  -0.007413   0.005525
    22  H   -0.001645  -0.012360  -0.049731   0.024091   0.026442   0.005719
    23  H   -0.000084  -0.000532  -0.004771  -0.014922   0.011109   0.001469
    24  H   -0.000056  -0.000087   0.000599  -0.001290  -0.001401   0.000218
    25  H   -0.000093  -0.001253  -0.006167   0.001786   0.007963   0.001213
    26  H    0.000022   0.000187   0.003368   0.003453  -0.000006   0.000010
    27  H    0.001505  -0.002936  -0.035405  -0.083667   0.072787   0.024791
               7          8          9         10         11         12
     1  C   -0.003481  -0.036446   0.009155   0.001125   0.439055  -0.111598
     2  C   -0.001030   0.331862  -0.046640  -0.008877   0.086353  -0.109942
     3  C   -0.007207  -0.031034   0.266238  -0.000006   0.012782  -0.023697
     4  C    0.010031   0.044658  -0.013911  -0.011509  -0.036695  -0.025073
     5  C    0.008058  -0.004530   0.043700   0.279763   0.001824   0.027573
     6  C    0.307091   0.011075  -0.028558  -0.020989  -0.515201   0.091466
     7  H    0.421955  -0.000082   0.000010  -0.002756  -0.002477  -0.000511
     8  H   -0.000082   0.426259  -0.002782   0.000011  -0.009159   0.000763
     9  H    0.000010  -0.002782   0.428750  -0.000084  -0.000505   0.000393
    10  H   -0.002756   0.000011  -0.000084   0.433300  -0.000386   0.000410
    11  O   -0.002477  -0.009159  -0.000505  -0.000386   8.497482   0.064434
    12  C   -0.000511   0.000763   0.000393   0.000410   0.064434   5.314780
    13  H    0.000001  -0.001154   0.000002   0.000000  -0.030397   0.390278
    14  H    0.000001  -0.001178   0.000002   0.000000  -0.030731   0.389564
    15  H   -0.000004   0.000160  -0.000000  -0.000000  -0.058016   0.390035
    16  C    0.000022   0.001104   0.042614   0.039499  -0.002929   0.004223
    17  C   -0.000088   0.001560   0.025842   0.021102  -0.001123   0.000975
    18  N    0.000231   0.000098   0.000075  -0.002128   0.000028  -0.000299
    19  C    0.000069   0.000003   0.001878   0.005086  -0.000026   0.000166
    20  C   -0.000007  -0.000097   0.002174  -0.001006   0.000038  -0.000118
    21  H   -0.000000   0.000001  -0.000132   0.000001  -0.000000  -0.000015
    22  H   -0.000000   0.000000  -0.001219  -0.000004   0.000000  -0.000006
    23  H    0.000000   0.000000  -0.000000  -0.000004   0.000000  -0.000000
    24  H    0.000000   0.000000   0.000000   0.000002   0.000000  -0.000000
    25  H    0.000000   0.000000  -0.000009  -0.000001   0.000000  -0.000001
    26  H    0.000000  -0.000000  -0.000000   0.000000  -0.000000  -0.000000
    27  H    0.000000   0.000000   0.000002   0.004492  -0.000001   0.000005
              13         14         15         16         17         18
     1  C   -0.043115  -0.037020   0.024109  -0.105184   0.004278  -0.013434
     2  C    0.023856   0.018745  -0.008954  -0.041443   0.010565  -0.052080
     3  C    0.005165   0.001068   0.000200  -0.971696  -0.734716  -0.096167
     4  C   -0.001212  -0.002192   0.001140  -0.879714  -1.226567   0.167269
     5  C   -0.000895   0.000071  -0.001545   2.172635   0.514669   0.006475
     6  C    0.001621   0.006039   0.004255  -1.002284  -0.316471   0.207595
     7  H    0.000001   0.000001  -0.000004   0.000022  -0.000088   0.000231
     8  H   -0.001154  -0.001178   0.000160   0.001104   0.001560   0.000098
     9  H    0.000002   0.000002  -0.000000   0.042614   0.025842   0.000075
    10  H    0.000000   0.000000  -0.000000   0.039499   0.021102  -0.002128
    11  O   -0.030397  -0.030731  -0.058016  -0.002929  -0.001123   0.000028
    12  C    0.390278   0.389564   0.390035   0.004223   0.000975  -0.000299
    13  H    0.466721  -0.034404  -0.022855   0.000096  -0.000026  -0.000000
    14  H   -0.034404   0.466390  -0.022828  -0.000156  -0.000056  -0.000000
    15  H   -0.022855  -0.022828   0.444687  -0.000008   0.000002   0.000000
    16  C    0.000096  -0.000156  -0.000008   6.723804  -0.751255   0.322096
    17  C   -0.000026  -0.000056   0.000002  -0.751255   8.696312  -0.404404
    18  N   -0.000000  -0.000000   0.000000   0.322096  -0.404404   6.989456
    19  C    0.000001  -0.000001  -0.000000  -0.433709   0.424891   0.091630
    20  C   -0.000004   0.000002   0.000000   0.266481  -0.642524  -0.084713
    21  H   -0.000000   0.000000   0.000000  -0.056751   0.393511   0.009073
    22  H    0.000000  -0.000000   0.000000   0.009400   0.316331   0.005159
    23  H   -0.000000   0.000000   0.000000  -0.001058   0.003611  -0.033027
    24  H    0.000000  -0.000000   0.000000  -0.000179   0.036396  -0.044041
    25  H    0.000000  -0.000000   0.000000   0.031364  -0.087478   0.012571
    26  H   -0.000000   0.000000   0.000000   0.055242  -0.090971   0.004993
    27  H    0.000000  -0.000000  -0.000000  -0.005704   0.008669   0.257937
              19         20         21         22         23         24
     1  C   -0.000553  -0.000956  -0.001196  -0.001645  -0.000084  -0.000056
     2  C    0.000056   0.002013  -0.004437  -0.012360  -0.000532  -0.000087
     3  C   -0.030815  -0.061879   0.014025  -0.049731  -0.004771   0.000599
     4  C   -0.080395   0.023163  -0.001871   0.024091  -0.014922  -0.001290
     5  C   -0.052614   0.060830  -0.007413   0.026442   0.011109  -0.001401
     6  C   -0.033205   0.004177   0.005525   0.005719   0.001469   0.000218
     7  H    0.000069  -0.000007  -0.000000  -0.000000   0.000000   0.000000
     8  H    0.000003  -0.000097   0.000001   0.000000   0.000000   0.000000
     9  H    0.001878   0.002174  -0.000132  -0.001219  -0.000000   0.000000
    10  H    0.005086  -0.001006   0.000001  -0.000004  -0.000004   0.000002
    11  O   -0.000026   0.000038  -0.000000   0.000000   0.000000   0.000000
    12  C    0.000166  -0.000118  -0.000015  -0.000006  -0.000000  -0.000000
    13  H    0.000001  -0.000004  -0.000000   0.000000  -0.000000   0.000000
    14  H   -0.000001   0.000002   0.000000  -0.000000   0.000000  -0.000000
    15  H   -0.000000   0.000000   0.000000   0.000000   0.000000   0.000000
    16  C   -0.433709   0.266481  -0.056751   0.009400  -0.001058  -0.000179
    17  C    0.424891  -0.642524   0.393511   0.316331   0.003611   0.036396
    18  N    0.091630  -0.084713   0.009073   0.005159  -0.033027  -0.044041
    19  C    5.952491  -0.221522   0.021637   0.001667   0.387088   0.430481
    20  C   -0.221522   6.510934  -0.049019  -0.013087  -0.027125  -0.087573
    21  H    0.021637  -0.049019   0.413692  -0.020202  -0.000165  -0.000041
    22  H    0.001667  -0.013087  -0.020202   0.404654   0.000933  -0.000144
    23  H    0.387088  -0.027125  -0.000165   0.000933   0.432796  -0.025766
    24  H    0.430481  -0.087573  -0.000041  -0.000144  -0.025766   0.430183
    25  H   -0.079638   0.446382  -0.004490   0.002421   0.002413  -0.004511
    26  H   -0.061266   0.417226   0.000710  -0.003778  -0.002961   0.001051
    27  H   -0.016596   0.013934  -0.000063  -0.000182   0.000058  -0.000861
              25         26         27
     1  C   -0.000093   0.000022   0.001505
     2  C   -0.001253   0.000187  -0.002936
     3  C   -0.006167   0.003368  -0.035405
     4  C    0.001786   0.003453  -0.083667
     5  C    0.007963  -0.000006   0.072787
     6  C    0.001213   0.000010   0.024791
     7  H    0.000000   0.000000   0.000000
     8  H    0.000000  -0.000000   0.000000
     9  H   -0.000009  -0.000000   0.000002
    10  H   -0.000001   0.000000   0.004492
    11  O    0.000000  -0.000000  -0.000001
    12  C   -0.000001  -0.000000   0.000005
    13  H    0.000000  -0.000000   0.000000
    14  H   -0.000000   0.000000  -0.000000
    15  H    0.000000   0.000000  -0.000000
    16  C    0.031364   0.055242  -0.005704
    17  C   -0.087478  -0.090971   0.008669
    18  N    0.012571   0.004993   0.257937
    19  C   -0.079638  -0.061266  -0.016596
    20  C    0.446382   0.417226   0.013934
    21  H   -0.004490   0.000710  -0.000063
    22  H    0.002421  -0.003778  -0.000182
    23  H    0.002413  -0.002961   0.000058
    24  H   -0.004511   0.001051  -0.000861
    25  H    0.433972  -0.020391  -0.000135
    26  H   -0.020391   0.431312  -0.000057
    27  H   -0.000135  -0.000057   0.249424
 Mulliken charges:
               1
     1  C   -0.038569
     2  C   -0.196796
     3  C   -0.737141
     4  C   -0.021581
     5  C    0.199706
     6  C   -0.545721
     7  H    0.270173
     8  H    0.268910
     9  H    0.273005
    10  H    0.262958
    11  O   -0.414350
    12  C   -0.403805
    13  H    0.246320
    14  H    0.246685
    15  H    0.249622
    16  C    0.583488
    17  C   -0.203036
    18  N   -0.344392
    19  C   -0.306808
    20  C   -0.557724
    21  H    0.287621
    22  H    0.305539
    23  H    0.270938
    24  H    0.267020
    25  H    0.264082
    26  H    0.261855
    27  H    0.512002
 Sum of Mulliken charges =   1.00000
 Mulliken charges with hydrogens summed into heavy atoms:
               1
     1  C   -0.038569
     2  C    0.072113
     3  C   -0.464136
     4  C   -0.021581
     5  C    0.462664
     6  C   -0.275548
    11  O   -0.414350
    12  C    0.338822
    16  C    0.583488
    17  C    0.390124
    18  N    0.167610
    19  C    0.231149
    20  C   -0.031786
 APT charges:
               1
     1  C    1.315319
     2  C   -0.504516
     3  C    0.368343
     4  C   -0.879677
     5  C    0.278433
     6  C   -0.469751
     7  H    0.095268
     8  H    0.112400
     9  H    0.100034
    10  H    0.083574
    11  O   -1.493412
    12  C    0.671958
    13  H   -0.021757
    14  H   -0.021388
    15  H    0.010082
    16  C    1.552626
    17  C   -0.086400
    18  N   -0.987794
    19  C    0.403838
    20  C    0.063680
    21  H    0.052398
    22  H    0.032261
    23  H   -0.032216
    24  H    0.002298
    25  H   -0.003695
    26  H    0.016248
    27  H    0.341845
 Sum of APT charges =   1.00000
 APT charges with hydrogens summed into heavy atoms:
               1
     1  C    1.315319
     2  C   -0.392116
     3  C    0.468376
     4  C   -0.879677
     5  C    0.362007
     6  C   -0.374483
    11  O   -1.493412
    12  C    0.638895
    16  C    1.552626
    17  C   -0.001741
    18  N   -0.645948
    19  C    0.373921
    20  C    0.076233
 Electronic spatial extent (au):  <R**2>=           3365.5882
 Charge=              1.0000 electrons
 Dipole moment (field-independent basis, Debye):
    X=              7.2700    Y=             -0.3863    Z=              0.3876  Tot=              7.2905
 Quadrupole moment (field-independent basis, Debye-Ang):
   XX=            -23.5357   YY=            -57.5569   ZZ=            -76.9729
   XY=             12.3520   XZ=              0.8642   YZ=             -0.2699
 Traceless Quadrupole moment (field-independent basis, Debye-Ang):
   XX=             29.1528   YY=             -4.8684   ZZ=            -24.2844
   XY=             12.3520   XZ=              0.8642   YZ=             -0.2699
 Octapole moment (field-independent basis, Debye-Ang**2):
  XXX=             42.5534  YYY=             14.7487  ZZZ=              0.7868  XYY=             14.2899
  XXY=            -23.1954  XXZ=              3.9692  XZZ=              8.5619  YZZ=             -2.7902
  YYZ=              0.1881  XYZ=              0.0057
 Hexadecapole moment (field-independent basis, Debye-Ang**3):
 XXXX=          -2757.6475 YYYY=           -459.7138 ZZZZ=           -110.1180 XXXY=            206.7713
 XXXZ=             11.6092 YYYX=             29.9671 YYYZ=             -2.0340 ZZZX=              1.9336
 ZZZY=              0.8723 XXYY=           -619.4628 XXZZ=           -621.9330 YYZZ=           -111.4758
 XXYZ=             -4.0137 YYXZ=              1.8712 ZZXY=              3.7908
 N-N= 7.576485562463D+02 E-N=-2.793316448523D+03  KE= 5.520157351127D+02
  Exact polarizability:     290.027      12.464     183.187       1.946      -1.784     115.798
 Approx polarizability:     192.650       7.687     145.824       1.272      -1.674      94.228
 No NMR shielding tensors so no spin-rotation constants.
 Leave Link  601 at Wed Jul  8 17:53:14 2026, MaxMem=  4026531840 cpu:               0.6 elap:               0.1
 (Enter /opt/packages/gaussian/g16RevC.01/g16/l701.exe)
 ... and contract with generalized density number  0.
 Compute integral second derivatives.
 R6Disp: Adding Grimme-D2 dispersion energy 2nd derivatives to the Hessian.
 D2PCM: PCM CHGder 2nd derivatives, FixD1E=F FixD2E=F DoIter=F DoCFld=F I1PDM=0
 GePol: Maximum number of non-zero 2nd derivatives   =     257
 Leave Link  701 at Wed Jul  8 17:53:21 2026, MaxMem=  4026531840 cpu:              53.7 elap:               6.8
 (Enter /opt/packages/gaussian/g16RevC.01/g16/l702.exe)
 L702 exits ... SP integral derivatives will be done elsewhere.
 Leave Link  702 at Wed Jul  8 17:53:21 2026, MaxMem=  4026531840 cpu:               0.1 elap:               0.0
 (Enter /opt/packages/gaussian/g16RevC.01/g16/l703.exe)
 Integral derivatives from FoFJK, PRISM(SPDF).
 Compute integral second derivatives, UseDBF=F ICtDFT=           0.
 Calling FoFJK, ICntrl=    100127 FMM=F ISym2X=0 I1Cent= 0 IOpClX= 0 NMat=1 NMatS=1 NMatT=0.
 FoFJK:  IHMeth= 1 ICntrl=  100127 DoSepK=T KAlg= 0 I1Cent=           0 FoldK=F
 IRaf=         1 NMat=       1 IRICut=       1 DoRegI=T DoRafI=F ISym2E= 0 IDoP0=0 IntGTp=1.
 FoFCou: FMM=F IPFlag=           0 FMFlag=      100000 FMFlg1=         800
         NFxFlg=           0 DoJE=F BraDBF=F KetDBF=F FulRan=T
         wScrn=  0.000000 ICntrl=    100527 IOpCl=  0 I1Cent=           0 NGrid=           0
         NMat0=    1 NMatS0=      1 NMatT0=    0 NMatD0=    1 NMtDS0=    0 NMtDT0=    0
 Symmetry not used in FoFCou.
 Leave Link  703 at Wed Jul  8 17:54:49 2026, MaxMem=  4026531840 cpu:             702.6 elap:              88.2
 (Enter /opt/packages/gaussian/g16RevC.01/g16/l716.exe)
 Dipole        = 2.86022939D+00-1.51997108D-01 1.52495238D-01
 Polarizability= 2.90027146D+02 1.24644882D+01 1.83187123D+02
                 1.94578740D+00-1.78370893D+00 1.15797756D+02
 Full mass-weighted force constant matrix:
 Low frequencies ---  -22.1145  -20.1349   -0.0011   -0.0006    0.0001    2.1074
 Low frequencies ---   52.1685   56.8217  111.7655
 Diagonal vibrational polarizability:
       67.2961815       7.7130846      94.8234736
 Harmonic frequencies (cm**-1), IR intensities (KM/Mole), Raman scattering
 activities (A**4/AMU), depolarization ratios for plane and unpolarized
 incident light, reduced masses (AMU), force constants (mDyne/A),
 and normal coordinates:
                      1                      2                      3
                      A                      A                      A
 Frequencies --     49.5461                56.7065               111.7105
 Red. masses --      3.1998                 3.4405                 3.3512
 Frc consts  --      0.0046                 0.0065                 0.0246
 IR Inten    --      5.5016                 0.1590                 5.1269
  Atom  AN      X      Y      Z        X      Y      Z        X      Y      Z
     1   6     0.00  -0.00  -0.05     0.00   0.00   0.01    -0.00   0.01   0.12
     2   6     0.00  -0.00  -0.02    -0.00   0.01   0.18     0.01   0.02   0.14
     3   6     0.00  -0.00  -0.04    -0.00   0.01   0.22     0.01   0.03   0.02
     4   6     0.00  -0.01  -0.09    -0.00   0.00   0.12    -0.00   0.03  -0.11
     5   6     0.00  -0.01  -0.16     0.00  -0.00  -0.01    -0.01   0.02  -0.14
     6   6     0.00  -0.01  -0.15     0.01   0.00  -0.07    -0.01   0.01  -0.02
     7   1     0.00  -0.01  -0.20     0.01  -0.00  -0.20    -0.02   0.01  -0.05
     8   1    -0.00   0.00   0.04    -0.00   0.01   0.27     0.01   0.02   0.25
     9   1     0.00  -0.00  -0.00    -0.00   0.01   0.34     0.02   0.03   0.06
    10   1     0.01  -0.01  -0.23     0.01  -0.01  -0.11    -0.01   0.02  -0.27
    11   8     0.00   0.00   0.00     0.00  -0.00  -0.10    -0.01  -0.01   0.21
    12   6    -0.01   0.01   0.23     0.01  -0.01  -0.14     0.03  -0.05  -0.19
    13   1     0.09   0.12   0.28    -0.09   0.04  -0.09    -0.11  -0.26  -0.30
    14   1    -0.11  -0.09   0.28     0.12  -0.06  -0.08     0.20   0.17  -0.31
    15   1    -0.00   0.02   0.29     0.01  -0.02  -0.28     0.02  -0.08  -0.26
    16   6    -0.00  -0.01  -0.02    -0.00  -0.00   0.08    -0.00   0.01  -0.10
    17   6    -0.00  -0.01  -0.13     0.00  -0.01  -0.09    -0.04  -0.00  -0.10
    18   7    -0.01  -0.00   0.16    -0.00  -0.00   0.12     0.01  -0.00  -0.03
    19   6    -0.01  -0.01   0.19     0.01  -0.02  -0.03    -0.00  -0.02   0.09
    20   6     0.01   0.04  -0.02    -0.03   0.03  -0.22     0.01  -0.03   0.10
    21   1     0.03   0.07  -0.23    -0.07   0.03  -0.08     0.02   0.06  -0.21
    22   1    -0.04  -0.12  -0.18     0.13  -0.06  -0.10    -0.17  -0.08  -0.15
    23   1    -0.07  -0.16   0.24     0.09  -0.15  -0.04    -0.09  -0.02   0.12
    24   1     0.03   0.09   0.31    -0.05   0.07  -0.00     0.07  -0.04   0.14
    25   1     0.05   0.19  -0.03    -0.18   0.17  -0.27     0.17  -0.04   0.13
    26   1    -0.01  -0.04  -0.08     0.04  -0.05  -0.39    -0.08  -0.04   0.21
    27   1    -0.01  -0.01   0.27     0.00  -0.01   0.23     0.02   0.00  -0.01
                      4                      5                      6
                      A                      A                      A
 Frequencies --    131.3925               151.5262               196.8014
 Red. masses --      3.9046                 1.9434                 2.5202
 Frc consts  --      0.0397                 0.0263                 0.0575
 IR Inten    --      2.0206                 0.1709                 4.3277
  Atom  AN      X      Y      Z        X      Y      Z        X      Y      Z
     1   6     0.01  -0.02   0.03     0.00   0.00   0.00    -0.00   0.00  -0.04
     2   6    -0.05  -0.06   0.02     0.01   0.00  -0.05     0.00   0.00  -0.10
     3   6    -0.05  -0.13  -0.00     0.01   0.01  -0.06     0.00   0.01  -0.03
     4   6    -0.00  -0.16  -0.02     0.00   0.02  -0.04    -0.00   0.01   0.05
     5   6     0.06  -0.14  -0.05    -0.00   0.01  -0.06    -0.00   0.01  -0.06
     6   6     0.07  -0.06  -0.02    -0.00   0.01  -0.03    -0.00   0.00  -0.11
     7   1     0.12  -0.04  -0.03    -0.01   0.00  -0.02    -0.01  -0.00  -0.16
     8   1    -0.11  -0.02   0.03     0.01   0.00  -0.05     0.01  -0.00  -0.14
     9   1    -0.09  -0.15   0.00     0.01   0.01  -0.06     0.00   0.01  -0.01
    10   1     0.09  -0.16  -0.09    -0.01   0.01  -0.07    -0.00   0.01  -0.10
    11   8     0.02   0.10   0.08     0.00  -0.01   0.10    -0.01  -0.00   0.13
    12   6    -0.10   0.19  -0.06     0.02  -0.03  -0.02     0.01  -0.02  -0.01
    13   1    -0.18   0.07  -0.12     0.04  -0.14  -0.10     0.14  -0.24  -0.17
    14   1    -0.15   0.27  -0.13     0.01   0.09  -0.11    -0.11   0.20  -0.19
    15   1    -0.06   0.30  -0.04     0.01  -0.04   0.05     0.00  -0.02   0.23
    16   6     0.00  -0.10   0.00    -0.00   0.01   0.02    -0.00   0.00   0.12
    17   6     0.14  -0.01   0.03     0.01   0.02   0.17    -0.02  -0.01   0.02
    18   7    -0.10  -0.01   0.00     0.02   0.00  -0.01     0.00  -0.00   0.18
    19   6    -0.07   0.15  -0.00     0.00  -0.05   0.07     0.03   0.02  -0.16
    20   6     0.09   0.15  -0.01    -0.06   0.01  -0.12    -0.01  -0.03   0.02
    21   1     0.20  -0.09   0.08    -0.07  -0.16   0.40    -0.04   0.06  -0.04
    22   1     0.22   0.02   0.06     0.18   0.26   0.29    -0.03  -0.09  -0.02
    23   1    -0.08   0.18   0.00    -0.08  -0.22   0.13     0.33   0.18  -0.30
    24   1    -0.13   0.22   0.00     0.09   0.02   0.20    -0.20  -0.05  -0.42
    25   1     0.07   0.19  -0.02    -0.35   0.16  -0.20     0.04  -0.18   0.05
    26   1     0.18   0.23  -0.05     0.08  -0.08  -0.39    -0.04   0.03   0.12
    27   1    -0.20  -0.04  -0.00     0.04   0.01  -0.07     0.00  -0.00   0.22
                      7                      8                      9
                      A                      A                      A
 Frequencies --    250.6448               264.3989               307.6548
 Red. masses --      2.5216                 1.4489                 5.3694
 Frc consts  --      0.0933                 0.0597                 0.2994
 IR Inten    --      0.6930                 0.8959                27.5568
  Atom  AN      X      Y      Z        X      Y      Z        X      Y      Z
     1   6     0.03   0.10   0.02     0.02   0.03  -0.03     0.18  -0.13   0.00
     2   6    -0.03   0.07  -0.01    -0.01   0.02  -0.00     0.13  -0.16  -0.01
     3   6    -0.05  -0.02  -0.05    -0.02  -0.01   0.07     0.12  -0.07  -0.00
     4   6    -0.03  -0.05  -0.04    -0.01  -0.02   0.06    -0.01   0.01   0.01
     5   6     0.05  -0.01  -0.01     0.02  -0.00   0.03     0.05   0.01  -0.00
     6   6     0.05   0.08   0.02     0.02   0.03  -0.02     0.08  -0.07  -0.00
     7   1     0.10   0.10   0.04     0.04   0.04  -0.04    -0.03  -0.14  -0.00
     8   1    -0.07   0.10   0.01    -0.02   0.03  -0.03     0.12  -0.15  -0.02
     9   1    -0.09  -0.04  -0.08    -0.03  -0.01   0.09     0.21  -0.02   0.00
    10   1     0.10  -0.04  -0.02     0.04  -0.02   0.03     0.05   0.00  -0.01
    11   8     0.02   0.04   0.01     0.02   0.01  -0.02     0.23  -0.00   0.02
    12   6     0.21  -0.10   0.01     0.09  -0.04   0.00     0.06   0.15  -0.01
    13   1     0.08   0.12   0.18     0.48  -0.31  -0.23    -0.10   0.17   0.03
    14   1     0.55  -0.26   0.20    -0.24   0.24  -0.26     0.03   0.08   0.04
    15   1     0.15  -0.30  -0.35     0.05  -0.08   0.55     0.13   0.31  -0.11
    16   6    -0.05  -0.07   0.00    -0.02  -0.03  -0.01    -0.10   0.08   0.01
    17   6    -0.01  -0.04   0.03    -0.01  -0.02  -0.03    -0.23   0.06  -0.01
    18   7    -0.10  -0.04   0.04    -0.04  -0.01  -0.07    -0.11   0.08  -0.01
    19   6    -0.09   0.04  -0.03    -0.05   0.01   0.04    -0.14   0.00  -0.01
    20   6    -0.03   0.03   0.00    -0.01   0.02   0.00    -0.23  -0.01   0.02
    21   1     0.02  -0.08   0.05     0.00   0.01  -0.06    -0.26   0.13  -0.07
    22   1     0.02  -0.02   0.04    -0.02  -0.06  -0.05    -0.29   0.02  -0.04
    23   1    -0.03   0.09  -0.06    -0.15  -0.02   0.08    -0.12  -0.00  -0.02
    24   1    -0.17   0.05  -0.09     0.01   0.03   0.11    -0.10  -0.06  -0.03
    25   1    -0.04   0.01   0.01     0.01   0.05   0.00    -0.23  -0.03   0.02
    26   1     0.00   0.07   0.01    -0.01   0.02   0.00    -0.26  -0.04   0.03
    27   1    -0.15  -0.06   0.05    -0.06  -0.02  -0.08    -0.08   0.09   0.00
                     10                     11                     12
                      A                      A                      A
 Frequencies --    321.3019               420.1120               430.5736
 Red. masses --      3.2234                 2.9401                 4.2811
 Frc consts  --      0.1961                 0.3057                 0.4676
 IR Inten    --      4.3075                 0.1033                 2.6519
  Atom  AN      X      Y      Z        X      Y      Z        X      Y      Z
     1   6    -0.01   0.00  -0.10    -0.00   0.00  -0.01     0.06  -0.03  -0.00
     2   6    -0.01   0.00  -0.15    -0.02   0.00   0.21     0.11   0.03   0.04
     3   6    -0.01  -0.00   0.06    -0.01  -0.03  -0.20     0.10   0.16  -0.04
     4   6    -0.00  -0.00   0.22    -0.00  -0.02  -0.02     0.01   0.16   0.00
     5   6    -0.00  -0.00   0.08    -0.00  -0.02   0.20    -0.00   0.20   0.04
     6   6     0.00  -0.00  -0.18     0.00  -0.02  -0.21    -0.02   0.06  -0.05
     7   1     0.01  -0.00  -0.29     0.02  -0.02  -0.37    -0.13  -0.00  -0.08
     8   1    -0.01   0.00  -0.21    -0.02   0.02   0.41     0.16  -0.00   0.07
     9   1    -0.02  -0.00   0.08    -0.03  -0.05  -0.46     0.21   0.22  -0.10
    10   1    -0.00  -0.00   0.14     0.00  -0.02   0.51    -0.07   0.25   0.10
    11   8    -0.01   0.01   0.16    -0.00   0.02   0.01     0.05  -0.11   0.01
    12   6     0.00  -0.01   0.01     0.02   0.00  -0.00    -0.11   0.01  -0.00
    13   1    -0.29   0.12   0.14     0.06  -0.04  -0.04    -0.22  -0.03  -0.00
    14   1     0.31  -0.12   0.15    -0.00   0.05  -0.05    -0.21  -0.02  -0.00
    15   1     0.00  -0.03  -0.41     0.01  -0.02   0.07    -0.04   0.19  -0.02
    16   6     0.01   0.00   0.07     0.00   0.02  -0.02    -0.04  -0.17   0.00
    17   6     0.01  -0.00  -0.05    -0.01   0.03   0.01     0.08  -0.18   0.02
    18   7     0.01   0.00  -0.15     0.01   0.02   0.02    -0.12  -0.15  -0.00
    19   6    -0.00  -0.01   0.05     0.02  -0.00  -0.00    -0.13   0.03  -0.00
    20   6     0.02   0.01  -0.00    -0.01  -0.00   0.00     0.04   0.03  -0.00
    21   1    -0.01   0.12  -0.17    -0.01  -0.00   0.04     0.18  -0.23   0.02
    22   1    -0.00  -0.17  -0.13    -0.02   0.08   0.03     0.15  -0.18   0.02
    23   1    -0.19  -0.07   0.13     0.04  -0.00  -0.01    -0.14   0.08  -0.01
    24   1     0.13   0.02   0.19     0.01  -0.02  -0.02    -0.20   0.10  -0.01
    25   1     0.05   0.05  -0.00    -0.01  -0.02   0.00     0.04   0.07  -0.01
    26   1     0.01  -0.00  -0.00    -0.02  -0.02   0.00     0.13   0.12  -0.03
    27   1     0.01   0.01  -0.18     0.03   0.03   0.02    -0.24  -0.19  -0.01
                     13                     14                     15
                      A                      A                      A
 Frequencies --    500.3716               509.7319               559.1723
 Red. masses --      3.6807                 2.6666                 1.8086
 Frc consts  --      0.5430                 0.4082                 0.3332
 IR Inten    --      9.6261                26.5393                 1.1422
  Atom  AN      X      Y      Z        X      Y      Z        X      Y      Z
     1   6    -0.03  -0.13  -0.08    -0.02  -0.04   0.20     0.02   0.01   0.12
     2   6    -0.05  -0.15  -0.02    -0.02  -0.05   0.04    -0.00   0.00  -0.03
     3   6    -0.03   0.05   0.06    -0.01   0.02  -0.14    -0.01  -0.01  -0.01
     4   6    -0.07   0.08  -0.04    -0.01   0.03   0.11    -0.02   0.00   0.15
     5   6    -0.15   0.07   0.04    -0.05   0.02  -0.10     0.00   0.01  -0.00
     6   6    -0.14  -0.11  -0.01    -0.05  -0.04   0.03     0.00   0.02  -0.02
     7   1    -0.31  -0.20   0.09    -0.10  -0.08  -0.23     0.00   0.01  -0.32
     8   1     0.05  -0.21   0.07     0.03  -0.08  -0.19    -0.02   0.00  -0.30
     9   1     0.08   0.11   0.19     0.02   0.02  -0.45    -0.01  -0.02  -0.24
    10   1    -0.25   0.14   0.15    -0.09   0.03  -0.38     0.03  -0.02  -0.28
    11   8     0.03   0.15   0.03     0.00   0.05  -0.07     0.02  -0.02  -0.03
    12   6     0.20   0.11   0.00     0.07   0.04  -0.01    -0.01  -0.00  -0.00
    13   1     0.29   0.12  -0.01     0.15   0.06  -0.00    -0.02   0.01   0.01
    14   1     0.33   0.14   0.00     0.07   0.02  -0.00    -0.04  -0.03   0.01
    15   1     0.13  -0.09  -0.01     0.04  -0.04   0.04     0.01   0.03  -0.00
    16   6    -0.03  -0.02  -0.09     0.00  -0.01   0.18    -0.02   0.01  -0.15
    17   6     0.07  -0.01  -0.01     0.02  -0.03   0.02     0.02   0.04  -0.03
    18   7     0.01  -0.05   0.03     0.02  -0.01  -0.06    -0.02   0.00   0.01
    19   6     0.03  -0.02  -0.00     0.02   0.00   0.01    -0.02  -0.03  -0.01
    20   6     0.09  -0.01  -0.01     0.02   0.01  -0.01     0.03  -0.03  -0.00
    21   1     0.12  -0.18   0.14    -0.01   0.20  -0.21     0.05  -0.24   0.25
    22   1     0.12   0.17   0.08     0.03  -0.36  -0.12     0.04   0.42   0.14
    23   1     0.04  -0.02  -0.01    -0.03  -0.00   0.02    -0.05  -0.06   0.01
    24   1    -0.02   0.02  -0.00     0.05   0.01   0.04     0.01   0.00   0.03
    25   1     0.14  -0.04   0.00    -0.04   0.05  -0.02     0.14  -0.11   0.03
    26   1     0.06   0.01   0.04     0.06   0.01  -0.07    -0.05  -0.00   0.13
    27   1     0.01  -0.05   0.14     0.01  -0.01  -0.31    -0.01  -0.00   0.46
                     16                     17                     18
                      A                      A                      A
 Frequencies --    615.3880               649.5813               676.8524
 Red. masses --      5.0366                 6.7856                 2.2511
 Frc consts  --      1.1238                 1.6870                 0.6076
 IR Inten    --     34.4866                11.5608                19.8819
  Atom  AN      X      Y      Z        X      Y      Z        X      Y      Z
     1   6     0.14   0.07  -0.03    -0.05   0.08   0.01     0.02   0.01   0.04
     2   6    -0.03   0.01   0.01     0.33   0.18  -0.01    -0.03  -0.01  -0.02
     3   6    -0.08  -0.17  -0.01     0.33  -0.15   0.02    -0.04  -0.02   0.04
     4   6    -0.18  -0.06  -0.03     0.07  -0.08   0.01    -0.02  -0.01   0.01
     5   6    -0.17   0.03  -0.02    -0.26  -0.21   0.01    -0.04   0.01   0.04
     6   6    -0.15   0.25   0.00    -0.25   0.10  -0.01    -0.03   0.04  -0.02
     7   1    -0.23   0.21   0.10    -0.12   0.16  -0.06    -0.06   0.02  -0.16
     8   1    -0.27   0.17   0.09     0.32   0.18  -0.06    -0.08   0.01  -0.16
     9   1    -0.08  -0.17   0.05     0.23  -0.20  -0.00    -0.05  -0.03  -0.03
    10   1    -0.00  -0.07   0.06    -0.24  -0.23  -0.01    -0.01  -0.00  -0.04
    11   8     0.21  -0.16   0.01    -0.09   0.10  -0.01     0.05  -0.03  -0.00
    12   6     0.02   0.04  -0.00     0.03   0.06  -0.00     0.01   0.01  -0.00
    13   1    -0.17  -0.01   0.00     0.12   0.08  -0.00    -0.02   0.01   0.00
    14   1    -0.16  -0.01  -0.01     0.12   0.07   0.01    -0.03  -0.00   0.00
    15   1     0.14   0.33  -0.01    -0.03  -0.10   0.00     0.04   0.07  -0.01
    16   6    -0.09   0.05   0.10     0.04  -0.02  -0.04     0.01  -0.05  -0.12
    17   6     0.07   0.07  -0.00    -0.00  -0.07   0.01    -0.06  -0.07   0.02
    18   7     0.01  -0.01   0.00    -0.02  -0.00   0.01     0.09  -0.08  -0.00
    19   6     0.06  -0.06  -0.01    -0.05   0.01   0.00     0.14   0.09   0.05
    20   6     0.13  -0.03  -0.04    -0.05  -0.01   0.01    -0.09   0.10   0.08
    21   1     0.02   0.11  -0.02     0.05  -0.08  -0.01     0.12  -0.05  -0.11
    22   1     0.17  -0.04  -0.04    -0.04  -0.05   0.01    -0.25  -0.11  -0.02
    23   1     0.02  -0.14   0.02    -0.04   0.04  -0.01     0.26   0.36  -0.05
    24   1     0.06   0.03   0.07    -0.06  -0.02  -0.03     0.02  -0.09  -0.21
    25   1     0.22  -0.11  -0.01    -0.09   0.03  -0.00    -0.42   0.38  -0.03
    26   1     0.05  -0.02   0.08     0.01   0.02  -0.04     0.08  -0.10  -0.34
    27   1     0.12   0.03  -0.23    -0.09  -0.02   0.05     0.03  -0.09  -0.03
                     19                     20                     21
                      A                      A                      A
 Frequencies --    729.5219               768.4970               818.0216
 Red. masses --      2.0032                 1.9115                 5.5644
 Frc consts  --      0.6281                 0.6651                 2.1938
 IR Inten    --     80.8382               140.5804                18.5374
  Atom  AN      X      Y      Z        X      Y      Z        X      Y      Z
     1   6     0.00  -0.01  -0.16    -0.00   0.01   0.14    -0.04   0.00  -0.04
     2   6    -0.00   0.00   0.08    -0.01  -0.00  -0.06    -0.09   0.19   0.01
     3   6    -0.00  -0.01  -0.10    -0.01   0.01   0.05    -0.14   0.24   0.00
     4   6     0.00   0.00   0.13     0.01  -0.01  -0.16     0.15  -0.01   0.02
     5   6    -0.01  -0.00  -0.10    -0.01  -0.00   0.05    -0.11  -0.21   0.01
     6   6    -0.01   0.01   0.07    -0.01   0.00  -0.06    -0.07  -0.14   0.02
     7   1    -0.03   0.01   0.37    -0.01  -0.00  -0.13     0.03  -0.10  -0.02
     8   1    -0.01   0.02   0.35    -0.01  -0.00  -0.13    -0.03   0.16  -0.09
     9   1    -0.01  -0.01  -0.12    -0.02   0.01   0.21    -0.37   0.13  -0.12
    10   1    -0.01  -0.00  -0.08    -0.01   0.01   0.24    -0.30  -0.10  -0.07
    11   8     0.01  -0.00   0.02     0.01  -0.01  -0.02     0.17  -0.16   0.01
    12   6     0.00   0.00   0.00     0.01   0.00  -0.00     0.11   0.09  -0.00
    13   1    -0.01  -0.01  -0.01     0.01   0.01   0.00    -0.08   0.04   0.00
    14   1     0.01   0.02  -0.01    -0.01  -0.01   0.00    -0.07   0.04  -0.01
    15   1     0.01   0.01   0.00     0.01   0.02   0.00     0.21   0.35  -0.01
    16   6     0.01  -0.01   0.04     0.01   0.00   0.10     0.15   0.02  -0.06
    17   6    -0.02  -0.02   0.00     0.01  -0.02   0.03     0.04  -0.14   0.01
    18   7     0.03  -0.01  -0.09     0.01   0.02  -0.10    -0.02   0.16   0.04
    19   6     0.03   0.02  -0.01    -0.00   0.00  -0.02    -0.09   0.01  -0.01
    20   6    -0.03   0.02   0.02    -0.00  -0.00   0.00    -0.04  -0.07  -0.00
    21   1     0.02  -0.04  -0.00    -0.01   0.07  -0.06    -0.04  -0.07  -0.02
    22   1    -0.04  -0.01   0.01     0.00  -0.14  -0.02    -0.04  -0.13   0.01
    23   1    -0.04   0.07   0.01    -0.10  -0.02   0.02    -0.08  -0.08   0.00
    24   1     0.09  -0.03  -0.00     0.09  -0.01   0.04     0.01  -0.04   0.04
    25   1    -0.08   0.06   0.01    -0.03  -0.03   0.00    -0.06  -0.08  -0.00
    26   1     0.01  -0.00  -0.05     0.04   0.04  -0.00     0.09   0.09  -0.01
    27   1    -0.02  -0.05   0.77    -0.02  -0.01   0.85    -0.10   0.15  -0.08
                     22                     23                     24
                      A                      A                      A
 Frequencies --    832.8659               841.3191               863.3840
 Red. masses --      1.2700                 2.2012                 1.8485
 Frc consts  --      0.5190                 0.9180                 0.8118
 IR Inten    --      2.8667                30.8186                76.2363
  Atom  AN      X      Y      Z        X      Y      Z        X      Y      Z
     1   6    -0.00   0.00   0.01     0.01  -0.00  -0.07     0.00   0.01   0.15
     2   6     0.00   0.01  -0.08    -0.02  -0.06   0.03    -0.01  -0.02  -0.10
     3   6    -0.00   0.01  -0.07     0.01  -0.06   0.02    -0.00  -0.01  -0.05
     4   6     0.01  -0.00  -0.00    -0.02   0.00  -0.01    -0.00   0.00   0.10
     5   6    -0.01  -0.01   0.07     0.02   0.06   0.05     0.00   0.01  -0.07
     6   6    -0.00  -0.00   0.07     0.01   0.05   0.05     0.00   0.01  -0.09
     7   1     0.00  -0.02  -0.50    -0.03   0.02  -0.30    -0.01   0.02   0.50
     8   1    -0.00   0.03   0.60    -0.05  -0.05  -0.06    -0.02   0.01   0.55
     9   1    -0.01   0.02   0.43     0.07  -0.04  -0.10     0.01   0.01   0.31
    10   1    -0.01  -0.02  -0.41     0.06   0.03  -0.29     0.00   0.02   0.38
    11   8     0.01  -0.01  -0.00    -0.02   0.03   0.01    -0.00   0.00  -0.03
    12   6     0.00   0.00   0.00    -0.02  -0.02   0.00    -0.00  -0.00  -0.00
    13   1     0.00  -0.00  -0.00     0.01  -0.01   0.00     0.01  -0.00  -0.01
    14   1    -0.01   0.00  -0.00     0.01  -0.01   0.00    -0.01  -0.00  -0.01
    15   1     0.01   0.01   0.02    -0.04  -0.06  -0.00    -0.00  -0.01   0.02
    16   6     0.00  -0.01   0.01     0.02   0.07  -0.07     0.01   0.02  -0.05
    17   6    -0.01   0.00  -0.01     0.11  -0.06   0.07     0.04  -0.03  -0.01
    18   7     0.01  -0.01  -0.01    -0.05   0.14   0.01    -0.02   0.05   0.02
    19   6     0.01   0.01   0.00    -0.08  -0.08  -0.01    -0.04  -0.03   0.01
    20   6    -0.01   0.01  -0.00     0.05  -0.09   0.05     0.01  -0.04   0.03
    21   1    -0.04  -0.02   0.03     0.22   0.15  -0.22     0.08  -0.04  -0.02
    22   1     0.02   0.03   0.01    -0.19  -0.30  -0.07    -0.05  -0.00  -0.01
    23   1    -0.00   0.00   0.01    -0.02   0.03  -0.05     0.03   0.09  -0.03
    24   1     0.01   0.03   0.01    -0.05  -0.21  -0.10    -0.05  -0.13  -0.09
    25   1     0.04  -0.01   0.01    -0.31   0.09  -0.05    -0.11   0.10  -0.02
    26   1    -0.04   0.01   0.03     0.36  -0.04  -0.30     0.12  -0.07  -0.14
    27   1    -0.01  -0.02  -0.01     0.02   0.16   0.14     0.01   0.07  -0.10
                     25                     26                     27
                      A                      A                      A
 Frequencies --    888.6771               922.8430               957.4440
 Red. masses --      3.0101                 1.5213                 2.9212
 Frc consts  --      1.4006                 0.7634                 1.5778
 IR Inten    --      0.9193                 1.1086                 0.9319
  Atom  AN      X      Y      Z        X      Y      Z        X      Y      Z
     1   6    -0.02   0.00  -0.00     0.00  -0.00  -0.01     0.01  -0.00   0.00
     2   6     0.05   0.11  -0.00    -0.01  -0.01   0.02     0.03   0.02   0.00
     3   6     0.00   0.09  -0.00    -0.00  -0.01  -0.01     0.01   0.00  -0.01
     4   6    -0.03   0.00  -0.01     0.01  -0.00  -0.03    -0.04   0.00   0.00
     5   6    -0.00  -0.08   0.01    -0.00   0.01  -0.00     0.01  -0.01   0.00
     6   6     0.03  -0.11   0.01    -0.00   0.02   0.01     0.02  -0.03  -0.00
     7   1     0.10  -0.08  -0.04    -0.02   0.01  -0.08     0.03  -0.02   0.03
     8   1     0.11   0.08   0.00    -0.01  -0.02  -0.13     0.04   0.02  -0.03
     9   1    -0.01   0.09  -0.00    -0.01  -0.01   0.04    -0.01   0.00   0.02
    10   1    -0.03  -0.07  -0.01    -0.01   0.02   0.01    -0.00  -0.00  -0.01
    11   8     0.02  -0.03   0.00    -0.00   0.00   0.00    -0.00   0.01  -0.00
    12   6     0.02   0.02  -0.00    -0.00  -0.00   0.00    -0.01  -0.00   0.00
    13   1    -0.01   0.01  -0.00     0.00   0.00   0.00    -0.00  -0.00  -0.00
    14   1    -0.01   0.01  -0.00     0.00  -0.00   0.00    -0.00  -0.00   0.00
    15   1     0.04   0.06  -0.00    -0.00  -0.01  -0.00    -0.01  -0.01  -0.00
    16   6    -0.11  -0.01   0.02     0.02   0.01   0.09    -0.04   0.01  -0.01
    17   6     0.05   0.25   0.00     0.04  -0.04  -0.11    -0.15  -0.05   0.03
    18   7    -0.06  -0.13  -0.03    -0.02   0.06  -0.04    -0.09   0.04  -0.01
    19   6    -0.03  -0.12   0.03    -0.01   0.01   0.09     0.12   0.18   0.04
    20   6     0.10  -0.01   0.05    -0.03  -0.06   0.01     0.21  -0.19  -0.06
    21   1     0.11   0.33  -0.11    -0.12  -0.26   0.21    -0.36   0.02   0.07
    22   1    -0.12   0.12  -0.08     0.39   0.22   0.04    -0.31   0.00   0.04
    23   1     0.07   0.27  -0.08     0.15   0.44  -0.05    -0.01   0.24   0.08
    24   1    -0.24  -0.24  -0.24    -0.10  -0.30  -0.26    -0.02   0.42   0.12
    25   1    -0.20   0.29  -0.05     0.14   0.25   0.00     0.01  -0.12  -0.11
    26   1     0.14  -0.30  -0.29    -0.17  -0.30  -0.05     0.23  -0.37  -0.24
    27   1     0.04  -0.11   0.11    -0.04   0.06  -0.05    -0.27  -0.01   0.03
                     28                     29                     30
                      A                      A                      A
 Frequencies --    992.1149              1002.8628              1014.2801
 Red. masses --      1.3598                 1.3668                 2.4996
 Frc consts  --      0.7886                 0.8099                 1.5151
 IR Inten    --      1.1272                 0.1545                17.1200
  Atom  AN      X      Y      Z        X      Y      Z        X      Y      Z
     1   6     0.00   0.00  -0.01    -0.00   0.00   0.01     0.00  -0.00   0.00
     2   6    -0.00  -0.00   0.07    -0.00  -0.00   0.07     0.04   0.08   0.01
     3   6    -0.00  -0.00  -0.10    -0.00  -0.00  -0.10     0.01  -0.01  -0.03
     4   6    -0.00   0.00   0.04     0.00  -0.00   0.00    -0.07  -0.01   0.01
     5   6     0.00  -0.01  -0.09    -0.00   0.00   0.10     0.01   0.03  -0.01
     6   6     0.00   0.00   0.07    -0.00   0.00  -0.09     0.03  -0.08   0.01
     7   1     0.02  -0.01  -0.42    -0.01   0.02   0.47    -0.01  -0.11  -0.04
     8   1     0.00  -0.02  -0.37     0.00  -0.02  -0.40    -0.00   0.11  -0.10
     9   1     0.00   0.03   0.57     0.00   0.03   0.56     0.04   0.01   0.18
    10   1     0.00   0.01   0.54     0.01  -0.02  -0.52    -0.07   0.07   0.09
    11   8     0.00   0.00   0.00    -0.00  -0.00  -0.00     0.00   0.01   0.00
    12   6     0.00  -0.00  -0.00     0.00   0.00  -0.00    -0.00  -0.01  -0.00
    13   1     0.00   0.00   0.00     0.00   0.01   0.00    -0.01  -0.00   0.00
    14   1    -0.00  -0.01   0.00    -0.00  -0.00   0.00    -0.01  -0.01   0.00
    15   1     0.00   0.00  -0.01     0.00   0.00  -0.01     0.00   0.00  -0.00
    16   6    -0.00   0.01  -0.02     0.00   0.00  -0.00    -0.07  -0.04  -0.02
    17   6    -0.02  -0.01  -0.00    -0.00   0.00  -0.00     0.11   0.00   0.01
    18   7     0.02  -0.01   0.01     0.01  -0.00   0.00    -0.15   0.08   0.01
    19   6    -0.03  -0.01  -0.01    -0.01  -0.01  -0.01     0.22  -0.01  -0.02
    20   6     0.02   0.01   0.01     0.00   0.01   0.01    -0.11   0.00   0.01
    21   1    -0.02  -0.01   0.00    -0.01   0.01  -0.00     0.38  -0.04  -0.10
    22   1    -0.08   0.02   0.01    -0.02   0.01  -0.00     0.18  -0.15  -0.06
    23   1    -0.03  -0.02  -0.01    -0.01  -0.01  -0.00     0.14  -0.22   0.05
    24   1    -0.03   0.02   0.01    -0.00  -0.01   0.00     0.39  -0.08   0.06
    25   1    -0.02   0.03  -0.00    -0.02   0.01   0.00    -0.13  -0.20   0.04
    26   1     0.09   0.07  -0.03     0.03   0.03  -0.01    -0.30  -0.17   0.08
    27   1     0.07   0.01  -0.02     0.01  -0.00  -0.00    -0.39   0.01  -0.03
                     31                     32                     33
                      A                      A                      A
 Frequencies --   1019.5564              1034.8202              1071.8057
 Red. masses --      3.1365                 2.6455                 5.5217
 Frc consts  --      1.9210                 1.6691                 3.7372
 IR Inten    --      5.1779                 2.4203                96.5870
  Atom  AN      X      Y      Z        X      Y      Z        X      Y      Z
     1   6    -0.01  -0.01  -0.00    -0.03  -0.01   0.00     0.21   0.02   0.00
     2   6    -0.06  -0.16   0.01    -0.02   0.12  -0.00    -0.01   0.04  -0.00
     3   6    -0.00   0.08  -0.01     0.01  -0.18   0.00    -0.06   0.04  -0.01
     4   6     0.13  -0.03   0.01     0.07  -0.02   0.00     0.03   0.01   0.00
     5   6    -0.02  -0.04  -0.01     0.04   0.20  -0.01    -0.12  -0.05   0.00
     6   6    -0.06   0.19   0.00    -0.03  -0.10   0.00    -0.02  -0.08   0.00
     7   1     0.02   0.24  -0.06    -0.36  -0.27  -0.00    -0.32  -0.25   0.01
     8   1     0.08  -0.26  -0.01    -0.26   0.27  -0.03    -0.22   0.18  -0.02
     9   1     0.08   0.12   0.06    -0.27  -0.33   0.04    -0.15  -0.00   0.02
    10   1     0.02  -0.05   0.09    -0.21   0.37   0.01    -0.30   0.05  -0.01
    11   8    -0.01  -0.01   0.00    -0.02  -0.05   0.00     0.20   0.30  -0.01
    12   6     0.01   0.02  -0.00     0.05   0.04  -0.00    -0.22  -0.31   0.01
    13   1     0.03   0.02  -0.00    -0.00   0.03  -0.00    -0.14  -0.21   0.03
    14   1     0.03   0.02   0.00    -0.00   0.03  -0.00    -0.14  -0.22  -0.02
    15   1    -0.01  -0.01  -0.00     0.05   0.06  -0.00    -0.18  -0.19   0.00
    16   6     0.13  -0.12  -0.02     0.10  -0.05  -0.01     0.05  -0.01  -0.02
    17   6     0.09   0.17   0.01     0.03   0.08   0.00     0.04   0.04   0.01
    18   7    -0.05  -0.03   0.01     0.04  -0.03   0.00     0.05  -0.03   0.00
    19   6     0.00   0.07   0.00    -0.08   0.05   0.01    -0.05   0.04   0.01
    20   6    -0.08  -0.10  -0.00    -0.03  -0.06  -0.00    -0.04  -0.04  -0.01
    21   1     0.02   0.33  -0.10    -0.10   0.19  -0.03    -0.01   0.11  -0.04
    22   1    -0.07   0.05  -0.06    -0.06   0.05  -0.02     0.04  -0.03  -0.02
    23   1    -0.07   0.01   0.04    -0.09   0.07   0.01    -0.06   0.07   0.01
    24   1    -0.02   0.16   0.07    -0.11   0.11   0.03    -0.11   0.10   0.02
    25   1    -0.22  -0.25  -0.01    -0.09  -0.09  -0.01    -0.05  -0.09  -0.01
    26   1    -0.29  -0.37  -0.01    -0.08  -0.13  -0.02    -0.10  -0.10   0.01
    27   1    -0.35  -0.13  -0.01    -0.05  -0.06   0.01     0.02  -0.04   0.03
                     34                     35                     36
                      A                      A                      A
 Frequencies --   1096.4130              1111.5260              1169.0058
 Red. masses --      1.9103                 1.7972                 1.2989
 Frc consts  --      1.3530                 1.3082                 1.0458
 IR Inten    --     19.1317                 6.1786                24.9297
  Atom  AN      X      Y      Z        X      Y      Z        X      Y      Z
     1   6    -0.02   0.01   0.00     0.00  -0.00   0.00    -0.02   0.04  -0.00
     2   6     0.01   0.01   0.00    -0.00  -0.01   0.00    -0.06  -0.04   0.00
     3   6     0.00   0.00  -0.01    -0.00  -0.00  -0.01     0.06  -0.05   0.00
     4   6    -0.09   0.03   0.01     0.04  -0.01   0.02     0.03   0.06  -0.00
     5   6     0.00  -0.03   0.00     0.00   0.01  -0.00    -0.06  -0.01   0.00
     6   6     0.03  -0.03  -0.00    -0.01   0.02  -0.00     0.05  -0.03   0.00
     7   1     0.15   0.03   0.00    -0.05  -0.00  -0.01     0.57   0.23  -0.00
     8   1     0.01   0.02  -0.01     0.01  -0.02  -0.01    -0.37   0.14  -0.01
     9   1     0.13   0.07   0.05    -0.07  -0.04   0.05     0.32   0.07  -0.01
    10   1     0.12  -0.11   0.00    -0.05   0.05   0.03    -0.47   0.23  -0.02
    11   8    -0.02  -0.02   0.00     0.00   0.00  -0.00     0.00   0.00  -0.00
    12   6     0.02   0.02  -0.00    -0.00  -0.00  -0.00     0.02  -0.02   0.00
    13   1     0.00   0.01  -0.00     0.01   0.00   0.00    -0.09  -0.02   0.02
    14   1    -0.00   0.01   0.00     0.00  -0.00   0.00    -0.08  -0.02  -0.02
    15   1     0.02   0.03  -0.00    -0.01  -0.01   0.00     0.08   0.13  -0.00
    16   6    -0.06   0.08  -0.07     0.02  -0.03  -0.09     0.00   0.01   0.01
    17   6     0.08  -0.03   0.08    -0.05   0.01   0.13    -0.01   0.00   0.00
    18   7     0.09  -0.04  -0.01    -0.05   0.02  -0.03    -0.00  -0.01  -0.00
    19   6    -0.06   0.09   0.05     0.03  -0.07   0.11    -0.00  -0.01   0.00
    20   6    -0.07  -0.08  -0.06     0.03   0.06  -0.12     0.01   0.00  -0.00
    21   1     0.19   0.10  -0.12    -0.29   0.32  -0.07     0.04  -0.02  -0.01
    22   1     0.31  -0.34  -0.05     0.07  -0.31   0.00    -0.01   0.02   0.01
    23   1    -0.01   0.24   0.02     0.34   0.12  -0.04     0.01  -0.01  -0.00
    24   1    -0.29   0.28   0.02    -0.13  -0.30  -0.23    -0.01  -0.01  -0.01
    25   1     0.06  -0.21  -0.02     0.43   0.02  -0.04     0.01   0.01  -0.00
    26   1    -0.32  -0.23   0.10    -0.13   0.19   0.21     0.01   0.00   0.00
    27   1     0.36   0.04   0.10    -0.18  -0.02   0.10    -0.11  -0.04   0.00
                     37                     38                     39
                      A                      A                      A
 Frequencies --   1190.3693              1218.1019              1221.8868
 Red. masses --      1.2719                 1.2337                 1.2375
 Frc consts  --      1.0618                 1.0785                 1.0886
 IR Inten    --      1.3257               230.4986               221.1175
  Atom  AN      X      Y      Z        X      Y      Z        X      Y      Z
     1   6    -0.00   0.00   0.00     0.04   0.01  -0.00    -0.03  -0.01  -0.00
     2   6     0.00  -0.00   0.00    -0.04   0.01  -0.00     0.03  -0.00   0.00
     3   6    -0.00  -0.00   0.00     0.03   0.02   0.00    -0.03  -0.01   0.00
     4   6    -0.00   0.00   0.00    -0.02   0.01  -0.00     0.01  -0.01  -0.00
     5   6     0.00   0.00  -0.00     0.02  -0.03   0.00    -0.02   0.03  -0.00
     6   6    -0.00  -0.00  -0.00    -0.02  -0.01   0.00     0.01   0.01   0.00
     7   1    -0.00  -0.00   0.01    -0.32  -0.17   0.00     0.23   0.13   0.00
     8   1     0.00  -0.00   0.02    -0.36   0.21  -0.01     0.31  -0.17   0.01
     9   1    -0.00  -0.00  -0.01     0.40   0.20  -0.01    -0.31  -0.15   0.01
    10   1     0.00   0.00   0.01     0.24  -0.17   0.00    -0.18   0.13  -0.01
    11   8    -0.00   0.00   0.06    -0.04  -0.00  -0.00     0.03   0.00   0.00
    12   6     0.00  -0.01  -0.14     0.03   0.01   0.00    -0.02  -0.00  -0.00
    13   1     0.32   0.55   0.15    -0.07  -0.01   0.01     0.07   0.02  -0.01
    14   1    -0.35  -0.55   0.18    -0.06  -0.01  -0.01     0.07   0.01   0.01
    15   1     0.00   0.02   0.31     0.04   0.03  -0.00    -0.04  -0.04   0.00
    16   6     0.00  -0.00   0.00     0.03  -0.01   0.04    -0.03   0.01   0.04
    17   6    -0.00   0.00  -0.00     0.01   0.00  -0.02     0.03  -0.00  -0.03
    18   7    -0.00   0.00  -0.00    -0.00   0.01  -0.03     0.01   0.01  -0.04
    19   6     0.00  -0.00  -0.00     0.00  -0.00   0.07    -0.00   0.01   0.08
    20   6     0.00   0.00   0.00    -0.01  -0.01  -0.04    -0.01  -0.01  -0.03
    21   1    -0.00  -0.00   0.00     0.16  -0.09  -0.01     0.24  -0.14  -0.01
    22   1     0.00   0.00   0.00    -0.32   0.17   0.02    -0.28   0.14  -0.00
    23   1    -0.00  -0.00  -0.00     0.24  -0.02  -0.01     0.37  -0.11  -0.02
    24   1     0.00  -0.00   0.00    -0.19   0.01  -0.08    -0.30   0.12  -0.07
    25   1    -0.00   0.00   0.00    -0.08  -0.24  -0.02    -0.15  -0.31  -0.02
    26   1     0.00  -0.00  -0.00     0.07   0.20   0.05     0.09   0.19   0.04
    27   1    -0.00  -0.00   0.00    -0.05  -0.00  -0.03     0.02   0.01  -0.02
                     40                     41                     42
                      A                      A                      A
 Frequencies --   1227.2074              1243.8693              1268.2981
 Red. masses --      1.3735                 1.3893                 1.1583
 Frc consts  --      1.2187                 1.2665                 1.0978
 IR Inten    --     39.1326                42.8463                 6.0528
  Atom  AN      X      Y      Z        X      Y      Z        X      Y      Z
     1   6    -0.07   0.03  -0.00     0.00   0.00  -0.00     0.01   0.00   0.00
     2   6     0.01  -0.02   0.00     0.03   0.01  -0.00    -0.00  -0.00  -0.00
     3   6     0.00  -0.01   0.00    -0.01   0.00   0.00     0.01   0.00  -0.00
     4   6     0.02  -0.00   0.00    -0.09   0.01  -0.00    -0.00   0.00   0.01
     5   6     0.03   0.01  -0.00    -0.01   0.00  -0.00     0.00  -0.01   0.00
     6   6    -0.02   0.00   0.00     0.02  -0.02   0.00    -0.00  -0.00  -0.00
     7   1    -0.10  -0.03   0.00     0.14   0.05  -0.00    -0.03  -0.02  -0.00
     8   1     0.23  -0.17   0.01     0.13  -0.05   0.01    -0.07   0.04  -0.00
     9   1    -0.05  -0.04   0.00     0.02   0.02  -0.01     0.04   0.02  -0.01
    10   1     0.10  -0.03   0.00     0.02  -0.02   0.00     0.02  -0.02   0.00
    11   8    -0.02   0.06  -0.00    -0.01   0.01  -0.00    -0.01  -0.00  -0.00
    12   6     0.09  -0.10   0.01     0.01  -0.01   0.00     0.00   0.00   0.00
    13   1    -0.40  -0.10   0.08    -0.05  -0.02   0.01    -0.01  -0.00   0.00
    14   1    -0.38  -0.09  -0.10    -0.05  -0.01  -0.01    -0.01  -0.00  -0.00
    15   1     0.37   0.61  -0.03     0.04   0.07  -0.00     0.00   0.00  -0.00
    16   6    -0.01   0.00   0.00     0.02  -0.01  -0.01     0.00   0.01  -0.03
    17   6    -0.01  -0.00   0.00     0.07   0.02  -0.03    -0.01   0.01  -0.03
    18   7    -0.01   0.00  -0.00     0.03  -0.03   0.02    -0.01   0.00  -0.03
    19   6     0.00  -0.00  -0.00    -0.00   0.06   0.03     0.02  -0.01   0.00
    20   6     0.01   0.01   0.00    -0.07  -0.08  -0.02    -0.01  -0.01   0.09
    21   1     0.05  -0.03  -0.00    -0.36   0.19   0.03    -0.36   0.12   0.04
    22   1    -0.00  -0.01  -0.00     0.07   0.07  -0.01     0.51  -0.09  -0.03
    23   1     0.03  -0.02  -0.00    -0.12   0.21   0.05     0.36  -0.38  -0.04
    24   1    -0.03   0.03   0.00     0.31  -0.31  -0.03    -0.30   0.30   0.01
    25   1     0.00   0.00   0.00    -0.10  -0.19  -0.01    -0.20   0.04   0.05
    26   1    -0.03  -0.04  -0.00     0.37   0.52   0.02     0.20   0.10  -0.06
    27   1     0.03   0.01  -0.00    -0.13  -0.08  -0.02    -0.05  -0.01   0.04
                     43                     44                     45
                      A                      A                      A
 Frequencies --   1314.2182              1324.5129              1355.6585
 Red. masses --      1.9731                 2.6673                 1.3760
 Frc consts  --      2.0079                 2.7570                 1.4899
 IR Inten    --    490.6280               390.5109                 3.8989
  Atom  AN      X      Y      Z        X      Y      Z        X      Y      Z
     1   6    -0.12  -0.00  -0.00     0.23   0.07  -0.00     0.01   0.11  -0.00
     2   6    -0.07  -0.00  -0.00     0.07  -0.08   0.00    -0.01   0.01  -0.00
     3   6     0.06  -0.01   0.00    -0.07   0.01  -0.00    -0.05  -0.02   0.00
     4   6     0.15  -0.01   0.00     0.07   0.10  -0.00    -0.03  -0.08   0.00
     5   6     0.03   0.00  -0.00     0.01  -0.09   0.00     0.03  -0.02   0.00
     6   6    -0.03   0.03  -0.00     0.00   0.00  -0.00     0.04   0.00   0.00
     7   1    -0.20  -0.05  -0.00    -0.17  -0.10   0.00    -0.32  -0.18   0.00
     8   1    -0.12   0.02  -0.00    -0.11   0.03  -0.00     0.40  -0.24   0.01
     9   1     0.05  -0.03   0.01    -0.51  -0.20   0.01     0.46   0.24  -0.01
    10   1     0.07  -0.01   0.01    -0.34   0.11  -0.01    -0.44   0.26  -0.01
    11   8     0.08   0.00   0.00    -0.16  -0.02  -0.00    -0.00  -0.02   0.00
    12   6    -0.04  -0.02  -0.00     0.07   0.05   0.00    -0.01   0.01  -0.00
    13   1     0.11   0.05   0.01    -0.19  -0.06  -0.01     0.04  -0.01  -0.02
    14   1     0.12   0.04  -0.01    -0.19  -0.05   0.01     0.04  -0.00   0.02
    15   1    -0.03  -0.01   0.00     0.02  -0.05  -0.01    -0.02  -0.00  -0.00
    16   6    -0.10   0.05  -0.01    -0.03   0.07   0.00     0.01  -0.01  -0.00
    17   6    -0.09   0.04  -0.01    -0.03   0.01  -0.00    -0.05   0.02   0.01
    18   7    -0.03  -0.03   0.01    -0.02  -0.03   0.00     0.04   0.01  -0.00
    19   6     0.05  -0.01   0.02     0.04  -0.04   0.01    -0.03   0.02  -0.00
    20   6    -0.00  -0.04  -0.01    -0.01  -0.01  -0.01     0.01  -0.02  -0.00
    21   1     0.35  -0.16  -0.04     0.26  -0.12  -0.02     0.16  -0.06  -0.02
    22   1     0.45  -0.16  -0.05     0.20  -0.09  -0.03     0.10  -0.05  -0.01
    23   1    -0.18   0.33   0.04    -0.16   0.23   0.03     0.05  -0.07  -0.01
    24   1     0.08  -0.04   0.02    -0.07   0.08   0.01     0.02  -0.03  -0.00
    25   1    -0.14  -0.26  -0.02    -0.06  -0.11  -0.01     0.06   0.08  -0.00
    26   1     0.30   0.33  -0.02     0.11   0.16   0.01     0.05   0.02  -0.01
    27   1     0.04  -0.01  -0.01    -0.15  -0.07  -0.01    -0.09  -0.02   0.00
                     46                     47                     48
                      A                      A                      A
 Frequencies --   1359.1006              1365.4981              1380.4723
 Red. masses --      1.4110                 2.1904                 2.1923
 Frc consts  --      1.5356                 2.4063                 2.4615
 IR Inten    --      6.8254               207.7067                39.1114
  Atom  AN      X      Y      Z        X      Y      Z        X      Y      Z
     1   6    -0.03   0.02  -0.00    -0.05   0.12  -0.00    -0.05   0.16  -0.01
     2   6    -0.01  -0.01   0.00     0.04  -0.05   0.00     0.01  -0.05   0.00
     3   6    -0.00  -0.02   0.00    -0.05  -0.08   0.00    -0.03  -0.06   0.00
     4   6     0.00   0.04  -0.00     0.00   0.19  -0.01     0.04   0.10  -0.00
     5   6     0.02  -0.01  -0.00     0.06  -0.05   0.00     0.06  -0.05   0.00
     6   6    -0.02  -0.01   0.00    -0.07  -0.06   0.00    -0.04  -0.04   0.00
     7   1    -0.01  -0.00   0.00     0.00  -0.03   0.00    -0.16  -0.10   0.00
     8   1     0.02  -0.03   0.00    -0.03  -0.02  -0.00     0.11  -0.13   0.01
     9   1    -0.03  -0.04   0.00    -0.08  -0.10   0.00     0.16   0.02  -0.02
    10   1     0.10  -0.06   0.01     0.27  -0.19   0.02    -0.11   0.05  -0.00
    11   8     0.03  -0.00   0.00     0.05  -0.01   0.00     0.05  -0.02   0.00
    12   6    -0.01  -0.01  -0.00    -0.03  -0.00  -0.00    -0.04  -0.00  -0.00
    13   1     0.04   0.01  -0.00     0.10   0.04  -0.00     0.12   0.03  -0.01
    14   1     0.04   0.01   0.00     0.10   0.03   0.00     0.12   0.03   0.01
    15   1    -0.01  -0.00   0.00    -0.04  -0.03   0.00    -0.04  -0.01   0.00
    16   6     0.01   0.06   0.01     0.00   0.02   0.00    -0.02   0.03  -0.00
    17   6     0.04   0.01   0.02    -0.03   0.02   0.01     0.11  -0.08  -0.02
    18   7    -0.00  -0.02  -0.01     0.05  -0.02  -0.00    -0.07  -0.02   0.00
    19   6     0.05  -0.02  -0.03    -0.10   0.09   0.01     0.08  -0.08  -0.00
    20   6    -0.10  -0.10  -0.00     0.06  -0.00   0.00    -0.01   0.08   0.01
    21   1     0.15   0.01  -0.04     0.15  -0.08   0.00    -0.52   0.21   0.02
    22   1    -0.20   0.07   0.02     0.08  -0.08  -0.02    -0.21   0.19   0.06
    23   1    -0.03  -0.02  -0.00     0.26  -0.40  -0.02    -0.22   0.29   0.03
    24   1    -0.18   0.29   0.06     0.25  -0.38  -0.10    -0.16   0.20   0.04
    25   1     0.47   0.60   0.02    -0.04  -0.05  -0.01    -0.19  -0.21   0.01
    26   1     0.15   0.24   0.02    -0.07  -0.20  -0.03    -0.13  -0.04   0.04
    27   1    -0.28  -0.11  -0.01    -0.43  -0.17  -0.02     0.22   0.07   0.01
                     49                     50                     51
                      A                      A                      A
 Frequencies --   1394.6763              1445.5184              1472.4556
 Red. masses --      1.8433                 2.3559                 1.1029
 Frc consts  --      2.1125                 2.9004                 1.4088
 IR Inten    --    268.3118                18.6382                23.7575
  Atom  AN      X      Y      Z        X      Y      Z        X      Y      Z
     1   6    -0.01  -0.01   0.00    -0.01  -0.05   0.00     0.01  -0.01   0.00
     2   6     0.01   0.03  -0.00    -0.12   0.04  -0.00     0.02   0.00   0.00
     3   6    -0.03  -0.03   0.00     0.11   0.02   0.00    -0.03  -0.00  -0.00
     4   6    -0.11   0.02  -0.00     0.01  -0.03   0.00     0.01  -0.00  -0.00
     5   6    -0.01   0.03  -0.00    -0.06  -0.02  -0.00     0.01   0.01  -0.00
     6   6    -0.02  -0.03   0.00     0.13   0.06  -0.00    -0.02  -0.01  -0.00
     7   1     0.21   0.08  -0.00    -0.28  -0.15   0.00     0.05   0.03  -0.00
     8   1     0.16  -0.05   0.00     0.13  -0.12   0.01    -0.01   0.02  -0.00
     9   1     0.08   0.03   0.00    -0.13  -0.11   0.00     0.01   0.02   0.00
    10   1     0.22  -0.11   0.01    -0.06  -0.03   0.01     0.01   0.01  -0.00
    11   8     0.02   0.01  -0.00    -0.01  -0.01   0.00    -0.00   0.00  -0.00
    12   6    -0.01  -0.00  -0.00     0.00   0.00  -0.00     0.00   0.00   0.00
    13   1     0.02  -0.02  -0.01     0.01  -0.02  -0.01    -0.02  -0.00   0.00
    14   1     0.02  -0.02   0.01     0.01  -0.02   0.01    -0.02  -0.00  -0.00
    15   1    -0.01   0.00   0.00     0.02   0.04   0.00    -0.01  -0.02  -0.00
    16   6     0.17   0.00   0.00    -0.05   0.19   0.00     0.00  -0.01   0.01
    17   6    -0.08   0.01  -0.01     0.06  -0.09  -0.00    -0.04  -0.06   0.02
    18   7     0.03   0.03   0.01     0.05  -0.07   0.00    -0.01  -0.00  -0.00
    19   6     0.02  -0.12  -0.00    -0.02   0.00   0.00    -0.01   0.01   0.00
    20   6     0.03   0.05  -0.00     0.03   0.05   0.01    -0.01  -0.00   0.00
    21   1     0.18  -0.08  -0.05    -0.16   0.12  -0.10     0.19   0.38  -0.55
    22   1     0.24  -0.04   0.00    -0.06   0.17   0.09     0.24   0.55   0.30
    23   1    -0.30   0.34   0.01    -0.07  -0.10   0.03     0.04  -0.03  -0.01
    24   1    -0.32   0.22   0.03    -0.03  -0.10  -0.09     0.04  -0.03   0.00
    25   1    -0.21  -0.19  -0.01    -0.11  -0.14   0.01     0.11  -0.06   0.03
    26   1    -0.05   0.00   0.04    -0.14  -0.17  -0.01     0.06  -0.04  -0.11
    27   1    -0.48  -0.11  -0.02    -0.65  -0.29  -0.02     0.07   0.02  -0.01
                     52                     53                     54
                      A                      A                      A
 Frequencies --   1492.2532              1503.5932              1509.9979
 Red. masses --      1.7627                 1.5500                 1.0993
 Frc consts  --      2.3127                 2.0646                 1.4768
 IR Inten    --    178.9766                15.8773                35.6166
  Atom  AN      X      Y      Z        X      Y      Z        X      Y      Z
     1   6    -0.03  -0.07   0.00     0.04   0.04  -0.00    -0.01  -0.01   0.00
     2   6     0.13  -0.02   0.00    -0.04  -0.01   0.00     0.01   0.00   0.00
     3   6    -0.09   0.04  -0.00     0.06   0.00   0.00    -0.00   0.00  -0.00
     4   6    -0.00  -0.08   0.00    -0.03   0.06  -0.00     0.01  -0.00   0.00
     5   6     0.10  -0.01   0.00    -0.09  -0.01  -0.00     0.01  -0.00   0.00
     6   6    -0.07   0.04  -0.00     0.10  -0.00   0.00    -0.01   0.00  -0.00
     7   1     0.02   0.10  -0.00    -0.12  -0.13   0.00    -0.00   0.01  -0.00
     8   1    -0.27   0.24  -0.01     0.04  -0.07   0.00    -0.01   0.01   0.00
     9   1     0.07   0.13  -0.01    -0.17  -0.12   0.01     0.00   0.01  -0.00
    10   1    -0.19   0.18  -0.01     0.04  -0.11   0.00    -0.01   0.01   0.00
    11   8    -0.01   0.00  -0.00    -0.04  -0.03  -0.00     0.01   0.00   0.00
    12   6    -0.01  -0.07   0.00    -0.05  -0.07  -0.00     0.01   0.01   0.00
    13   1     0.10   0.44   0.29     0.26   0.39   0.22    -0.03  -0.05  -0.03
    14   1     0.11   0.42  -0.31     0.36   0.37  -0.22    -0.07  -0.05   0.02
    15   1     0.07   0.15   0.00     0.13   0.40   0.07    -0.02  -0.07  -0.03
    16   6    -0.03   0.07  -0.00     0.04  -0.07   0.00    -0.02   0.00   0.00
    17   6     0.02  -0.02  -0.00    -0.02   0.02   0.00     0.00  -0.02   0.00
    18   7     0.04  -0.01   0.00    -0.01   0.02  -0.00     0.01   0.00  -0.00
    19   6    -0.01  -0.01  -0.00    -0.01  -0.01  -0.00    -0.03  -0.02  -0.01
    20   6     0.01   0.01   0.00     0.00  -0.02  -0.00     0.05  -0.04  -0.03
    21   1    -0.07  -0.01   0.03     0.08   0.03  -0.07     0.01   0.06  -0.08
    22   1    -0.05  -0.01  -0.01     0.05   0.05   0.02     0.02   0.08   0.04
    23   1    -0.05   0.01   0.00     0.09   0.07  -0.05     0.25   0.19  -0.14
    24   1    -0.04   0.01  -0.01     0.06   0.05   0.09     0.20   0.09   0.27
    25   1    -0.04  -0.03  -0.00    -0.03   0.07  -0.02    -0.46   0.36  -0.17
    26   1    -0.05  -0.04   0.01     0.00   0.05   0.06    -0.23   0.16   0.52
    27   1    -0.26  -0.10  -0.01     0.15   0.07   0.00    -0.05  -0.02  -0.00
                     55                     56                     57
                      A                      A                      A
 Frequencies --   1514.8107              1520.1718              1525.3892
 Red. masses --      1.0562                 1.0845                 1.1210
 Frc consts  --      1.4279                 1.4767                 1.5368
 IR Inten    --     16.2606                14.4128                14.1019
  Atom  AN      X      Y      Z        X      Y      Z        X      Y      Z
     1   6     0.00  -0.01  -0.00     0.01  -0.02   0.00    -0.01  -0.00   0.00
     2   6     0.02  -0.00   0.00     0.03  -0.01   0.00     0.00  -0.00   0.00
     3   6    -0.01   0.01  -0.00    -0.01   0.02  -0.00     0.00   0.00  -0.00
     4   6     0.00  -0.01   0.00    -0.00  -0.02   0.00    -0.00   0.00   0.00
     5   6     0.01  -0.00   0.00     0.02  -0.00   0.00     0.00  -0.00   0.00
     6   6    -0.01   0.00   0.00    -0.01   0.01  -0.00     0.01   0.01  -0.00
     7   1     0.01   0.02  -0.00     0.00   0.02  -0.00    -0.02  -0.01  -0.00
     8   1    -0.05   0.04  -0.02    -0.12   0.08   0.00    -0.02   0.01  -0.00
     9   1     0.00   0.02   0.00    -0.02   0.02  -0.00    -0.01  -0.00  -0.00
    10   1    -0.02   0.02  -0.00    -0.04   0.04  -0.00    -0.00  -0.00   0.00
    11   8    -0.01   0.01  -0.01    -0.03   0.01   0.00     0.00   0.00  -0.00
    12   6    -0.02   0.01  -0.05    -0.05   0.00   0.02     0.00   0.01  -0.00
    13   1    -0.33  -0.15  -0.07     0.56  -0.29  -0.27    -0.02  -0.03  -0.02
    14   1     0.57  -0.15   0.20     0.15  -0.27   0.24    -0.01  -0.03   0.02
    15   1     0.05   0.20   0.65     0.16   0.49  -0.29    -0.01  -0.02   0.01
    16   6    -0.01   0.01  -0.00    -0.00   0.01  -0.00    -0.01  -0.00  -0.00
    17   6     0.00  -0.00  -0.00     0.00  -0.00   0.00     0.01   0.01  -0.00
    18   7     0.00  -0.00   0.00     0.01  -0.00   0.00     0.02   0.01  -0.00
    19   6    -0.00   0.00  -0.00    -0.00  -0.00  -0.00    -0.06  -0.05  -0.02
    20   6     0.00  -0.00  -0.00     0.00   0.00  -0.00    -0.03   0.03   0.02
    21   1    -0.00   0.00  -0.00    -0.00   0.00  -0.01    -0.04  -0.02   0.06
    22   1    -0.00   0.00   0.00     0.00   0.01   0.00    -0.04  -0.04  -0.02
    23   1    -0.00  -0.00  -0.00    -0.00  -0.00   0.00     0.42   0.35  -0.24
    24   1     0.00  -0.00  -0.00    -0.00  -0.00  -0.00     0.30   0.19   0.48
    25   1    -0.02   0.01  -0.01    -0.01   0.00  -0.00     0.26  -0.22   0.10
    26   1    -0.01   0.00   0.02    -0.01  -0.00   0.01     0.11  -0.11  -0.31
    27   1    -0.02  -0.01  -0.00    -0.03  -0.01  -0.00    -0.12  -0.04  -0.00
                     58                     59                     60
                      A                      A                      A
 Frequencies --   1577.3698              1641.7646              1669.8601
 Red. masses --      2.6603                 5.5976                 5.3073
 Frc consts  --      3.8998                 8.8894                 8.7193
 IR Inten    --    180.9192               279.7342              1120.9517
  Atom  AN      X      Y      Z        X      Y      Z        X      Y      Z
     1   6     0.19  -0.02   0.00    -0.02   0.34  -0.01     0.10   0.10  -0.00
     2   6    -0.09   0.10  -0.00     0.11  -0.21   0.01    -0.18  -0.02   0.00
     3   6    -0.09  -0.08   0.00     0.06   0.16  -0.01     0.27   0.13  -0.00
     4   6     0.17  -0.03   0.00     0.05  -0.29   0.01    -0.20  -0.12   0.00
     5   6    -0.06   0.09  -0.00    -0.18   0.21  -0.01     0.24  -0.02   0.00
     6   6    -0.12  -0.09   0.00     0.01  -0.18   0.01    -0.27  -0.08   0.00
     7   1     0.38   0.16  -0.00     0.18  -0.13   0.01     0.22   0.19  -0.00
     8   1     0.39  -0.19   0.01    -0.33   0.04  -0.00     0.04  -0.18   0.01
     9   1     0.41   0.16  -0.01    -0.24   0.04  -0.00    -0.40  -0.20   0.01
    10   1     0.37  -0.15   0.01     0.46  -0.17   0.01    -0.22   0.28  -0.01
    11   8    -0.06  -0.01  -0.00     0.00  -0.04   0.00     0.02  -0.01   0.00
    12   6    -0.02  -0.02   0.00    -0.00   0.02  -0.00    -0.02  -0.02   0.00
    13   1     0.13   0.12   0.06    -0.02  -0.02  -0.02     0.05   0.07   0.05
    14   1     0.12   0.12  -0.07    -0.02  -0.02   0.02     0.05   0.07  -0.05
    15   1     0.05   0.18  -0.01    -0.04  -0.09   0.00    -0.01   0.03  -0.00
    16   6    -0.04   0.09  -0.00    -0.09   0.00  -0.00     0.13   0.12   0.00
    17   6     0.02  -0.01  -0.00     0.01  -0.01   0.00    -0.02  -0.01   0.00
    18   7    -0.04  -0.05  -0.00     0.08   0.04   0.00    -0.10  -0.09  -0.01
    19   6    -0.00   0.01  -0.00    -0.00  -0.01  -0.00    -0.01   0.03   0.00
    20   6     0.00   0.00   0.00     0.00   0.00   0.00     0.00   0.00  -0.00
    21   1    -0.05  -0.04   0.06    -0.03   0.03  -0.03     0.09  -0.07   0.00
    22   1    -0.04  -0.04  -0.02    -0.02   0.03   0.02     0.05  -0.05  -0.01
    23   1     0.10   0.00  -0.03    -0.10   0.03   0.02     0.18  -0.05  -0.05
    24   1     0.10  -0.02   0.06    -0.09   0.03  -0.03     0.16  -0.07   0.06
    25   1    -0.01  -0.01  -0.00    -0.01  -0.01  -0.00     0.00  -0.00  -0.00
    26   1    -0.01  -0.01   0.00    -0.01  -0.02   0.00    -0.01  -0.01   0.00
    27   1    -0.02  -0.05  -0.00    -0.30  -0.08  -0.02     0.23   0.00   0.02
                     61                     62                     63
                      A                      A                      A
 Frequencies --   1708.0320              3076.7947              3093.2311
 Red. masses --      5.7196                 1.0315                 1.0685
 Frc consts  --      9.8312                 5.7535                 6.0234
 IR Inten    --    212.9584                65.1210                11.6639
  Atom  AN      X      Y      Z        X      Y      Z        X      Y      Z
     1   6    -0.11   0.02  -0.00    -0.00   0.00  -0.00    -0.00  -0.00   0.00
     2   6     0.15  -0.06   0.00    -0.00  -0.00   0.00    -0.00   0.00   0.00
     3   6    -0.13  -0.01  -0.00    -0.00  -0.00   0.00     0.00  -0.00   0.00
     4   6    -0.02  -0.05   0.00     0.00   0.00  -0.00     0.00   0.00  -0.00
     5   6    -0.13   0.05  -0.00    -0.00   0.00  -0.00    -0.00   0.00  -0.00
     6   6     0.15   0.02   0.00     0.00   0.00  -0.00     0.00   0.00   0.00
     7   1    -0.10  -0.12   0.00    -0.00  -0.00  -0.00    -0.00  -0.00   0.00
     8   1    -0.15   0.13  -0.01     0.01   0.01  -0.00    -0.00  -0.00   0.00
     9   1     0.07   0.11  -0.00     0.00   0.00  -0.00    -0.00   0.00  -0.00
    10   1     0.06  -0.07  -0.00    -0.00  -0.00   0.00     0.00   0.00   0.00
    11   8     0.02  -0.00   0.00     0.00   0.00  -0.00     0.00  -0.00  -0.00
    12   6     0.01   0.01  -0.00     0.01   0.04   0.00    -0.00  -0.00  -0.00
    13   1    -0.03  -0.03  -0.02     0.09  -0.32   0.54    -0.00   0.00  -0.00
    14   1    -0.03  -0.03   0.02     0.11  -0.37  -0.54    -0.00   0.00   0.00
    15   1    -0.01  -0.03   0.00    -0.36   0.14  -0.01     0.00  -0.00   0.00
    16   6     0.31   0.28   0.01    -0.00  -0.00  -0.00     0.00   0.00  -0.00
    17   6    -0.04  -0.01  -0.00     0.00   0.00  -0.00     0.02   0.05  -0.05
    18   7    -0.27  -0.22  -0.01     0.00   0.00  -0.00    -0.00  -0.00   0.00
    19   6     0.00   0.05   0.01     0.00   0.00   0.00    -0.00  -0.00  -0.00
    20   6    -0.00   0.00  -0.00     0.00  -0.00  -0.00     0.00  -0.00   0.01
    21   1     0.13  -0.16   0.06    -0.00  -0.00  -0.00    -0.11  -0.21  -0.23
    22   1     0.04  -0.11  -0.04    -0.00  -0.00   0.00    -0.08  -0.36   0.86
    23   1     0.27  -0.08  -0.06    -0.00  -0.00  -0.00     0.01   0.01   0.03
    24   1     0.28  -0.12   0.09    -0.00  -0.00   0.00     0.00   0.00  -0.00
    25   1    -0.01  -0.00  -0.01    -0.00   0.00   0.00     0.01  -0.01  -0.04
    26   1    -0.02  -0.00   0.01    -0.00   0.00  -0.00    -0.03   0.02  -0.02
    27   1     0.50  -0.02   0.03    -0.00   0.00   0.00     0.00  -0.00  -0.00
                     64                     65                     66
                      A                      A                      A
 Frequencies --   3113.3458              3118.0600              3162.2276
 Red. masses --      1.0638                 1.0654                 1.1090
 Frc consts  --      6.0755                 6.1026                 6.5339
 IR Inten    --     27.7393                29.0990                32.7928
  Atom  AN      X      Y      Z        X      Y      Z        X      Y      Z
     1   6     0.00  -0.00   0.00    -0.00   0.00  -0.00    -0.00   0.00   0.00
     2   6    -0.00   0.00   0.00     0.00   0.00  -0.00    -0.00   0.00  -0.00
     3   6     0.00   0.00  -0.00     0.00  -0.00   0.00    -0.00  -0.00  -0.00
     4   6    -0.00  -0.00  -0.00     0.00  -0.00  -0.00     0.00  -0.00  -0.00
     5   6     0.00  -0.00   0.00    -0.00  -0.00  -0.00     0.00   0.00  -0.00
     6   6    -0.00   0.00  -0.00     0.00  -0.00   0.00     0.00  -0.00  -0.00
     7   1     0.00  -0.00   0.00    -0.00   0.00  -0.00    -0.00   0.00   0.00
     8   1     0.00   0.00  -0.00    -0.00  -0.00   0.00    -0.00  -0.00   0.00
     9   1    -0.00   0.00  -0.00    -0.00   0.00  -0.00     0.00   0.00   0.00
    10   1     0.00  -0.00   0.00     0.00   0.00  -0.00    -0.00  -0.00   0.00
    11   8    -0.00   0.00   0.00     0.00  -0.00   0.00     0.00   0.00   0.00
    12   6     0.00   0.00   0.00    -0.00  -0.00   0.00     0.00  -0.00  -0.10
    13   1     0.00  -0.00   0.00    -0.00   0.00  -0.00     0.12  -0.37   0.60
    14   1     0.00  -0.00  -0.00    -0.00   0.00   0.00    -0.13   0.40   0.55
    15   1    -0.00   0.00  -0.00     0.00  -0.00   0.00    -0.02   0.01  -0.02
    16   6     0.00   0.00   0.00    -0.00   0.00   0.00    -0.00  -0.00   0.00
    17   6    -0.00  -0.00   0.00     0.00   0.00   0.01    -0.00  -0.00  -0.00
    18   7    -0.00   0.00   0.00    -0.00   0.00   0.00     0.00  -0.00  -0.00
    19   6    -0.04  -0.03  -0.04    -0.00   0.00   0.01    -0.00  -0.00   0.00
    20   6     0.01  -0.00   0.00     0.04  -0.03  -0.05     0.00  -0.00   0.00
    21   1     0.01   0.02   0.02    -0.03  -0.06  -0.06     0.00   0.00   0.00
    22   1     0.00   0.01  -0.03     0.00   0.00  -0.00     0.00  -0.00   0.00
    23   1     0.28   0.15   0.83    -0.03  -0.01  -0.07    -0.00  -0.00  -0.00
    24   1     0.23   0.24  -0.30     0.02   0.02  -0.03     0.00   0.00  -0.00
    25   1    -0.00   0.00   0.02    -0.16   0.10   0.85     0.00  -0.00  -0.00
    26   1    -0.06   0.04  -0.05    -0.31   0.24  -0.26    -0.00   0.00  -0.00
    27   1    -0.01  -0.00  -0.00     0.00   0.00  -0.00    -0.00   0.00  -0.00
                     67                     68                     69
                      A                      A                      A
 Frequencies --   3172.6254              3179.0422              3188.7649
 Red. masses --      1.0976                 1.1034                 1.1063
 Frc consts  --      6.5092                 6.5703                 6.6276
 IR Inten    --      1.6800                10.4350                18.3037
  Atom  AN      X      Y      Z        X      Y      Z        X      Y      Z
     1   6    -0.00   0.00   0.00    -0.00   0.00  -0.00    -0.00   0.00   0.00
     2   6     0.00  -0.00   0.00     0.00   0.00  -0.00     0.00  -0.00   0.00
     3   6    -0.00   0.00   0.00     0.00  -0.00  -0.00    -0.00   0.00  -0.00
     4   6     0.00  -0.00  -0.00     0.00   0.00  -0.00     0.00  -0.00  -0.00
     5   6     0.00  -0.00  -0.00    -0.00   0.00   0.00     0.00   0.00   0.00
     6   6    -0.00  -0.00   0.00     0.00  -0.00  -0.00     0.00  -0.00  -0.00
     7   1    -0.00   0.00  -0.00    -0.00   0.00  -0.00    -0.00   0.00  -0.00
     8   1     0.00   0.00  -0.00    -0.00  -0.00   0.00     0.00   0.00  -0.00
     9   1     0.01  -0.03   0.00    -0.01   0.01  -0.00     0.00  -0.01   0.00
    10   1     0.00   0.00   0.00    -0.00  -0.00  -0.00    -0.00  -0.00   0.00
    11   8     0.00   0.00  -0.00     0.00  -0.00   0.00     0.00   0.00  -0.00
    12   6    -0.00   0.00   0.00     0.00  -0.00  -0.00    -0.00  -0.00  -0.00
    13   1    -0.00   0.00  -0.00    -0.00   0.00  -0.00     0.00  -0.00   0.00
    14   1    -0.00   0.00  -0.00    -0.00   0.00   0.00    -0.00   0.00   0.00
    15   1     0.00  -0.00   0.00    -0.00   0.00  -0.00     0.00  -0.00  -0.00
    16   6    -0.00   0.00  -0.00    -0.00  -0.00   0.00    -0.00   0.00  -0.00
    17   6    -0.02  -0.04  -0.07     0.01   0.01   0.03    -0.01  -0.01  -0.02
    18   7    -0.00   0.00  -0.00    -0.00  -0.00   0.00    -0.00  -0.00   0.00
    19   6     0.01   0.01  -0.01     0.02   0.03  -0.06     0.02   0.02  -0.06
    20   6     0.02  -0.02   0.03     0.03  -0.02   0.05    -0.03   0.02  -0.06
    21   1     0.30   0.58   0.56    -0.12  -0.22  -0.21     0.07   0.13   0.13
    22   1    -0.03  -0.11   0.24     0.02   0.06  -0.14    -0.01  -0.04   0.09
    23   1     0.00   0.00   0.01     0.09   0.05   0.25     0.11   0.06   0.31
    24   1    -0.06  -0.06   0.07    -0.34  -0.36   0.42    -0.32  -0.34   0.39
    25   1     0.02  -0.02  -0.11     0.05  -0.03  -0.25    -0.08   0.05   0.37
    26   1    -0.27   0.21  -0.21    -0.36   0.28  -0.29     0.38  -0.30   0.30
    27   1     0.00   0.00  -0.00     0.00   0.00   0.00     0.00   0.00   0.00
                     70                     71                     72
                      A                      A                      A
 Frequencies --   3206.5291              3225.3482              3243.3196
 Red. masses --      1.1049                 1.0910                 1.0959
 Frc consts  --      6.6935                 6.6871                 6.7922
 IR Inten    --     17.0650                 6.1683                 5.8021
  Atom  AN      X      Y      Z        X      Y      Z        X      Y      Z
     1   6     0.00   0.00  -0.00    -0.00  -0.00   0.00     0.00   0.00  -0.00
     2   6    -0.00  -0.00   0.00    -0.00  -0.00   0.00     0.00   0.01  -0.00
     3   6    -0.00   0.00  -0.00     0.00   0.00  -0.00     0.01  -0.02   0.00
     4   6    -0.00   0.00  -0.00    -0.00   0.00  -0.00    -0.00   0.00  -0.00
     5   6    -0.00  -0.00   0.00    -0.04  -0.07   0.00    -0.02  -0.03   0.00
     6   6    -0.00   0.00  -0.00    -0.01   0.03  -0.00     0.04  -0.07   0.00
     7   1     0.00  -0.00   0.00     0.19  -0.37   0.01    -0.41   0.77  -0.03
     8   1     0.01   0.02  -0.00     0.01   0.01  -0.00    -0.04  -0.06   0.00
     9   1     0.00  -0.01   0.00     0.00  -0.01   0.00    -0.11   0.22  -0.01
    10   1     0.00   0.00  -0.00     0.47   0.77  -0.02     0.21   0.34  -0.01
    11   8     0.00  -0.00   0.00    -0.00   0.00  -0.00    -0.00  -0.00   0.00
    12   6    -0.08   0.05  -0.00     0.00   0.00  -0.00    -0.00   0.00  -0.00
    13   1     0.03  -0.13   0.24    -0.00  -0.00   0.00     0.00  -0.00   0.00
    14   1     0.03  -0.14  -0.21    -0.00  -0.00  -0.00     0.00  -0.00  -0.00
    15   1     0.86  -0.34   0.02    -0.00   0.00  -0.00     0.00  -0.00   0.00
    16   6     0.00   0.00   0.00    -0.00  -0.00   0.00    -0.00  -0.00   0.00
    17   6     0.00   0.00   0.00     0.00  -0.00   0.00    -0.00  -0.00  -0.00
    18   7    -0.00  -0.00  -0.00    -0.00   0.00   0.00     0.00   0.00  -0.00
    19   6     0.00   0.00  -0.00     0.00   0.00  -0.00    -0.00  -0.00   0.00
    20   6     0.00  -0.00   0.00    -0.00  -0.00   0.00    -0.00   0.00  -0.00
    21   1    -0.00  -0.00  -0.00    -0.00  -0.00  -0.00     0.00   0.01   0.01
    22   1     0.00   0.00  -0.00     0.00   0.00  -0.00     0.00  -0.00   0.00
    23   1    -0.00   0.00  -0.00     0.00  -0.00   0.00     0.00  -0.00   0.00
    24   1    -0.00  -0.00   0.00    -0.00  -0.00   0.00     0.00   0.00  -0.00
    25   1     0.00  -0.00  -0.00     0.00  -0.00  -0.00     0.00  -0.00   0.00
    26   1    -0.00   0.00  -0.00     0.00  -0.00   0.00     0.00  -0.00   0.00
    27   1     0.00  -0.00  -0.00     0.01  -0.01  -0.00     0.00  -0.01  -0.00
                     73                     74                     75
                      A                      A                      A
 Frequencies --   3245.8276              3265.2350              3626.9796
 Red. masses --      1.0911                 1.0946                 1.0810
 Frc consts  --      6.7729                 6.8759                 8.3788
 IR Inten    --      0.6809                 1.7016               195.2695
  Atom  AN      X      Y      Z        X      Y      Z        X      Y      Z
     1   6    -0.00  -0.00   0.00    -0.00   0.00  -0.00    -0.00   0.00  -0.00
     2   6     0.01   0.02  -0.00    -0.04  -0.07   0.00     0.00  -0.00   0.00
     3   6     0.03  -0.07   0.00     0.02  -0.03   0.00    -0.00  -0.00   0.00
     4   6     0.00   0.00  -0.00     0.00   0.00  -0.00     0.00  -0.00  -0.00
     5   6     0.00   0.01  -0.00     0.00   0.00  -0.00    -0.00  -0.00   0.00
     6   6    -0.01   0.02  -0.00    -0.00   0.00  -0.00     0.00   0.00  -0.00
     7   1     0.11  -0.21   0.01     0.00  -0.00   0.00     0.00  -0.00   0.00
     8   1    -0.17  -0.27   0.01     0.50   0.80  -0.03     0.00   0.00   0.00
     9   1    -0.40   0.81  -0.03    -0.15   0.29  -0.01    -0.00   0.00  -0.00
    10   1    -0.05  -0.08   0.00    -0.01  -0.01   0.00     0.01   0.01  -0.00
    11   8     0.00   0.00  -0.00     0.00  -0.00   0.00     0.00  -0.00   0.00
    12   6    -0.00   0.00  -0.00     0.00  -0.00   0.00    -0.00  -0.00   0.00
    13   1     0.00  -0.00   0.01    -0.00   0.01  -0.01    -0.00   0.00  -0.00
    14   1     0.00  -0.00  -0.01    -0.00   0.01   0.01    -0.00   0.00   0.00
    15   1     0.01  -0.00   0.00    -0.01   0.01  -0.00     0.00  -0.00   0.00
    16   6     0.00  -0.00  -0.00     0.00  -0.00   0.00     0.00   0.00   0.00
    17   6    -0.00  -0.00  -0.00    -0.00  -0.00  -0.00     0.00   0.00  -0.00
    18   7    -0.00  -0.00  -0.00    -0.00  -0.00   0.00     0.02  -0.07  -0.00
    19   6     0.00   0.00  -0.00     0.00   0.00  -0.00    -0.00   0.00   0.00
    20   6    -0.00   0.00  -0.00     0.00   0.00  -0.00    -0.00   0.00   0.00
    21   1     0.01   0.02   0.02     0.00   0.01   0.00    -0.00  -0.00   0.00
    22   1    -0.00  -0.00   0.00    -0.00  -0.00   0.00    -0.00  -0.00   0.00
    23   1    -0.00   0.00  -0.00    -0.00   0.00  -0.00     0.00  -0.00  -0.00
    24   1    -0.00  -0.00   0.00    -0.00  -0.00   0.00     0.00   0.00  -0.00
    25   1    -0.00   0.00   0.00    -0.00   0.00   0.00     0.00  -0.00  -0.00
    26   1     0.00  -0.00   0.00    -0.00   0.00  -0.00     0.00   0.00   0.00
    27   1    -0.00   0.00   0.00     0.00  -0.00  -0.00    -0.28   0.96   0.02

 -------------------
 - Thermochemistry -
 -------------------
 Temperature   298.150 Kelvin.  Pressure   1.00000 Atm.
 Atom     1 has atomic number  6 and mass  12.00000
 Atom     2 has atomic number  6 and mass  12.00000
 Atom     3 has atomic number  6 and mass  12.00000
 Atom     4 has atomic number  6 and mass  12.00000
 Atom     5 has atomic number  6 and mass  12.00000
 Atom     6 has atomic number  6 and mass  12.00000
 Atom     7 has atomic number  1 and mass   1.00783
 Atom     8 has atomic number  1 and mass   1.00783
 Atom     9 has atomic number  1 and mass   1.00783
 Atom    10 has atomic number  1 and mass   1.00783
 Atom    11 has atomic number  8 and mass  15.99491
 Atom    12 has atomic number  6 and mass  12.00000
 Atom    13 has atomic number  1 and mass   1.00783
 Atom    14 has atomic number  1 and mass   1.00783
 Atom    15 has atomic number  1 and mass   1.00783
 Atom    16 has atomic number  6 and mass  12.00000
 Atom    17 has atomic number  6 and mass  12.00000
 Atom    18 has atomic number  7 and mass  14.00307
 Atom    19 has atomic number  6 and mass  12.00000
 Atom    20 has atomic number  6 and mass  12.00000
 Atom    21 has atomic number  1 and mass   1.00783
 Atom    22 has atomic number  1 and mass   1.00783
 Atom    23 has atomic number  1 and mass   1.00783
 Atom    24 has atomic number  1 and mass   1.00783
 Atom    25 has atomic number  1 and mass   1.00783
 Atom    26 has atomic number  1 and mass   1.00783
 Atom    27 has atomic number  1 and mass   1.00783
 Molecular mass:   176.10754 amu.
 Principal axes and moments of inertia in atomic units:
                           1         2         3
     Eigenvalues --   629.642395098.636065673.16603
           X            0.99998   0.00610  -0.00017
           Y           -0.00610   0.99998  -0.00035
           Z            0.00016   0.00035   1.00000
 This molecule is an asymmetric top.
 Rotational symmetry number  1.
 Warning -- assumption of classical behavior for rotation
           may cause significant error
 Rotational temperatures (Kelvin)      0.13756     0.01699     0.01527
 Rotational constants (GHZ):           2.86630     0.35397     0.31812
 Zero-point vibrational energy     620268.8 (Joules/Mol)
                                  148.24780 (Kcal/Mol)
 Warning -- explicit consideration of  16 degrees of freedom as
           vibrations may cause significant error
 Vibrational temperatures:     71.29    81.59   160.73   189.04   218.01
          (Kelvin)            283.15   360.62   380.41   442.65   462.28
                              604.45   619.50   719.92   733.39   804.52
                              885.41   934.60   973.84  1049.62  1105.70
                             1176.95  1198.31  1210.47  1242.22  1278.61
                             1327.77  1377.55  1427.43  1442.90  1459.32
                             1466.91  1488.88  1542.09  1577.49  1599.24
                             1681.94  1712.68  1752.58  1758.02  1765.68
                             1789.65  1824.80  1890.87  1905.68  1950.49
                             1955.44  1964.65  1986.19  2006.63  2079.78
                             2118.54  2147.02  2163.34  2172.55  2179.47
                             2187.19  2194.69  2269.48  2362.13  2402.56
                             2457.48  4426.82  4450.47  4479.41  4486.19
                             4549.74  4564.70  4573.93  4587.92  4613.48
                             4640.56  4666.41  4670.02  4697.94  5218.41
 
 Zero-point correction=                           0.236248 (Hartree/Particle)
 Thermal correction to Energy=                    0.247779
 Thermal correction to Enthalpy=                  0.248724
 Thermal correction to Gibbs Free Energy=         0.198082
 Sum of electronic and zero-point Energies=           -557.042701
 Sum of electronic and thermal Energies=              -557.031170
 Sum of electronic and thermal Enthalpies=            -557.030226
 Sum of electronic and thermal Free Energies=         -557.080867
 
                     E (Thermal)             CV                S
                      KCal/Mol        Cal/Mol-Kelvin    Cal/Mol-Kelvin
 Total                  155.484             44.465            106.584
 Electronic               0.000              0.000              0.000
 Translational            0.889              2.981             41.405
 Rotational               0.889              2.981             31.277
 Vibrational            153.706             38.503             33.902
 Vibration     1          0.595              1.978              4.835
 Vibration     2          0.596              1.975              4.569
 Vibration     3          0.607              1.940              3.239
 Vibration     4          0.612              1.922              2.926
 Vibration     5          0.619              1.901              2.653
 Vibration     6          0.636              1.844              2.163
 Vibration     7          0.663              1.762              1.726
 Vibration     8          0.671              1.738              1.633
 Vibration     9          0.698              1.659              1.375
 Vibration    10          0.707              1.633              1.303
 Vibration    11          0.783              1.427              0.892
 Vibration    12          0.792              1.404              0.857
 Vibration    13          0.856              1.249              0.657
 Vibration    14          0.865              1.228              0.634
 Vibration    15          0.915              1.120              0.525
 Vibration    16          0.975              0.999              0.424
                       Q            Log10(Q)             Ln(Q)
 Total Bot       0.773705D-91        -91.111424       -209.791807
 Total V=0       0.358898D+18         17.554971         40.421814
 Vib (Bot)       0.551344-105       -105.258577       -242.366831
 Vib (Bot)    1  0.417252D+01          0.620398          1.428519
 Vib (Bot)    2  0.364296D+01          0.561454          1.292796
 Vib (Bot)    3  0.183274D+01          0.263101          0.605813
 Vib (Bot)    4  0.155103D+01          0.190620          0.438919
 Vib (Bot)    5  0.133758D+01          0.126321          0.290865
 Vib (Bot)    6  0.101441D+01          0.006213          0.014306
 Vib (Bot)    7  0.778439D+00         -0.108775         -0.250464
 Vib (Bot)    8  0.733015D+00         -0.134887         -0.310589
 Vib (Bot)    9  0.615460D+00         -0.210800         -0.485385
 Vib (Bot)   10  0.584608D+00         -0.233135         -0.536813
 Vib (Bot)   11  0.417922D+00         -0.378905         -0.872460
 Vib (Bot)   12  0.404485D+00         -0.393098         -0.905141
 Vib (Bot)   13  0.328353D+00         -0.483659         -1.113665
 Vib (Bot)   14  0.319635D+00         -0.495346         -1.140577
 Vib (Bot)   15  0.278174D+00         -0.555683         -1.279507
 Vib (Bot)   16  0.238795D+00         -0.621974         -1.432149
 Vib (V=0)       0.255751D+04          3.407818          7.846790
 Vib (V=0)    1  0.470237D+01          0.672317          1.548066
 Vib (V=0)    2  0.417711D+01          0.620876          1.429620
 Vib (V=0)    3  0.239972D+01          0.380161          0.875353
 Vib (V=0)    4  0.212963D+01          0.328304          0.755948
 Vib (V=0)    5  0.192798D+01          0.285103          0.656474
 Vib (V=0)    6  0.163094D+01          0.212438          0.489157
 Vib (V=0)    7  0.142519D+01          0.153871          0.354302
 Vib (V=0)    8  0.138731D+01          0.142172          0.327363
 Vib (V=0)    9  0.129296D+01          0.111586          0.256937
 Vib (V=0)   10  0.126926D+01          0.103552          0.238437
 Vib (V=0)   11  0.115166D+01          0.061324          0.141203
 Vib (V=0)   12  0.114312D+01          0.058093          0.133765
 Vib (V=0)   13  0.109818D+01          0.040672          0.093652
 Vib (V=0)   14  0.109344D+01          0.038793          0.089325
 Vib (V=0)   15  0.107217D+01          0.030265          0.069687
 Vib (V=0)   16  0.105410D+01          0.022880          0.052684
 Electronic      0.100000D+01          0.000000          0.000000
 Translational   0.918588D+08          7.963121         18.335763
 Rotational      0.152768D+07          6.184032         14.239261
 
                                         Ground-state geometry optimization (S0) 
 with wB97XD
                                                             IR Spectrum
 
     3       3333333333333                                      111111111111111111111111111111111                                    
     6       2222211111100                                      76655555544433333332222211100000099988888 77 666 555 44  3322 1111   
     2       6442087761197                                      07472211097498655216422196197321095286431 63 751 510 32  2065 953155 
     7       5635799328337                                      80275050422650596548472809262504327393138 80 705 900 10  1841 721270 
 
     X       XXXXXXXXXXXXX                                      XXXXXXXXXXXXXXXXXXXXXXXXXXXXXXXXXXXXXXXXX XX XXX XXX XX  XXXX XXXXXX 
     X                                                          XXXX     X  X X  XX   XX    X             X                          
     X                                                          XXXX     X  X X  XX   XX                  X                          
                                                                XXX         X X  XX   XX                                             
                                                                 XX         X    XX                                                  
                                                                 X               XX                                                  
                                                                 X               XX                                                  
                                                                 X                X                                                  
                                                                 X                X                                                  
                                                                 X                                                                   
                                                                 X                                                                   
                                                                 X                                                                   
                                                                 X                                                                   
                                                                 X                                                                   
                                                                 X                                                                   
                                                                 X                                                                   
                                                                 X                                                                   
                                                                 X                                                                   
                                                                 X                                                                   
                                                                 X                                                                   
 
 ***** Axes restored to original set *****
 -------------------------------------------------------------------
 Center     Atomic                   Forces (Hartrees/Bohr)
 Number     Number              X              Y              Z
 -------------------------------------------------------------------
      1        6           0.000055078   -0.000019829    0.000004746
      2        6          -0.000009199   -0.000001724    0.000005611
      3        6          -0.000000537   -0.000002535    0.000002309
      4        6          -0.000002209   -0.000001971   -0.000001287
      5        6           0.000010809    0.000001906    0.000000377
      6        6          -0.000016020    0.000016324    0.000001472
      7        1           0.000002682    0.000000477    0.000001882
      8        1          -0.000003333    0.000001837    0.000004975
      9        1           0.000001315   -0.000001193    0.000001859
     10        1           0.000006333    0.000001135   -0.000003259
     11        8          -0.000031724    0.000034076    0.000008479
     12        6          -0.000009778   -0.000013251    0.000007266
     13        1           0.000000598    0.000006447    0.000011261
     14        1          -0.000001641    0.000004684    0.000007648
     15        1          -0.000001050    0.000006405    0.000010630
     16        6           0.000005748    0.000000779   -0.000003673
     17        6           0.000004635    0.000007680   -0.000011159
     18        7          -0.000011579    0.000005238   -0.000000703
     19        6           0.000006987   -0.000017707   -0.000005423
     20        6          -0.000012884    0.000003711   -0.000005479
     21        1          -0.000004142   -0.000005913   -0.000000963
     22        1          -0.000003312   -0.000004445    0.000001782
     23        1           0.000003550    0.000001099   -0.000009306
     24        1           0.000000909   -0.000002894   -0.000011118
     25        1           0.000001273   -0.000006013   -0.000006694
     26        1           0.000001059   -0.000007230   -0.000006097
     27        1           0.000006430   -0.000007094   -0.000005136
 -------------------------------------------------------------------
 Cartesian Forces:  Max     0.000055078 RMS     0.000010507
 FormGI is forming the generalized inverse of G from B-inverse, IUseBI=4.
 GSVD:  received Info=                   1 from GESDD.
 Leave Link  716 at Wed Jul  8 17:54:49 2026, MaxMem=  4026531840 cpu:               0.5 elap:               0.1
 (Enter /opt/packages/gaussian/g16RevC.01/g16/l103.exe)

 GradGradGradGradGradGradGradGradGradGradGradGradGradGradGradGradGradGrad
 Berny optimization.
 Red2BG is reusing G-inverse.
 Internal  Forces:  Max     0.000042460 RMS     0.000004774
 Search for a local minimum.
 Step number   1 out of a maximum of    2
 All quantities printed in internal units (Hartrees-Bohrs-Radians)
 Second derivative matrix not updated -- analytic derivatives used.
 ITU=  0
     Eigenvalues ---    0.00131   0.00380   0.00480   0.00798   0.00899
     Eigenvalues ---    0.01208   0.01519   0.01709   0.01802   0.01922
     Eigenvalues ---    0.02097   0.02171   0.02341   0.02857   0.02905
     Eigenvalues ---    0.03016   0.03368   0.03783   0.04165   0.04497
     Eigenvalues ---    0.04679   0.05611   0.06237   0.07096   0.07484
     Eigenvalues ---    0.08105   0.08781   0.08865   0.09593   0.10016
     Eigenvalues ---    0.11317   0.11718   0.12018   0.12409   0.13257
     Eigenvalues ---    0.13599   0.16828   0.19050   0.19244   0.19415
     Eigenvalues ---    0.19648   0.20091   0.21144   0.22594   0.23902
     Eigenvalues ---    0.25281   0.26610   0.27490   0.29971   0.32077
     Eigenvalues ---    0.32717   0.34121   0.34328   0.34539   0.34682
     Eigenvalues ---    0.34735   0.34844   0.35087   0.35603   0.35658
     Eigenvalues ---    0.35759   0.35934   0.36800   0.36903   0.37164
     Eigenvalues ---    0.37750   0.37770   0.41651   0.43579   0.46010
     Eigenvalues ---    0.46973   0.48093   0.52799   0.56849   0.60026
 Angle between quadratic step and forces=  79.06 degrees.
 Linear search not attempted -- first point.
 Iteration  1 RMS(Cart)=  0.00016066 RMS(Int)=  0.00000002
 Iteration  2 RMS(Cart)=  0.00000002 RMS(Int)=  0.00000000
 ITry= 1 IFail=0 DXMaxC= 7.11D-04 DCOld= 1.00D+10 DXMaxT= 3.00D-01 DXLimC= 3.00D+00 Rises=F
 Variable       Old X    -DE/DX   Delta X   Delta X   Delta X     New X
                                 (Linear)    (Quad)   (Total)
    R1        2.64580  -0.00000   0.00000  -0.00002  -0.00002   2.64578
    R2        2.65813   0.00001   0.00000   0.00000   0.00000   2.65814
    R3        2.53972   0.00004   0.00000   0.00012   0.00012   2.53984
    R4        2.62181   0.00000   0.00000   0.00001   0.00001   2.62182
    R5        2.04792   0.00000   0.00000   0.00000   0.00000   2.04792
    R6        2.65206   0.00001   0.00000   0.00001   0.00001   2.65206
    R7        2.05044   0.00000   0.00000   0.00001   0.00001   2.05044
    R8        2.66830   0.00000   0.00000   0.00000   0.00000   2.66830
    R9        2.73521  -0.00000   0.00000   0.00001   0.00001   2.73523
   R10        2.60295   0.00001   0.00000   0.00002   0.00002   2.60298
   R11        2.05182   0.00000   0.00000   0.00001   0.00001   2.05183
   R12        2.05148  -0.00000   0.00000  -0.00001  -0.00001   2.05147
   R13        2.69901   0.00002   0.00000   0.00006   0.00006   2.69907
   R14        2.06877   0.00000   0.00000   0.00000   0.00000   2.06877
   R15        2.06882   0.00000   0.00000   0.00000   0.00000   2.06882
   R16        2.05983   0.00000   0.00000   0.00000   0.00000   2.05983
   R17        2.83918  -0.00000   0.00000  -0.00003  -0.00003   2.83915
   R18        2.45728  -0.00000   0.00000  -0.00001  -0.00001   2.45726
   R19        2.90643  -0.00000   0.00000  -0.00002  -0.00002   2.90642
   R20        2.06331   0.00000   0.00000   0.00001   0.00001   2.06332
   R21        2.07431   0.00001   0.00000   0.00002   0.00002   2.07432
   R22        2.77473   0.00001   0.00000   0.00003   0.00003   2.77475
   R23        1.91913  -0.00001   0.00000  -0.00001  -0.00001   1.91912
   R24        2.89349  -0.00000   0.00000  -0.00000  -0.00000   2.89348
   R25        2.06815  -0.00000   0.00000  -0.00001  -0.00001   2.06815
   R26        2.06157   0.00000   0.00000   0.00001   0.00001   2.06159
   R27        2.06639   0.00000   0.00000  -0.00000  -0.00000   2.06638
   R28        2.06145   0.00000   0.00000   0.00001   0.00001   2.06146
    A1        2.09515   0.00001   0.00000   0.00007   0.00007   2.09522
    A2        2.16919   0.00000   0.00000  -0.00000  -0.00000   2.16919
    A3        2.01885  -0.00001   0.00000  -0.00007  -0.00007   2.01878
    A4        2.08126  -0.00001   0.00000  -0.00004  -0.00004   2.08122
    A5        2.11935   0.00000   0.00000   0.00001   0.00001   2.11936
    A6        2.08257   0.00000   0.00000   0.00003   0.00003   2.08260
    A7        2.11997  -0.00000   0.00000  -0.00001  -0.00001   2.11995
    A8        2.06347   0.00000   0.00000   0.00003   0.00003   2.06350
    A9        2.09973  -0.00000   0.00000  -0.00002  -0.00002   2.09972
   A10        2.06692   0.00001   0.00000   0.00004   0.00004   2.06696
   A11        2.07736  -0.00000   0.00000  -0.00001  -0.00001   2.07735
   A12        2.13890  -0.00000   0.00000  -0.00003  -0.00003   2.13887
   A13        2.10533  -0.00000   0.00000  -0.00002  -0.00002   2.10531
   A14        2.11909  -0.00000   0.00000  -0.00002  -0.00002   2.11908
   A15        2.05877   0.00000   0.00000   0.00004   0.00004   2.05880
   A16        2.09773  -0.00001   0.00000  -0.00004  -0.00004   2.09769
   A17        2.07655   0.00000   0.00000   0.00001   0.00001   2.07656
   A18        2.10891   0.00000   0.00000   0.00003   0.00003   2.10894
   A19        2.07567  -0.00001   0.00000  -0.00006  -0.00006   2.07561
   A20        1.93223  -0.00000   0.00000  -0.00001  -0.00001   1.93222
   A21        1.93163  -0.00000   0.00000  -0.00001  -0.00001   1.93162
   A22        1.84044   0.00000   0.00000  -0.00001  -0.00001   1.84043
   A23        1.92703   0.00000   0.00000   0.00003   0.00003   1.92706
   A24        1.91547   0.00000   0.00000   0.00000   0.00000   1.91547
   A25        1.91522   0.00000   0.00000   0.00001   0.00001   1.91523
   A26        2.19228  -0.00001   0.00000  -0.00003  -0.00003   2.19224
   A27        2.18190   0.00000   0.00000   0.00001   0.00001   2.18191
   A28        1.90863   0.00000   0.00000   0.00002   0.00002   1.90866
   A29        1.81071   0.00000   0.00000   0.00004   0.00004   1.81075
   A30        1.95227   0.00000   0.00000  -0.00001  -0.00001   1.95226
   A31        1.87969  -0.00000   0.00000  -0.00001  -0.00001   1.87967
   A32        1.97586   0.00000   0.00000   0.00001   0.00001   1.97587
   A33        1.96421   0.00000   0.00000   0.00002   0.00002   1.96423
   A34        1.87961  -0.00000   0.00000  -0.00005  -0.00005   1.87956
   A35        2.00834  -0.00000   0.00000   0.00001   0.00001   2.00836
   A36        2.16540   0.00000   0.00000   0.00002   0.00002   2.16543
   A37        2.10700  -0.00000   0.00000  -0.00003  -0.00003   2.10697
   A38        1.78453   0.00000   0.00000   0.00003   0.00003   1.78456
   A39        1.89013  -0.00000   0.00000  -0.00001  -0.00001   1.89012
   A40        1.91089   0.00000   0.00000  -0.00004  -0.00004   1.91085
   A41        1.97539   0.00000   0.00000   0.00007   0.00007   1.97546
   A42        1.99272   0.00000   0.00000  -0.00002  -0.00002   1.99270
   A43        1.90398  -0.00000   0.00000  -0.00003  -0.00003   1.90395
   A44        1.81906   0.00000   0.00000   0.00005   0.00005   1.81911
   A45        1.91717   0.00000   0.00000   0.00004   0.00004   1.91721
   A46        1.96085  -0.00000   0.00000  -0.00003  -0.00003   1.96082
   A47        1.91878  -0.00000   0.00000   0.00001   0.00001   1.91879
   A48        1.95300   0.00000   0.00000  -0.00001  -0.00001   1.95298
   A49        1.89422  -0.00000   0.00000  -0.00005  -0.00005   1.89417
    D1       -0.00676   0.00000   0.00000   0.00004   0.00004  -0.00672
    D2        3.13764   0.00000   0.00000   0.00005   0.00005   3.13768
    D3        3.13550   0.00000   0.00000   0.00004   0.00004   3.13554
    D4       -0.00330   0.00000   0.00000   0.00005   0.00005  -0.00325
    D5        0.00303  -0.00000   0.00000  -0.00003  -0.00003   0.00300
    D6       -3.13861  -0.00000   0.00000  -0.00005  -0.00005  -3.13867
    D7       -3.13917  -0.00000   0.00000  -0.00004  -0.00004  -3.13920
    D8        0.00237  -0.00000   0.00000  -0.00005  -0.00005   0.00232
    D9       -0.00563  -0.00000   0.00000  -0.00018  -0.00018  -0.00581
   D10        3.13660  -0.00000   0.00000  -0.00018  -0.00018   3.13642
   D11        0.00382  -0.00000   0.00000  -0.00000  -0.00000   0.00382
   D12        3.14031  -0.00000   0.00000  -0.00001  -0.00001   3.14029
   D13       -3.14051  -0.00000   0.00000  -0.00001  -0.00001  -3.14052
   D14       -0.00403  -0.00000   0.00000  -0.00002  -0.00002  -0.00405
   D15        0.00278  -0.00000   0.00000  -0.00004  -0.00004   0.00274
   D16        3.13960  -0.00000   0.00000  -0.00007  -0.00007   3.13953
   D17       -3.13360  -0.00000   0.00000  -0.00003  -0.00003  -3.13362
   D18        0.00322  -0.00000   0.00000  -0.00006  -0.00006   0.00316
   D19       -0.00658   0.00000   0.00000   0.00004   0.00004  -0.00654
   D20        3.13605   0.00000   0.00000   0.00008   0.00008   3.13613
   D21        3.13997   0.00000   0.00000   0.00008   0.00008   3.14004
   D22       -0.00059   0.00000   0.00000   0.00011   0.00011  -0.00047
   D23        0.00741   0.00000   0.00000   0.00017   0.00017   0.00757
   D24       -3.10152   0.00000   0.00000   0.00020   0.00020  -3.10132
   D25       -3.13917   0.00000   0.00000   0.00013   0.00013  -3.13904
   D26        0.03509   0.00000   0.00000   0.00017   0.00017   0.03526
   D27        0.00373  -0.00000   0.00000  -0.00001  -0.00001   0.00372
   D28       -3.13781   0.00000   0.00000   0.00001   0.00001  -3.13780
   D29       -3.13887  -0.00000   0.00000  -0.00004  -0.00004  -3.13891
   D30        0.00277  -0.00000   0.00000  -0.00002  -0.00002   0.00275
   D31        1.07305   0.00000   0.00000   0.00015   0.00015   1.07320
   D32       -1.06955   0.00000   0.00000   0.00014   0.00014  -1.06942
   D33       -3.13954   0.00000   0.00000   0.00014   0.00014  -3.13941
   D34        2.93822   0.00000   0.00000   0.00016   0.00016   2.93838
   D35        0.80263  -0.00000   0.00000   0.00013   0.00013   0.80276
   D36       -1.25943   0.00000   0.00000   0.00020   0.00020  -1.25923
   D37       -0.23172   0.00000   0.00000   0.00013   0.00013  -0.23160
   D38       -2.36731  -0.00000   0.00000   0.00009   0.00009  -2.36722
   D39        1.85381   0.00000   0.00000   0.00017   0.00017   1.85398
   D40        3.09043  -0.00000   0.00000   0.00006   0.00006   3.09049
   D41        0.02359  -0.00000   0.00000  -0.00004  -0.00004   0.02355
   D42       -0.02302   0.00000   0.00000   0.00010   0.00010  -0.02293
   D43       -3.08986  -0.00000   0.00000  -0.00001  -0.00001  -3.08987
   D44        0.37785  -0.00000   0.00000  -0.00028  -0.00028   0.37757
   D45       -1.67714  -0.00000   0.00000  -0.00034  -0.00034  -1.67747
   D46        2.49576   0.00000   0.00000  -0.00028  -0.00028   2.49548
   D47        2.49772   0.00000   0.00000  -0.00026  -0.00026   2.49746
   D48        0.44273   0.00000   0.00000  -0.00031  -0.00031   0.44242
   D49       -1.66755   0.00000   0.00000  -0.00026  -0.00026  -1.66781
   D50       -1.64897   0.00000   0.00000  -0.00030  -0.00030  -1.64927
   D51        2.57923  -0.00000   0.00000  -0.00036  -0.00036   2.57887
   D52        0.46894   0.00000   0.00000  -0.00030  -0.00030   0.46864
   D53        0.26692  -0.00000   0.00000  -0.00028  -0.00028   0.26664
   D54       -1.82290  -0.00000   0.00000  -0.00037  -0.00037  -1.82327
   D55        2.38611  -0.00000   0.00000  -0.00031  -0.00031   2.38580
   D56       -2.94671   0.00000   0.00000  -0.00017  -0.00017  -2.94688
   D57        1.24666  -0.00000   0.00000  -0.00026  -0.00026   1.24640
   D58       -0.82752   0.00000   0.00000  -0.00020  -0.00020  -0.82772
   D59       -0.38257   0.00000   0.00000   0.00033   0.00033  -0.38224
   D60        1.67131   0.00000   0.00000   0.00041   0.00041   1.67172
   D61       -2.50569   0.00000   0.00000   0.00034   0.00034  -2.50535
   D62        1.64650  -0.00000   0.00000   0.00037   0.00037   1.64687
   D63       -2.58281   0.00000   0.00000   0.00045   0.00045  -2.58236
   D64       -0.47662  -0.00000   0.00000   0.00038   0.00038  -0.47624
   D65       -2.44445   0.00000   0.00000   0.00037   0.00037  -2.44408
   D66       -0.39058   0.00000   0.00000   0.00045   0.00045  -0.39013
   D67        1.71561   0.00000   0.00000   0.00038   0.00038   1.71599
         Item               Value     Threshold  Converged?
 Maximum Force            0.000042     0.000450     YES
 RMS     Force            0.000005     0.000300     YES
 Maximum Displacement     0.000711     0.001800     YES
 RMS     Displacement     0.000161     0.001200     YES
 Predicted change in Energy=-9.629110D-09
 Optimization completed.
    -- Stationary point found.
                           ----------------------------
                           !   Optimized Parameters   !
                           ! (Angstroms and Degrees)  !
 --------------------------                            --------------------------
 ! Name  Definition              Value          Derivative Info.                !
 --------------------------------------------------------------------------------
 ! R1    R(1,2)                  1.4001         -DE/DX =    0.0                 !
 ! R2    R(1,6)                  1.4066         -DE/DX =    0.0                 !
 ! R3    R(1,11)                 1.344          -DE/DX =    0.0                 !
 ! R4    R(2,3)                  1.3874         -DE/DX =    0.0                 !
 ! R5    R(2,8)                  1.0837         -DE/DX =    0.0                 !
 ! R6    R(3,4)                  1.4034         -DE/DX =    0.0                 !
 ! R7    R(3,9)                  1.085          -DE/DX =    0.0                 !
 ! R8    R(4,5)                  1.412          -DE/DX =    0.0                 !
 ! R9    R(4,16)                 1.4474         -DE/DX =    0.0                 !
 ! R10   R(5,6)                  1.3774         -DE/DX =    0.0                 !
 ! R11   R(5,10)                 1.0858         -DE/DX =    0.0                 !
 ! R12   R(6,7)                  1.0856         -DE/DX =    0.0                 !
 ! R13   R(11,12)                1.4283         -DE/DX =    0.0                 !
 ! R14   R(12,13)                1.0947         -DE/DX =    0.0                 !
 ! R15   R(12,14)                1.0948         -DE/DX =    0.0                 !
 ! R16   R(12,15)                1.09           -DE/DX =    0.0                 !
 ! R17   R(16,17)                1.5024         -DE/DX =    0.0                 !
 ! R18   R(16,18)                1.3003         -DE/DX =    0.0                 !
 ! R19   R(17,20)                1.538          -DE/DX =    0.0                 !
 ! R20   R(17,21)                1.0919         -DE/DX =    0.0                 !
 ! R21   R(17,22)                1.0977         -DE/DX =    0.0                 !
 ! R22   R(18,19)                1.4683         -DE/DX =    0.0                 !
 ! R23   R(18,27)                1.0156         -DE/DX =    0.0                 !
 ! R24   R(19,20)                1.5312         -DE/DX =    0.0                 !
 ! R25   R(19,23)                1.0944         -DE/DX =    0.0                 !
 ! R26   R(19,24)                1.0909         -DE/DX =    0.0                 !
 ! R27   R(20,25)                1.0935         -DE/DX =    0.0                 !
 ! R28   R(20,26)                1.0909         -DE/DX =    0.0                 !
 ! A1    A(2,1,6)              120.0434         -DE/DX =    0.0                 !
 ! A2    A(2,1,11)             124.2852         -DE/DX =    0.0                 !
 ! A3    A(6,1,11)             115.6714         -DE/DX =    0.0                 !
 ! A4    A(1,2,3)              119.2472         -DE/DX =    0.0                 !
 ! A5    A(1,2,8)              121.4299         -DE/DX =    0.0                 !
 ! A6    A(3,2,8)              119.3228         -DE/DX =    0.0                 !
 ! A7    A(2,3,4)              121.4651         -DE/DX =    0.0                 !
 ! A8    A(2,3,9)              118.2284         -DE/DX =    0.0                 !
 ! A9    A(4,3,9)              120.3059         -DE/DX =    0.0                 !
 ! A10   A(3,4,5)              118.4256         -DE/DX =    0.0                 !
 ! A11   A(3,4,16)             119.024          -DE/DX =    0.0                 !
 ! A12   A(5,4,16)             122.5498         -DE/DX =    0.0                 !
 ! A13   A(4,5,6)              120.6263         -DE/DX =    0.0                 !
 ! A14   A(4,5,10)             121.4151         -DE/DX =    0.0                 !
 ! A15   A(6,5,10)             117.9586         -DE/DX =    0.0                 !
 ! A16   A(1,6,5)              120.1908         -DE/DX =    0.0                 !
 ! A17   A(1,6,7)              118.9775         -DE/DX =    0.0                 !
 ! A18   A(5,6,7)              120.8317         -DE/DX =    0.0                 !
 ! A19   A(1,11,12)            118.9272         -DE/DX =    0.0                 !
 ! A20   A(11,12,13)           110.7086         -DE/DX =    0.0                 !
 ! A21   A(11,12,14)           110.6743         -DE/DX =    0.0                 !
 ! A22   A(11,12,15)           105.4495         -DE/DX =    0.0                 !
 ! A23   A(13,12,14)           110.4106         -DE/DX =    0.0                 !
 ! A24   A(13,12,15)           109.7482         -DE/DX =    0.0                 !
 ! A25   A(14,12,15)           109.7341         -DE/DX =    0.0                 !
 ! A26   A(4,16,17)            125.6082         -DE/DX =    0.0                 !
 ! A27   A(4,16,18)            125.0135         -DE/DX =    0.0                 !
 ! A28   A(17,16,18)           109.3567         -DE/DX =    0.0                 !
 ! A29   A(16,17,20)           103.746          -DE/DX =    0.0                 !
 ! A30   A(16,17,21)           111.8568         -DE/DX =    0.0                 !
 ! A31   A(16,17,22)           107.6981         -DE/DX =    0.0                 !
 ! A32   A(20,17,21)           113.2083         -DE/DX =    0.0                 !
 ! A33   A(20,17,22)           112.5407         -DE/DX =    0.0                 !
 ! A34   A(21,17,22)           107.694          -DE/DX =    0.0                 !
 ! A35   A(16,18,19)           115.0696         -DE/DX =    0.0                 !
 ! A36   A(16,18,27)           124.0685         -DE/DX =    0.0                 !
 ! A37   A(19,18,27)           120.7221         -DE/DX =    0.0                 !
 ! A38   A(18,19,20)           102.246          -DE/DX =    0.0                 !
 ! A39   A(18,19,23)           108.2962         -DE/DX =    0.0                 !
 ! A40   A(18,19,24)           109.4861         -DE/DX =    0.0                 !
 ! A41   A(20,19,23)           113.1817         -DE/DX =    0.0                 !
 ! A42   A(20,19,24)           114.1746         -DE/DX =    0.0                 !
 ! A43   A(23,19,24)           109.0901         -DE/DX =    0.0                 !
 ! A44   A(17,20,19)           104.2247         -DE/DX =    0.0                 !
 ! A45   A(17,20,25)           109.8455         -DE/DX =    0.0                 !
 ! A46   A(17,20,26)           112.3486         -DE/DX =    0.0                 !
 ! A47   A(19,20,25)           109.938          -DE/DX =    0.0                 !
 ! A48   A(19,20,26)           111.8984         -DE/DX =    0.0                 !
 ! A49   A(25,20,26)           108.5306         -DE/DX =    0.0                 !
 ! D1    D(6,1,2,3)             -0.3871         -DE/DX =    0.0                 !
 ! D2    D(6,1,2,8)            179.7733         -DE/DX =    0.0                 !
 ! D3    D(11,1,2,3)           179.6508         -DE/DX =    0.0                 !
 ! D4    D(11,1,2,8)            -0.1889         -DE/DX =    0.0                 !
 ! D5    D(2,1,6,5)              0.1737         -DE/DX =    0.0                 !
 ! D6    D(2,1,6,7)           -179.8294         -DE/DX =    0.0                 !
 ! D7    D(11,1,6,5)          -179.861          -DE/DX =    0.0                 !
 ! D8    D(11,1,6,7)             0.1359         -DE/DX =    0.0                 !
 ! D9    D(2,1,11,12)           -0.3225         -DE/DX =    0.0                 !
 ! D10   D(6,1,11,12)          179.7138         -DE/DX =    0.0                 !
 ! D11   D(1,2,3,4)              0.2189         -DE/DX =    0.0                 !
 ! D12   D(1,2,3,9)            179.9263         -DE/DX =    0.0                 !
 ! D13   D(8,2,3,4)           -179.938          -DE/DX =    0.0                 !
 ! D14   D(8,2,3,9)             -0.2307         -DE/DX =    0.0                 !
 ! D15   D(2,3,4,5)              0.1594         -DE/DX =    0.0                 !
 ! D16   D(2,3,4,16)           179.8857         -DE/DX =    0.0                 !
 ! D17   D(9,3,4,5)           -179.542          -DE/DX =    0.0                 !
 ! D18   D(9,3,4,16)             0.1844         -DE/DX =    0.0                 !
 ! D19   D(3,4,5,6)             -0.3772         -DE/DX =    0.0                 !
 ! D20   D(3,4,5,10)           179.6825         -DE/DX =    0.0                 !
 ! D21   D(16,4,5,6)           179.9068         -DE/DX =    0.0                 !
 ! D22   D(16,4,5,10)           -0.0336         -DE/DX =    0.0                 !
 ! D23   D(3,4,16,17)            0.4245         -DE/DX =    0.0                 !
 ! D24   D(3,4,16,18)         -177.7041         -DE/DX =    0.0                 !
 ! D25   D(5,4,16,17)         -179.861          -DE/DX =    0.0                 !
 ! D26   D(5,4,16,18)            2.0103         -DE/DX =    0.0                 !
 ! D27   D(4,5,6,1)              0.2135         -DE/DX =    0.0                 !
 ! D28   D(4,5,6,7)           -179.7834         -DE/DX =    0.0                 !
 ! D29   D(10,5,6,1)          -179.8442         -DE/DX =    0.0                 !
 ! D30   D(10,5,6,7)             0.159          -DE/DX =    0.0                 !
 ! D31   D(1,11,12,13)          61.4811         -DE/DX =    0.0                 !
 ! D32   D(1,11,12,14)         -61.2809         -DE/DX =    0.0                 !
 ! D33   D(1,11,12,15)        -179.8826         -DE/DX =    0.0                 !
 ! D34   D(4,16,17,20)         168.3476         -DE/DX =    0.0                 !
 ! D35   D(4,16,17,21)          45.9874         -DE/DX =    0.0                 !
 ! D36   D(4,16,17,22)         -72.1599         -DE/DX =    0.0                 !
 ! D37   D(18,16,17,20)        -13.2768         -DE/DX =    0.0                 !
 ! D38   D(18,16,17,21)       -135.637          -DE/DX =    0.0                 !
 ! D39   D(18,16,17,22)        106.2157         -DE/DX =    0.0                 !
 ! D40   D(4,16,18,19)         177.0684         -DE/DX =    0.0                 !
 ! D41   D(4,16,18,27)           1.3517         -DE/DX =    0.0                 !
 ! D42   D(17,16,18,19)         -1.3191         -DE/DX =    0.0                 !
 ! D43   D(17,16,18,27)       -177.0358         -DE/DX =    0.0                 !
 ! D44   D(16,17,20,19)         21.6493         -DE/DX =    0.0                 !
 ! D45   D(16,17,20,25)        -96.0928         -DE/DX =    0.0                 !
 ! D46   D(16,17,20,26)        142.9966         -DE/DX =    0.0                 !
 ! D47   D(21,17,20,19)        143.109          -DE/DX =    0.0                 !
 ! D48   D(21,17,20,25)         25.3668         -DE/DX =    0.0                 !
 ! D49   D(21,17,20,26)        -95.5437         -DE/DX =    0.0                 !
 ! D50   D(22,17,20,19)        -94.4789         -DE/DX =    0.0                 !
 ! D51   D(22,17,20,25)        147.779          -DE/DX =    0.0                 !
 ! D52   D(22,17,20,26)         26.8685         -DE/DX =    0.0                 !
 ! D53   D(16,18,19,20)         15.2933         -DE/DX =    0.0                 !
 ! D54   D(16,18,19,23)       -104.4442         -DE/DX =    0.0                 !
 ! D55   D(16,18,19,24)        136.7138         -DE/DX =    0.0                 !
 ! D56   D(27,18,19,20)       -168.8339         -DE/DX =    0.0                 !
 ! D57   D(27,18,19,23)         71.4286         -DE/DX =    0.0                 !
 ! D58   D(27,18,19,24)        -47.4133         -DE/DX =    0.0                 !
 ! D59   D(18,19,20,17)        -21.9194         -DE/DX =    0.0                 !
 ! D60   D(18,19,20,25)         95.759          -DE/DX =    0.0                 !
 ! D61   D(18,19,20,26)       -143.5654         -DE/DX =    0.0                 !
 ! D62   D(23,19,20,17)         94.3376         -DE/DX =    0.0                 !
 ! D63   D(23,19,20,25)       -147.984          -DE/DX =    0.0                 !
 ! D64   D(23,19,20,26)        -27.3084         -DE/DX =    0.0                 !
 ! D65   D(24,19,20,17)       -140.0568         -DE/DX =    0.0                 !
 ! D66   D(24,19,20,25)        -22.3784         -DE/DX =    0.0                 !
 ! D67   D(24,19,20,26)         98.2972         -DE/DX =    0.0                 !
 --------------------------------------------------------------------------------
 GradGradGradGradGradGradGradGradGradGradGradGradGradGradGradGradGradGrad

 Leave Link  103 at Wed Jul  8 17:54:49 2026, MaxMem=  4026531840 cpu:               0.2 elap:               0.0
 (Enter /opt/packages/gaussian/g16RevC.01/g16/l9999.exe)

 ----------------------------------------------------------------------

 Electric dipole moment (input orientation):
 (Debye = 10**-18 statcoulomb cm , SI units = C m)
                  (au)            (Debye)         (10**-30 SI)
   Tot        0.286832D+01      0.729055D+01      0.243186D+02
   x          0.286023D+01      0.726997D+01      0.242500D+02
   y         -0.151905D+00     -0.386103D+00     -0.128790D+01
   z          0.152619D+00      0.387919D+00      0.129396D+01

 Dipole polarizability, Alpha (input orientation).
 (esu units = cm**3 , SI units = C**2 m**2 J**-1)
 Alpha(0;0):
               (au)            (10**-24 esu)      (10**-40 SI)
   iso        0.196337D+03      0.290942D+02      0.323717D+02
   aniso      0.153763D+03      0.227853D+02      0.253521D+02
   xx         0.290028D+03      0.429777D+02      0.478191D+02
   yx         0.124641D+02      0.184699D+01      0.205505D+01
   yy         0.183183D+03      0.271449D+02      0.302028D+02
   zx         0.193108D+01      0.286157D+00      0.318393D+00
   zy        -0.185281D+01     -0.274558D+00     -0.305487D+00
   zz         0.115801D+03      0.171600D+02      0.190931D+02

 ----------------------------------------------------------------------

 Dipole orientation:
     6         -0.21469105          0.26614937         -4.70095471
     6         -0.36729713         -2.02078050         -3.37924976
     6         -0.24215145         -1.99764114         -0.76053223
     6          0.02532963          0.26749597          0.59262164
     6          0.16045638          2.55516643         -0.77418043
     6          0.04680099          2.55486185         -3.37465017
     1          0.15672498          4.30937591         -4.43208529
     1         -0.57606364         -3.80774457         -4.35759224
     1         -0.36588354         -3.78747905          0.23217092
     1          0.35778127          4.36094478          0.17986420
     8         -0.30202136          0.46469437         -7.23139279
     6         -0.55396196         -1.77975698         -8.70909357
     1         -2.32635770         -2.75112658         -8.26767981
     1          1.05636318         -3.04153163         -8.40123755
     1         -0.57671153         -1.14663441        -10.66907540
     6          0.14065165          0.17601987          3.32387223
     6          0.01512341         -2.17826604          4.90580175
     7          0.30479125          2.13770953          4.79459837
     6          0.26682691          1.57652102          7.51171984
     6          0.78318565         -1.27014892          7.55773661
     1          1.24110432         -3.66521466          4.16878375
     1         -1.93601665         -2.87927176          4.83947096
     1         -1.59803772          2.07773575          8.25220247
     1          1.69893154          2.70988810          8.46808991
     1          2.79762264         -1.61607055          7.86159389
     1         -0.27688548         -2.21981770          9.04903083
     1          0.33174241          3.95160156          4.16838849

 Electric dipole moment (dipole orientation):
 (Debye = 10**-18 statcoulomb cm , SI units = C m)
                  (au)            (Debye)         (10**-30 SI)
   Tot        0.286832D+01      0.729055D+01      0.243186D+02
   x          0.000000D+00      0.000000D+00      0.000000D+00
   y          0.000000D+00      0.000000D+00      0.000000D+00
   z          0.286832D+01      0.729055D+01      0.243186D+02

 Dipole polarizability, Alpha (dipole orientation).
 (esu units = cm**3 , SI units = C**2 m**2 J**-1)
 Alpha(0;0):
               (au)            (10**-24 esu)      (10**-40 SI)
   iso        0.196337D+03      0.290942D+02      0.323717D+02
   aniso      0.153763D+03      0.227853D+02      0.253521D+02
   xx         0.116555D+03      0.172716D+02      0.192173D+02
   yx         0.633051D+01      0.938084D+00      0.104376D+01
   yy         0.184324D+03      0.273139D+02      0.303909D+02
   zx         0.809697D+01      0.119985D+01      0.133501D+01
   zy         0.175291D+02      0.259755D+01      0.289016D+01
   zz         0.288134D+03      0.426970D+02      0.475068D+02

 ----------------------------------------------------------------------
 Unable to Open any file for archive entry.
 1\1\GINC-R129\Freq\RwB97XD\6-31+G(d)\C11H14N1O1(1+)\ZLAB\08-Jul-2026\0
 \\#P Geom=AllCheck Guess=TCheck SCRF=Check GenChk RwB97XD/6-31+G(d) Fr
 eq\\Ground-state geometry optimization (S0) with wB97XD\\1,1\C,-2.4799
 03768,0.266512291,-0.0116157614\C,-1.8476546078,-0.9815460307,0.042035
 9497\C,-0.4614854355,-1.0394024956,0.0503816246\C,0.3205635397,0.12523
 97536,0.0108168058\C,-0.3359797896,1.3744889773,-0.0348603752\C,-1.711
 5742722,1.4441904014,-0.0481155549\H,-2.2197615424,2.4027180268,-0.086
 7245312\H,-2.4174978533,-1.9027699649,0.0745722514\H,0.011198278,-2.01
 51251967,0.0934643246\H,0.2212028072,2.30601984,-0.0615160024\O,-3.812
 4890769,0.4398960351,-0.0312176576\C,-4.6592511135,-0.7099261624,-0.00
 27804186\H,-4.5045010221,-1.2819832499,0.9176905577\H,-4.4826695571,-1
 .3417497588,-0.8792159891\H,-5.6773753635,-0.3214596667,-0.0282193549\
 C,1.7627829468,0.003478526,0.0243027483\C,2.5313617873,-1.286702442,0.
 0691053521\N,2.5957658609,1.0019339031,0.0340759341\C,4.0135341646,0.6
 286021632,0.1148871563\C,3.9775496254,-0.8613677331,-0.2360690001\H,2.
 1392418577,-2.0182813535,-0.6402486762\H,2.4200723215,-1.7065834374,1.
 0771773195\H,4.362437682,0.8228930331,1.1338423111\H,4.5906095417,1.23
 79543149,-0.5821206711\H,4.1882702872,-0.9989986439,-1.3001938008\H,4.
 7079411135,-1.4324938111,0.3386891111\H,2.3142515883,1.9775126812,0.05
 3056347\\Version=ES64L-G16RevC.01\State=1-A\HF=-557.2789493\RMSD=3.807
 e-09\RMSF=1.051e-05\ZeroPoint=0.2362479\Thermal=0.2477794\ETot=-557.03
 117\HTot=-557.0302258\GTot=-557.0808671\Dipole=2.8602277,-0.1519045,0.
 1526192\DipoleDeriv=3.1945941,0.0475323,0.0321289,-0.3596666,0.4874239
 ,-0.0136408,0.0414753,-0.0057909,0.2639396,-1.0473993,0.0996323,-0.015
 3742,0.8323261,-0.1833985,0.005612,-0.0447478,-0.006907,-0.28275,1.068
 6015,0.0911867,0.013431,0.5249636,0.1328912,-0.0024551,0.0137438,-0.00
 98163,-0.0964644,-2.2757049,-0.1105818,-0.0325192,0.2799967,-0.2723625
 ,0.0065512,0.0033482,-0.0012592,-0.090965,0.8379858,-0.0279622,0.01438
 06,-0.5610186,0.1157133,-0.0183488,0.0032163,-0.0073709,-0.1184015,-1.
 0481078,-0.1710732,-0.0041737,-0.7308522,-0.107411,-0.0143791,0.019926
 5,-0.0096631,-0.2537336,0.0709614,0.0701052,-0.0035891,0.0926952,0.000
 0562,0.0088618,-0.00427,0.0097738,0.2147853,0.067924,-0.0659946,0.0017
 078,-0.0818294,0.038602,0.0071139,-0.0002386,0.0079879,0.2306745,0.108
 6116,0.0790231,-0.005943,0.0708746,0.0048776,0.006843,-0.0018336,0.004
 5051,0.1866116,0.0525026,-0.1262926,0.0024689,-0.0822925,0.0124884,0.0
 059123,0.0072448,0.0098721,0.1857322,-3.3451123,-0.3701141,-0.0220637,
 -0.1299048,-0.7251314,0.0090995,-0.0203832,0.0064499,-0.4099916,0.9271
 838,0.354344,-0.0061651,0.7451244,0.700935,-0.0000921,-0.0202293,-0.00
 56122,0.3877543,0.0262048,0.009368,-0.0758088,-0.1581864,-0.0090864,0.
 0579978,0.0071631,0.1091045,-0.0823881,0.0272863,0.019526,0.0780307,-0
 .1593038,-0.0226512,-0.0672554,0.0059972,-0.1131625,-0.0687996,-0.1371
 64,0.0092553,-0.0034825,0.0599643,0.0419823,0.0036268,-0.0052498,0.003
 0189,0.1254283,3.377559,0.256959,0.0483411,0.7345086,1.0082235,-0.0126
 679,0.002467,-0.0567301,0.2720962,-0.0700564,0.0788826,-0.0083942,0.10
 77855,-0.2555387,0.0294683,-0.0743832,0.0919639,0.0663946,-1.639217,-0
 .1882523,-0.0279453,-1.1777816,-0.9272546,-0.0010474,0.1476003,0.07664
 03,-0.3969092,0.7210009,-0.0000413,0.0375524,-0.2930967,0.1688364,-0.0
 226958,-0.0970281,-0.0593479,0.3216765,0.017449,-0.0913178,-0.0000743,
 -0.0017726,0.0068819,-0.0083873,-0.0283031,-0.0074289,0.1667104,0.0153
 503,-0.047075,-0.0410407,-0.0513279,0.06627,-0.0455076,-0.0494191,-0.0
 765988,0.0755742,0.015467,0.0370302,0.0359946,-0.0087927,0.0916013,0.0
 3739,0.0924019,0.0308883,-0.0102848,-0.1059027,-0.0350252,-0.0169609,0
 .0842125,0.0853472,-0.0520156,-0.0670535,-0.0685051,-0.0760914,-0.0592
 04,-0.0516973,0.0190529,-0.0167933,0.0221976,0.0629753,0.0846515,0.087
 4171,0.0439015,0.0455982,0.0012036,0.0293643,-0.0004164,0.0706519,-0.0
 200605,0.0824684,-0.0481628,-0.1273366,-0.049195,0.0846927,-0.046008,0
 .1043849,0.0421882,0.0384202,-0.073291,0.0638089,0.0557502,0.2027831,0
 .0466863,-0.0029104,0.1761991,0.4056662,-0.001319,-0.025274,-0.025075,
 0.4170863\Polar=290.0277414,12.4640797,183.1828501,1.9310832,-1.852811
 3,115.8014331\Quadrupole=21.6748016,-3.6203511,-18.0544506,9.1835096,0
 .6326453,-0.2155409\PG=C01 [X(C11H14N1O1)]\NImag=0\\0.67956797,0.00407
 175,0.71915497,0.00508717,-0.02049270,0.17243391,-0.14909556,0.0230403
 6,-0.00178091,0.73086793,0.08471160,-0.29836766,0.00973659,0.04592217,
 0.73219070,-0.00397943,0.00960881,-0.06907950,0.00164263,-0.02392968,0
 .12464083,-0.03029791,0.08841103,-0.00358318,-0.36585960,-0.02899618,-
 0.00024202,0.71885290,0.03335470,0.03624001,-0.00127639,0.04149234,-0.
 13242960,0.00308619,-0.03391888,0.73825982,-0.00185015,-0.00087550,-0.
 00039363,-0.00245032,0.00249107,-0.06148298,0.00428672,-0.02378368,0.1
 4930986,0.02596004,-0.00739369,0.00059516,-0.04404990,-0.01208661,-0.0
 0002071,-0.16561186,-0.11144674,0.00462431,0.67156694,-0.00841175,-0.0
 6847527,0.00238203,-0.06185601,0.03360628,-0.00138543,-0.06744604,-0.2
 7688631,0.00780769,0.00800799,0.69729287,0.00018473,0.00195854,-0.0062
 8329,0.00184011,-0.00075704,0.00920070,0.00237986,0.00718913,-0.064637
 08,0.00383108,-0.01890877,0.14131867,-0.04306823,-0.07312171,0.0024414
 4,-0.04318828,0.02134115,-0.00088143,0.05547124,0.01297319,-0.00040175
 ,-0.14328249,0.04501124,-0.00264049,0.74021441,-0.02069556,0.04781613,
 -0.00198760,0.03153392,-0.01796463,0.00071019,-0.02492203,-0.05693755,
 0.00231554,0.08764203,-0.27768497,0.00756423,0.04398881,0.71594517,0.0
 0067050,-0.00219012,0.00078621,-0.00143118,0.00081724,-0.00294213,0.00
 152857,0.00260232,0.00721842,-0.00455193,0.00716148,-0.06509526,0.0031
 9859,-0.01884197,0.14513602,-0.14953264,-0.04181047,0.00075156,0.06016
 373,-0.01881793,0.00087309,-0.04747216,-0.02747755,0.00091753,-0.03703
 410,0.07041720,-0.00247725,-0.39429414,-0.01829610,-0.00201766,0.76080
 591,-0.10336104,-0.27912752,0.00671681,0.01137772,-0.04215316,0.001821
 04,-0.01979422,-0.01387372,0.00046308,0.02008326,0.02799739,-0.0002357
 7,0.04947240,-0.13504646,0.00300324,-0.04809663,0.72216887,0.00318552,
 0.00718672,-0.07028653,-0.00000265,0.00182998,0.00793684,0.00029654,0.
 00029224,-0.00308424,-0.00096030,-0.00043386,0.00871974,-0.00430774,0.
 00270939,-0.06063433,0.00686323,-0.02202884,0.12782514,0.00998253,-0.0
 1674041,0.00065213,-0.00197261,-0.00288447,0.00005100,-0.00081466,-0.0
 0048255,0.00002412,-0.00462131,-0.00141655,-0.00007858,-0.01010736,0.0
 2856045,-0.00112395,-0.12051899,0.11974151,-0.00508151,0.12444148,0.01
 422572,-0.01805496,0.00094205,-0.00347754,-0.00301166,0.00024676,-0.00
 120495,0.00004747,-0.00004432,-0.00041279,0.00156267,0.00021463,-0.002
 41360,0.00476018,-0.00006755,0.11911989,-0.28943833,0.01007905,-0.1279
 4688,0.30200592,-0.00044495,0.00075449,0.00445608,0.00008991,0.0002271
 3,0.00490430,-0.00002232,-0.00007157,-0.00074896,-0.00003234,0.0002738
 0,0.00796448,0.00008645,0.00016020,0.00319741,-0.00514644,0.01002929,-
 0.03621084,0.00547119,-0.01100665,0.02535410,0.01289122,0.01321302,-0.
 00046732,-0.13816661,-0.13100592,0.00455011,-0.01298559,-0.02780080,0.
 00099108,-0.00451379,0.00191956,-0.00009168,-0.00062754,0.00059925,-0.
 00003066,-0.00156250,0.00286282,-0.00015965,0.00048859,0.00074133,-0.0
 0001220,0.14947812,-0.01632563,-0.01726068,0.00070476,-0.13148188,-0.2
 7674181,0.00867220,0.00372828,0.00687625,-0.00012820,0.00115007,0.0014
 4844,0.00022939,0.00111815,-0.00012827,-0.00001870,0.00329826,-0.00318
 662,0.00036300,-0.00080662,-0.00081111,0.00001081,0.14053879,0.2866307
 7,0.00072733,0.00076351,0.00334885,0.00452867,0.00867995,-0.03434603,-
 0.00007675,-0.00020525,0.00263444,-0.00016970,0.00014266,0.00726030,-0
 .00009370,0.00000557,-0.00058799,-0.00016057,0.00037834,0.00546132,0.0
 0004244,0.00003238,-0.00025339,-0.00465548,-0.00960924,0.02466994,-0.0
 0476683,-0.00155543,-0.00000691,-0.01015341,0.02914444,-0.00130325,-0.
 11520107,0.11348693,-0.00536648,0.01236941,-0.01621157,0.00074757,-0.0
 0223072,-0.00309116,0.00015152,-0.00052549,-0.00025210,0.00002258,0.00
 009525,0.00010241,-0.00000533,0.00126000,-0.00006115,0.00003413,0.1227
 6129,-0.00128771,0.00136766,0.00030630,-0.00202374,0.00377504,0.000183
 30,0.11404769,-0.29788282,0.01119747,0.01260049,-0.01671221,0.00082974
 ,-0.00406454,-0.00238019,0.00025887,-0.00027005,0.00046259,-0.00007683
 ,0.00011329,-0.00001889,-0.00002019,0.00001407,0.00083773,-0.00024132,
 -0.12240459,0.31030515,-0.00001452,0.00011250,0.00847621,-0.00013819,0
 .00022317,0.00623109,-0.00505426,0.01147640,-0.04132428,-0.00056965,0.
 00044154,0.00380227,0.00003109,0.00038687,0.00554398,0.00015965,-0.000
 01923,-0.00124165,0.00000381,-0.00001937,-0.00062534,0.00004046,-0.000
 21494,-0.00476799,0.00509907,-0.01228696,0.02722781,-0.00390739,0.0024
 4891,-0.00020253,-0.00046065,0.00012504,0.00000153,-0.00165575,0.00294
 308,-0.00015002,0.01337679,0.01276486,-0.00039479,-0.13722329,-0.12458
 029,0.00355747,-0.01309396,-0.02947694,0.00087026,0.00124206,0.0001700
 1,0.00005434,0.00006965,-0.00011493,0.00000992,0.00054062,0.00065734,-
 0.00004349,0.14470737,0.00174200,0.00099629,0.00028334,0.00024340,0.00
 042768,-0.00005337,0.00408864,-0.00302366,0.00028073,-0.01517378,-0.01
 614818,0.00057515,-0.12905816,-0.27513097,0.00682533,0.00330206,0.0056
 1003,0.00005769,-0.00000309,0.00081638,-0.00020333,-0.00011275,0.00000
 486,-0.00002517,-0.00082741,-0.00081941,0.00005198,0.13498566,0.284061
 10,-0.00018949,0.00032955,0.00911786,0.00004262,-0.00003477,-0.0011639
 4,-0.00018952,0.00023442,0.00539281,0.00081651,0.00073763,0.00322407,0
 .00387741,0.00679226,-0.04073690,-0.00025413,-0.00013580,0.00631228,0.
 00005556,-0.00022289,-0.00524110,0.00001190,-0.00003061,-0.00076657,-0
 .00000857,0.00007648,0.00074309,-0.00310286,-0.00730585,0.02555781,-0.
 29792341,0.04854678,-0.00426352,-0.05006433,0.02346403,-0.00145896,0.0
 1567746,0.00549901,0.00012399,-0.02939905,0.00522825,-0.00005704,0.016
 51226,-0.00910153,0.00013592,-0.06804334,-0.01765826,-0.00015626,0.002
 07196,0.00154025,-0.00000351,0.00032355,-0.00130368,0.00004743,-0.0013
 3556,0.00025745,0.00001461,-0.00161507,-0.00031286,0.00004666,0.549505
 96,0.01154279,-0.12171332,0.00269703,0.04353695,0.00173595,0.00068722,
 -0.00527212,-0.00915016,0.00063782,0.00143223,0.00393836,-0.00016998,0
 .00114454,-0.00908127,0.00049906,-0.04652247,0.01157844,-0.00059765,0.
 00025438,0.00161061,-0.00015489,-0.00169737,0.00115945,-0.00012953,0.0
 0176227,0.00014157,-0.00003883,-0.00190644,0.00019674,-0.00001283,0.07
 961258,0.35626094,-0.00313128,0.00306901,-0.04863299,-0.00230868,0.000
 52874,0.01175434,0.00034065,0.00076800,0.00740226,-0.00027356,-0.00016
 372,-0.00092355,-0.00000236,0.00042422,0.00458635,0.00104156,-0.000281
 18,0.00655127,0.00002402,-0.00013814,-0.00264452,0.00008786,-0.0001564
 6,-0.00236508,-0.00005973,-0.00007005,-0.00100807,0.00005231,-0.000014
 18,-0.00008919,0.00252886,-0.00884026,0.07225330,-0.04895752,-0.031745
 15,0.00053003,0.00515469,-0.00260867,0.00002157,-0.00319957,-0.0025401
 1,0.00001561,0.00518811,-0.00020676,0.00000088,-0.00220844,-0.00035205
 ,0.00002620,0.00147503,0.00488854,-0.00020871,0.00013844,-0.00005654,0
 .00000497,-0.00294499,-0.00051444,0.00000232,0.00042030,-0.00007642,-0
 .00000424,-0.00010223,0.00015477,-0.00000570,-0.11697472,-0.04312717,0
 .00077297,0.58094613,-0.01354382,0.00903323,-0.00063426,0.01149223,-0.
 00061814,0.00022671,-0.00457877,-0.00231341,0.00000617,0.00610483,0.00
 051756,-0.00004197,-0.00115169,0.00114820,0.00006642,0.00694608,0.0016
 9834,0.00013660,-0.00003248,0.00017384,-0.00003061,0.00119722,0.000082
 69,0.00001017,0.00032079,-0.00010753,0.00001000,0.00047818,0.00009512,
 -0.00002594,-0.07216605,-0.18777085,0.00353267,-0.08963090,0.51693241,
 -0.00003688,-0.00086881,-0.00560524,-0.00041067,0.00000865,-0.00102843
 ,0.00010878,0.00004145,0.00064055,-0.00013944,0.00001759,-0.00001325,0
 .00002116,0.00000375,0.00163147,-0.00025263,0.00012627,0.00393415,0.00
 000567,-0.00002872,-0.00058370,-0.00024622,0.00021256,-0.00107074,-0.0
 0001256,0.00001194,0.00011224,-0.00000776,-0.00001910,-0.00048416,0.00
 164810,0.00383393,-0.06114911,0.00284674,0.00129078,0.60371771,0.00465
 324,-0.00132074,0.00227585,-0.00055845,0.00102182,0.00051553,-0.000614
 66,-0.00035154,-0.00044359,-0.00017570,0.00070474,-0.00003207,0.000772
 23,-0.00050775,-0.00017737,-0.00123943,-0.00053806,-0.00070509,0.00001
 818,0.00005174,0.00010425,-0.00159918,0.00025595,0.00098537,-0.0000094
 1,0.00000369,0.00003555,-0.00002163,-0.00000420,0.00008019,-0.00335078
 ,-0.01988119,0.02023617,-0.06171570,0.02645397,-0.04270471,0.06307397,
 0.00689667,-0.00048974,0.00069305,-0.00107643,0.00104253,-0.00019701,0
 .00069349,0.00027203,0.00006067,-0.00124700,0.00016966,0.00002716,0.00
 061343,-0.00029081,-0.00021090,-0.00148294,-0.00056812,-0.00045649,0.0
 0003273,0.00006405,0.00011159,0.00023560,0.00003889,-0.00007641,-0.000
 05416,0.00001952,-0.00002227,-0.00006913,-0.00001692,0.00005968,-0.009
 93238,-0.02650102,0.02313247,0.02291124,-0.11526916,0.11034787,-0.0176
 0032,0.13360363,-0.00133182,0.00039704,0.00079584,0.00043413,0.0006558
 1,-0.00023818,-0.00048659,-0.00041954,-0.00019645,0.00041321,0.0000540
 5,-0.00001880,-0.00016996,0.00001035,-0.00002022,0.00047487,0.00005505
 ,-0.00023851,-0.00002646,-0.00002932,0.00001107,0.00019817,-0.00057000
 ,0.00017601,0.00000564,-0.00000101,0.00001405,0.00001698,0.00000258,0.
 00001330,0.00459462,0.00124244,0.00666438,-0.03811898,0.11488266,-0.25
 188725,0.03944240,-0.12785963,0.26170587,0.00478766,-0.00146271,-0.002
 06707,-0.00001772,0.00079015,-0.00060990,-0.00063623,-0.00029174,0.000
 46231,-0.00012555,0.00071930,-0.00001235,0.00076815,-0.00049870,0.0002
 1843,-0.00124006,-0.00048484,0.00072081,0.00001722,0.00004460,-0.00010
 857,-0.00151996,0.00007304,-0.00125166,-0.00000993,0.00000130,-0.00003
 130,-0.00001798,-0.00000878,-0.00007893,-0.00281911,-0.02114695,-0.019
 06284,-0.06336365,0.03230149,0.04524640,0.00187876,-0.00236662,-0.0054
 1068,0.06404054,0.00710276,-0.00051499,-0.00044328,-0.00134947,0.00105
 932,0.00002218,0.00074178,0.00027834,-0.00005690,-0.00130845,0.0001607
 8,-0.00002588,0.00062474,-0.00028031,0.00020852,-0.00152538,-0.0005457
 0,0.00045518,0.00003514,0.00005573,-0.00011237,0.00036363,0.00010689,0
 .00030574,-0.00005644,0.00002301,0.00002048,-0.00006992,-0.00002150,-0
 .00005515,-0.00977558,-0.02805926,-0.02107892,0.02821396,-0.13034756,-
 0.11765457,-0.00233355,0.01181154,0.01326904,-0.02334940,0.15068561,0.
 00092758,-0.00032082,0.00080865,-0.00037910,-0.00066893,-0.00020324,0.
 00042307,0.00037793,-0.00019227,-0.00033822,-0.00005346,-0.00001254,0.
 00015183,-0.00000441,-0.00002884,-0.00040700,-0.00005234,-0.00026330,0
 .00002510,0.00002777,0.00001439,-0.00023682,0.00056065,0.00013503,-0.0
 0000075,0.00000085,0.00001157,-0.00001308,-0.00000023,0.00001542,-0.00
 415765,0.00054230,0.00756570,0.04076731,-0.12199002,-0.23384303,0.0060
 7152,-0.01537486,-0.01875914,-0.04260521,0.13445951,0.24168142,0.00228
 591,-0.00351075,0.00011633,-0.00027768,0.00002022,0.00000208,0.0003107
 9,0.00023277,0.00000052,-0.00066552,0.00007221,-0.00000028,0.00021712,
 -0.00048570,0.00001350,-0.00139685,0.00015621,-0.00002566,0.00002648,-
 0.00002222,0.00000101,0.00009666,-0.00003757,0.00000296,-0.00005353,0.
 00001124,-0.00000017,-0.00012202,0.00000125,0.00000195,-0.02712054,0.0
 0049934,-0.00032027,-0.29130259,0.09884356,-0.00613862,-0.00124552,0.0
 0183825,0.00020848,-0.00185425,0.00204771,-0.00043836,0.32073681,-0.00
 199434,-0.00424449,0.00012307,-0.00008543,-0.00090976,0.00004812,0.000
 15483,0.00047511,-0.00000526,-0.00033718,0.00012397,-0.00000380,0.0002
 2387,-0.00054469,0.00001589,-0.00157476,0.00029494,-0.00001792,0.00005
 423,-0.00001390,0.00000043,0.00037360,0.00067678,-0.00002381,-0.000051
 17,0.00000370,0.00000176,-0.00013756,0.00000820,-0.00000135,-0.0410684
 9,0.00490069,-0.00062749,0.11412709,-0.09397147,0.00270532,0.01400779,
 -0.00376680,-0.00171558,0.01564098,-0.00428404,0.00251004,-0.09960210,
 0.10124942,0.00009757,0.00013347,0.00055613,0.00000028,0.00003672,0.00
 011009,-0.00000678,-0.00001462,0.00007474,0.00000499,-0.00000222,-0.00
 005065,-0.00000181,0.00000970,-0.00001161,0.00002987,-0.00000075,0.000
 23158,-0.00000150,0.,-0.00000045,-0.00000173,-0.00003560,-0.00013022,0
 .00000083,0.00000127,0.00003199,0.00000349,-0.00000165,-0.00004162,0.0
 0104779,-0.00013746,0.00057740,-0.00666230,0.00255863,-0.05408419,-0.0
 2576655,0.00975723,0.00193782,0.02468313,-0.00930031,0.00303616,0.0065
 7861,-0.00300462,0.04776440,-0.02326570,0.00162325,-0.00036524,0.01550
 969,-0.01399156,0.00085603,-0.04698634,-0.02051048,-0.00026524,-0.2365
 5048,0.02178713,-0.00180589,-0.04235386,0.02550121,-0.00050399,0.01975
 962,0.01325498,-0.00051920,0.00005275,-0.00070841,-0.00001141,0.000163
 67,0.00050465,0.00003878,0.00033313,0.00157800,-0.00003418,-0.00005928
 ,-0.00215856,-0.00008087,0.02640177,-0.00082512,0.00023525,-0.00466038
 ,-0.00557618,0.00014267,0.00021338,0.00110728,-0.00039805,0.00018087,0
 .00116613,0.00033240,0.00068117,0.00044860,-0.00000662,0.74644153,-0.0
 0406382,-0.00535704,0.00019261,-0.00314353,-0.00549275,0.00060441,-0.0
 3335244,0.00581017,-0.00066428,0.03309470,-0.12014878,0.00130240,0.027
 78626,0.01062243,-0.00036878,0.00751288,-0.00384036,0.00049476,0.00173
 026,0.00010616,0.00002871,-0.00135315,0.00036252,0.00000427,-0.0004889
 1,-0.00017997,-0.00028671,-0.00060284,-0.00048731,-0.00028003,0.003662
 86,0.00042212,-0.00006077,-0.00063155,-0.00065036,0.00000813,0.0000923
 6,0.00015985,-0.00006742,0.00008166,0.00016450,0.00006267,0.00010529,0
 .00010642,-0.00000205,0.11062206,0.69885567,-0.00020028,0.00016572,-0.
 00055699,0.00024129,0.00029626,0.00732351,0.00062752,-0.00074180,-0.00
 346949,-0.00183020,0.00229786,-0.06758401,-0.00172827,0.00004558,-0.00
 180458,-0.00004627,0.00050893,0.00657152,-0.00005117,0.00001999,0.0007
 6826,0.00005294,0.00002595,0.00094657,0.00007380,-0.00017618,-0.003979
 39,0.00002701,-0.00013576,-0.00337594,0.00021625,-0.00004249,-0.000733
 45,-0.00004106,-0.00006978,-0.00041395,0.00012090,0.00002715,0.0000529
 5,-0.00012169,-0.00000485,0.00005289,0.00000861,-0.00000058,-0.0000084
 0,0.00871321,0.00052110,0.20790811,0.00035058,0.00032088,-0.00002380,0
 .00025441,0.00034871,-0.00003892,-0.00173867,0.00074670,-0.00033560,-0
 .00907120,0.02273527,-0.00192955,-0.00325983,-0.00209553,-0.00026034,-
 0.00044615,0.00108609,0.00008058,-0.00032484,-0.00002684,0.00002535,0.
 00002586,-0.00002644,0.00000450,-0.00123525,0.00075080,-0.00010989,0.0
 0007448,0.00005276,-0.00003961,-0.00048207,-0.00005136,0.00001520,0.00
 007731,0.00010889,-0.00001177,-0.00000602,-0.00001891,0.00000332,-0.00
 000684,-0.00002414,-0.00000248,-0.00001897,-0.00001214,-0.00000112,-0.
 11727538,0.06103967,-0.00119878,0.46510509,-0.00054308,-0.00077458,-0.
 00005129,-0.00031347,-0.00038457,-0.00015569,-0.00124860,-0.00084925,-
 0.00012360,0.00864502,0.00600183,0.00000525,-0.00489149,0.00137701,-0.
 00017214,0.00094242,0.00146337,-0.00001547,-0.00024067,0.00001054,0.00
 000537,-0.00007147,0.00001537,0.00000507,-0.00005313,0.00032285,0.0002
 8468,-0.00000964,0.00001124,-0.00001859,0.00060085,0.00000316,0.000070
 41,-0.00009911,-0.00009752,-0.00000759,0.00001282,0.00002346,-0.000010
 38,0.00001207,0.00002180,0.00001064,0.00001041,0.00001149,0.00000035,0
 .04025802,-0.16451076,-0.00212509,0.06204210,0.57540534,0.00081758,0.0
 0048799,0.00003681,0.00001264,-0.00004260,-0.00051215,0.00087843,0.000
 93024,-0.00196521,-0.00343654,0.00006863,0.00742778,0.00152273,-0.0008
 0788,0.00373903,-0.00091329,-0.00074783,-0.00074094,0.00002855,-0.0000
 0159,-0.00038969,-0.00000189,-0.00001810,0.00004833,-0.00016444,-0.000
 33978,0.00116041,0.00005507,-0.00000430,-0.00002607,-0.00080042,-0.000
 04324,0.00015955,0.00013929,0.00016526,-0.00001017,-0.00001105,-0.0000
 3561,0.00001469,-0.00000931,-0.00003219,-0.00001166,-0.00002072,-0.000
 01491,0.00000147,0.00114587,-0.00446347,-0.08505526,0.01591818,0.02809
 739,0.58476842,0.00847705,-0.00316890,0.00026634,-0.00755836,0.0029270
 4,-0.00021646,0.00388418,0.01134072,-0.00021190,-0.05080739,-0.0374714
 9,-0.00025663,0.00832974,-0.00820654,0.00012075,-0.00443334,-0.0037262
 5,0.00027705,-0.00010143,0.00026866,-0.00001094,-0.00078302,0.00001144
 ,-0.00001648,0.00039579,-0.00021164,-0.00000081,0.00082306,0.00115334,
 -0.00057850,-0.00951853,0.00047222,-0.00010079,0.00170273,0.00206720,-
 0.00005941,-0.00005909,-0.00040315,0.00012361,-0.00004640,-0.00042726,
 -0.00009921,-0.00025912,-0.00014388,0.00000102,-0.27811877,-0.18995747
 ,-0.00230269,0.01086258,0.00009557,0.00155372,0.68987080,0.00783979,-0
 .00068179,0.00008263,-0.00492006,0.00479790,-0.00037589,0.01138714,0.0
 0637892,0.00013808,-0.03128421,0.01127845,0.00034707,0.00947685,-0.007
 05804,0.00038683,-0.00630381,-0.00388364,-0.00000497,-0.00012258,0.000
 17710,-0.00000343,-0.00001502,-0.00013414,-0.00001381,0.00051726,-0.00
 001784,0.00004347,0.00139888,0.00118910,0.00047921,-0.00855752,0.00031
 599,-0.00004465,0.00154067,0.00178058,-0.00003964,-0.00007705,-0.00036
 441,0.00012708,-0.00006068,-0.00038106,-0.00010689,-0.00022154,-0.0001
 4392,0.00000237,-0.16155664,-0.37455194,-0.00457810,-0.01076797,-0.059
 62616,0.00212011,0.05455666,0.98175447,-0.00083151,0.00024542,-0.00016
 644,0.00065444,-0.00064721,-0.00075572,-0.00122417,-0.00034190,0.00329
 505,0.00217559,-0.00071097,0.01029727,-0.00044624,0.00048412,0.0002306
 0,0.00049374,0.00032601,-0.00057651,0.00001183,-0.00002185,0.00004702,
 -0.00000048,0.00000708,-0.00028823,-0.00005244,0.00001610,0.00026926,-
 0.00007326,-0.00017884,0.00161833,0.00099724,-0.00004269,0.00013365,-0
 .00017924,-0.00021115,0.00007612,-0.00001559,0.00003965,-0.00002520,0.
 00002800,0.00004626,0.00000342,0.00002510,0.00001736,0.00000226,-0.008
 77190,-0.00925272,-0.06119648,0.00096024,0.00472164,0.01301665,0.02007
 664,0.01564171,0.11574625,-0.00165804,0.00033326,-0.00004785,0.0013242
 3,-0.00068033,0.00012397,-0.00186674,-0.00164720,-0.00008985,0.0074352
 0,0.00014148,-0.00031414,-0.00115429,0.00113664,0.00007825,0.00108964,
 0.00087111,-0.00003826,0.00006155,-0.00005289,-0.00000391,0.00007353,0
 .00002885,0.00001946,-0.00002835,0.00019859,-0.00003500,-0.00042478,0.
 00039076,0.00004770,0.00184305,-0.00001854,0.00001389,-0.00032953,-0.0
 0039993,0.00000471,0.00001655,0.00007872,-0.00002509,0.00001104,0.0000
 8349,0.00002179,0.00005238,0.00003259,-0.00000092,-0.05191692,-0.01955
 266,-0.00389074,-0.00898907,-0.02382732,-0.00876814,-0.19676537,0.0217
 2418,-0.00790128,0.52063806,0.00142424,-0.00041431,0.00006747,-0.00111
 365,0.00034767,0.00009843,-0.00019308,0.00138532,-0.00001968,-0.003722
 84,-0.00519444,-0.00035484,0.00126407,-0.00133724,0.00001244,-0.000762
 99,-0.00038601,0.00008762,-0.00004233,0.00004102,0.00000207,-0.0001527
 0,-0.00000315,-0.00000928,0.00000042,0.00000491,-0.00010653,-0.0000546
 9,0.00028379,-0.00003205,-0.00159208,0.00008393,-0.00005401,0.00028184
 ,0.00034118,-0.00001063,-0.00001032,-0.00006714,0.00002043,-0.00001034
 ,-0.00007064,-0.00001513,-0.00004177,-0.00002329,0.00000038,-0.0170146
 2,0.01442689,-0.00158368,-0.01517366,-0.02072355,-0.00064978,0.0254845
 3,-0.11160201,0.00137525,0.09499978,0.52612385,0.00059819,-0.00015393,
 0.00019630,-0.00039258,0.00033057,-0.00093815,0.00058503,0.00048408,0.
 00124107,-0.00103718,0.00030593,0.00909789,0.00036990,-0.00048377,-0.0
 0042341,-0.00030946,-0.00028286,0.00001804,-0.00000184,0.00001652,-0.0
 0004792,-0.00001028,-0.00001509,-0.00016420,0.00001523,-0.00002710,0.0
 0035398,-0.00002918,0.00005997,-0.00017107,-0.00073796,0.00002723,-0.0
 0000472,0.00012992,0.00016109,0.00002091,-0.00001662,-0.00002568,0.000
 00351,0.00000923,-0.00003672,-0.00001773,-0.00001904,-0.00001073,0.000
 00258,0.00282277,0.00255470,0.00187350,-0.00072358,0.00622273,-0.00291
 801,-0.01158749,-0.00164277,-0.06980117,-0.01120679,-0.02486751,0.6252
 8705,0.00016571,-0.00003608,-0.00001423,-0.00008580,-0.00004690,0.0000
 5742,0.00074391,0.00024872,-0.00005244,0.00042493,0.00219410,-0.000028
 05,-0.00078420,-0.00014468,0.00010225,-0.00007323,0.00008891,-0.000076
 65,-0.00005556,-0.00000116,-0.00000923,-0.00001456,0.00000147,0.000009
 72,-0.00003118,-0.00009837,-0.00004095,0.00008922,-0.00012823,0.000029
 64,-0.00018490,-0.00001979,0.00000237,0.00002684,0.00004082,0.00000159
 ,-0.00000134,-0.00000822,0.00000244,-0.00000196,-0.00000751,-0.0000003
 6,-0.00000586,-0.00000471,0.00000037,-0.03414768,0.01359242,0.00398983
 ,-0.17083203,-0.02603506,0.02143482,-0.01419696,0.03136121,0.00731486,
 -0.07328459,-0.01312370,-0.00032425,0.53718672,-0.00024268,-0.00015130
 ,-0.00001785,0.00001778,0.00019804,-0.00008125,-0.00035039,-0.00064619
 ,-0.00004249,0.00008271,-0.00480795,0.00048147,0.00112452,0.00029138,0
 .00032415,0.00026764,-0.00028178,-0.00006720,0.00011579,-0.00000151,-0
 .00003017,0.00002570,0.00000436,0.00001324,-0.00016360,0.00023589,0.00
 004753,-0.00005760,0.00007325,0.00001098,0.00017981,0.00004236,0.00002
 955,-0.00002752,-0.00003755,-0.00000255,0.00000403,0.00000742,-0.00000
 144,0.00000348,0.00000814,0.00000129,0.00000637,0.00000470,-0.00000036
 ,0.02024016,0.00586468,-0.00587514,-0.03334418,-0.08439174,0.00249406,
 0.01977979,-0.03086108,-0.00207066,0.00137885,-0.18577493,-0.02739570,
 -0.09137113,0.49952182,0.00012011,-0.00013914,0.00007210,-0.00020578,0
 .00012535,0.00010778,-0.00016072,-0.00004216,-0.00004332,-0.00008947,0
 .00086392,0.00119056,-0.00043637,0.00002215,0.00045798,-0.00004124,0.0
 0013196,-0.00019124,-0.00004679,0.00000474,-0.00004655,-0.00002615,0.0
 0000133,-0.00000002,0.00009074,0.00015423,-0.00021605,0.00005968,-0.00
 003178,0.00002255,-0.00018482,0.00001916,-0.00004510,0.00002853,0.0000
 4189,0.00001136,-0.00000301,-0.00001071,0.00000012,0.,-0.00000648,-0.0
 0000067,-0.00000568,-0.00000377,0.00000124,-0.00332289,0.00115676,0.00
 076284,0.02451838,0.00578738,-0.08727196,-0.00257124,0.00432067,0.0020
 1039,0.00097156,-0.03317785,-0.09388962,0.02382146,-0.01726880,0.61653
 719,0.00032515,0.00025508,0.00005039,0.00002283,0.00001417,0.00030567,
 -0.00185062,0.00112932,0.00048397,-0.00144288,-0.00013998,-0.00053761,
 0.00066587,-0.00042074,-0.00046490,-0.00043248,-0.00032015,0.00013041,
 0.00000910,0.00000623,0.00004145,0.00000332,-0.00000862,-0.00001396,-0
 .00244308,0.00014573,0.00080242,0.00004099,-0.00002752,0.00002707,-0.0
 0032131,-0.00002117,-0.00010289,0.00005265,0.00005981,0.00001481,-0.00
 000333,-0.00001341,0.00000448,-0.00000596,-0.00001318,-0.00000442,-0.0
 0000752,-0.00000684,-0.00000021,0.00951832,0.00863396,0.01609638,-0.08
 504858,-0.06432647,-0.06689483,-0.00147857,0.00382882,-0.00139575,-0.0
 0553372,0.00049715,0.00147017,-0.00845926,-0.02047211,-0.01766764,0.09
 365752,-0.00008911,0.00014863,0.00005363,0.00018412,0.00011571,0.00010
 414,-0.00001141,-0.00025102,0.00008074,-0.00040673,0.00026212,0.000560
 29,0.00009200,-0.00008990,0.00048067,-0.00008205,0.00002094,-0.0001287
 0,0.00000425,-0.00000421,-0.00005042,0.00000182,-0.00000341,-0.0000014
 0,-0.00020140,0.00051388,0.00000058,-0.00004387,0.00004780,0.00001956,
 0.00001673,0.00000589,-0.00003679,-0.00000340,-0.00000480,0.00000567,-
 0.00000108,0.00000017,-0.00000135,-0.00000119,0.00000341,0.00000193,-0
 .00000044,0.00000024,-0.00000012,-0.01123512,-0.01837398,-0.01815553,-
 0.06400698,-0.17139806,-0.12481944,0.00200388,-0.00353859,0.00016756,-
 0.00003179,-0.00100579,-0.00068916,-0.00106265,-0.00238384,-0.00221840
 ,0.07159138,0.18644604,-0.00001672,-0.00000036,0.00002045,-0.00001634,
 0.00026094,0.00003562,-0.00039925,-0.00051011,0.00036382,0.00016965,-0
 .00038196,0.00004965,0.00009984,0.00003059,-0.00003627,-0.00004028,0.0
 0002620,-0.00000528,0.00000009,0.00000572,0.00000111,-0.00000939,-0.00
 000266,0.00000726,0.00084872,0.00036387,-0.00038687,-0.00000889,0.0000
 2507,0.00001783,-0.00008325,0.00003496,-0.00003446,0.00001541,0.000016
 63,0.00000720,-0.00000150,-0.00000477,-0.00000229,-0.00000116,-0.00000
 303,0.00000180,-0.00000410,-0.00000078,-0.00000013,0.00088632,0.004997
 34,0.00152322,-0.06537918,-0.12883312,-0.16908248,-0.00012119,0.000214
 05,-0.00000260,0.00215265,0.00122498,0.00046442,0.00326332,0.00729942,
 0.00516362,0.06799442,0.13408240,0.17885520,0.00065085,0.00036289,-0.0
 0000875,-0.00005541,0.00004378,-0.00011817,0.00008596,0.00070228,-0.00
 034089,-0.00221871,0.00066787,0.00111841,0.00081770,-0.00066878,0.0007
 2313,-0.00073723,-0.00042210,-0.00017640,-0.00001399,0.00001066,-0.000
 07091,-0.00001689,-0.00001226,0.00000056,-0.00048104,-0.00007081,-0.00
 012983,0.00005517,-0.00000525,0.00000818,-0.00066937,-0.00001699,0.000
 03817,0.00011263,0.00013165,-0.00000836,-0.00001099,-0.00002877,0.0000
 0965,-0.00000854,-0.00002763,-0.00000710,-0.00001747,-0.00001276,0.000
 00106,0.00326068,0.00444707,-0.01898268,-0.04799731,-0.00643784,0.0204
 5649,-0.00096564,0.00131554,0.00095700,-0.00068600,-0.00058320,0.00010
 137,-0.00340722,-0.00944592,0.02876124,0.00086415,0.00436741,-0.009602
 58,0.05376631,-0.00017712,0.00017591,-0.00002493,0.00028787,-0.0001448
 0,0.00004958,-0.00018323,0.00012630,0.00020350,0.00001773,-0.00006604,
 -0.00103673,0.00006659,-0.00005477,-0.00067577,0.00001421,0.00002802,0
 .00015033,0.00001226,-0.00000592,0.00007422,0.00001010,0.00000044,-0.0
 0000386,0.00013367,-0.00002873,-0.00011372,-0.00004955,0.00002895,0.00
 000499,0.00018094,-0.00002040,-0.00001750,-0.00003537,-0.00003978,0.00
 000151,0.00000099,0.00000959,-0.00000292,-0.00000004,0.00000850,0.0000
 0140,0.00000520,0.00000278,-0.00000007,-0.00285012,-0.01412957,0.02867
 513,-0.00951287,-0.08505123,0.09597782,0.00192472,-0.00258032,-0.00088
 255,0.00022447,-0.00062305,0.00113301,0.00069120,-0.00171679,0.0049136
 8,0.00124546,0.01021211,-0.02033092,0.00839256,0.09289916,-0.00026305,
 -0.00013858,0.00005210,0.00001008,-0.00015022,0.00014750,-0.00000805,-
 0.00004009,0.00021343,0.00111832,0.00029124,0.00015723,-0.00055098,0.0
 0033176,-0.00006024,0.00034388,0.00020231,0.00000203,-0.00000379,-0.00
 000771,0.00000170,0.00000714,0.00000776,-0.00000874,-0.00008203,-0.000
 15492,-0.00028560,-0.00001048,-0.00001281,0.00002382,0.00033150,-0.000
 01210,-0.00005672,-0.00005596,-0.00006489,0.00001133,0.00000436,0.0000
 1206,-0.00000316,0.00000408,0.00001527,0.00000233,0.00000903,0.0000057
 2,0.,-0.00169835,0.00257504,-0.00016895,0.02219062,0.09345669,-0.27411
 290,-0.00136349,-0.00135257,0.00013343,0.00102032,0.00020399,-0.000089
 75,0.00108398,0.00004009,-0.00297654,0.00151076,0.00898409,-0.01812383
 ,-0.02436374,-0.10496900,0.29390072,0.00091950,-0.00023139,0.00005767,
 -0.00069480,0.00039062,-0.00022007,0.00063179,0.00082908,0.00027946,-0
 .00257517,-0.00061930,0.00200611,0.00060703,-0.00074321,-0.00003954,-0
 .00054963,-0.00035276,-0.00000968,-0.00003545,0.00002780,-0.00001231,-
 0.00005573,-0.00001084,-0.00004066,0.00003406,-0.00001307,0.00006685,0
 .00009496,-0.00000538,-0.00003070,-0.00107041,0.00003908,-0.00000781,0
 .00018733,0.00023040,0.00000086,-0.00001118,-0.00004511,0.00001298,-0.
 00000274,-0.00004780,-0.00001317,-0.00002912,-0.00001721,0.00000083,0.
 00233377,0.00582127,-0.00227985,-0.00016490,-0.00001680,-0.00055728,-0
 .02670391,-0.00827715,-0.03332379,-0.07161531,-0.01579750,-0.07024278,
 0.00071775,0.00114750,0.00206929,0.00034307,-0.00026072,0.00001126,-0.
 00002282,0.00005517,0.00001307,0.08836459,-0.00044295,0.00008049,-0.00
 005236,0.00029093,-0.00021172,0.00000723,-0.00035508,-0.00038568,-0.00
 009123,0.00111221,0.00017155,-0.00030727,-0.00031765,0.00035573,0.0000
 8174,0.00027697,0.00020149,-0.00006058,0.00001084,-0.00001277,-0.00000
 027,0.00001814,0.00000688,0.00001596,-0.00000472,0.00002922,0.00004646
 ,-0.00002443,-0.00000919,0.00003311,0.00053208,-0.00001664,0.00002912,
 -0.00009205,-0.00011328,0.00000220,0.00000423,0.00002179,-0.00000725,0
 .00000289,0.00002387,0.00000662,0.00001396,0.00000889,0.00000003,-0.00
 185906,-0.00252571,0.00026891,-0.00046641,-0.00022302,-0.00093016,0.00
 682554,0.00504519,0.00986214,-0.01650362,-0.06051917,-0.04357928,-0.00
 654800,-0.00389369,-0.02935426,-0.00076800,-0.00018010,0.00044559,0.00
 013241,0.00011317,0.00025236,0.01352558,0.06140622,0.00003880,-0.00002
 715,0.00000028,-0.00005718,0.00002039,0.00004223,0.00010350,0.00006794
 ,-0.00003026,-0.00037119,-0.00002411,-0.00040142,0.00005351,-0.0000638
 3,0.00002584,-0.00002423,0.00000083,-0.00000691,-0.00000430,0.00000075
 ,-0.00000170,-0.00000281,0.00000091,0.00000226,0.00001297,0.00000229,-
 0.00001471,0.00001661,-0.00001160,-0.00000350,-0.00002022,0.00000220,-
 0.00000111,0.00000666,0.00000480,-0.00000251,0.00000036,-0.00000181,0.
 00000076,-0.00000082,-0.00000119,0.00000037,-0.00000127,-0.00000014,-0
 .00000018,0.00105469,0.00115879,0.00058998,-0.00032943,-0.00095532,-0.
 00021821,-0.00267731,0.00144171,0.00509378,-0.07621002,-0.04312798,-0.
 29320960,0.00043220,-0.00075488,-0.00355337,-0.00011304,0.00003920,-0.
 00003106,-0.00023239,-0.00005232,-0.00031778,0.08565520,0.04795854,0.3
 0781227,0.00064888,-0.00017704,-0.00001291,-0.00050740,0.00022030,0.00
 012399,0.00023555,0.00061093,-0.00025706,-0.00172068,-0.00107286,-0.00
 132945,0.00041280,-0.00050909,0.00008109,-0.00037116,-0.00020979,0.000
 02251,-0.00003156,0.00002042,0.00000611,-0.00005600,-0.00000269,0.0000
 2851,0.00002400,-0.00001145,-0.00004328,0.00007316,-0.00000042,0.00000
 505,-0.00074466,0.00002827,-0.00000776,0.00013052,0.00016000,-0.000009
 34,-0.00000286,-0.00003170,0.00001058,-0.00000698,-0.00003301,-0.00000
 635,-0.00002063,-0.00001167,-0.00000012,-0.00153714,0.00411673,0.00160
 578,-0.00109607,0.00066492,0.00112418,-0.02657737,-0.02140627,0.020622
 21,-0.12273632,-0.07541994,0.08923174,0.00380217,0.00111703,-0.0023512
 7,0.00023248,-0.00010348,-0.00005380,0.00014549,-0.00032884,-0.0001232
 4,0.00795834,0.00581246,-0.00656359,0.14110223,-0.00028096,0.00009425,
 0.00001962,0.00021416,-0.00012171,-0.00003137,-0.00021128,-0.00026680,
 0.00010781,0.00061323,0.00051915,0.00062173,-0.00019973,0.00017063,-0.
 00010290,0.00012979,0.00013064,0.00001262,0.00000223,-0.00000824,0.000
 00225,0.00001607,0.00000245,-0.00001611,0.00000220,0.00005120,-0.00002
 867,-0.00000590,-0.00001812,-0.00000306,0.00034624,-0.00001300,-0.0000
 0928,-0.00005963,-0.00007501,0.00000626,0.00000069,0.00001446,-0.00000
 605,0.00000263,0.00001473,0.00000372,0.00000858,0.00000543,0.00000016,
 0.00077337,-0.00255470,-0.00010419,0.00093846,-0.00426076,-0.00088836,
 0.00961396,0.00941426,-0.00936122,-0.08298005,-0.13949309,0.10447254,-
 0.01632772,-0.01291220,0.01726160,-0.00101483,-0.00020354,0.00028477,-
 0.00073979,-0.00012031,0.00006312,0.00309287,0.00415776,-0.00418407,0.
 08667065,0.14517587,-0.00009162,0.00002079,-0.00000036,0.00005183,-0.0
 0005790,0.00004773,-0.00015879,-0.00008233,-0.00001394,0.00016205,-0.0
 0014059,-0.00031574,-0.00005037,0.00007217,-0.00002953,0.00005225,0.00
 004915,0.00001095,0.00000101,-0.00000234,0.00000156,-0.00000122,0.0000
 0144,0.00000079,-0.00000366,0.00001487,-0.00003259,0.00000068,0.000000
 64,0.00000220,0.00011258,-0.00000323,-0.00000586,-0.00001998,-0.000024
 26,0.00000051,0.00000098,0.00000474,-0.00000179,0.00000033,0.00000511,
 0.00000177,0.00000314,0.00000180,-0.00000003,-0.00147217,-0.00082303,0
 .00018888,-0.00070279,-0.00211189,0.00052871,-0.00343202,-0.00355685,0
 .00498579,0.09819049,0.10482042,-0.17396253,-0.00637589,-0.00607054,0.
 00589149,-0.00019619,-0.00003440,-0.00002068,-0.00041637,-0.00016098,-
 0.00006331,0.01581802,0.01672093,-0.01745680,-0.10172119,-0.10821791,0
 .17839207,0.00013756,0.00003914,0.00000493,-0.00003694,0.00002664,-0.0
 0000647,0.00009176,0.00010817,-0.00002182,-0.00031705,0.00049786,-0.00
 028677,-0.00001044,-0.00014846,-0.00008757,-0.00014167,-0.00001406,0.0
 0003014,-0.00001951,0.00000421,0.00001035,-0.00001088,-0.00000249,0.00
 000156,0.00007017,0.00001438,0.00002698,0.00001402,0.00000189,-0.00000
 983,-0.00015509,-0.00000074,-0.00000250,0.00002630,0.00003316,-0.00000
 198,-0.00000113,-0.00000628,0.00000121,-0.00000232,-0.00000764,-0.0000
 0170,-0.00000478,-0.00000257,-0.00000035,-0.00039336,-0.00193990,0.001
 06256,-0.00767933,0.00212992,0.03060258,-0.00015504,0.00053202,-0.0003
 5031,0.00010648,-0.00194984,-0.00280415,-0.06023767,0.00977155,0.04751
 432,0.00188073,0.00011915,0.00009338,-0.00485398,-0.00015366,0.0011016
 3,0.00074714,-0.00126391,-0.00034415,0.00048497,0.00004078,-0.00040886
 ,0.06473556,-0.00000889,0.00006060,-0.00000121,0.00005795,-0.00002370,
 -0.00000607,-0.00003218,0.00000434,-0.00002419,-0.00004942,0.00020732,
 -0.00010347,0.00003151,-0.00004571,-0.00001015,-0.00003598,0.00000631,
 -0.00000038,-0.00000159,-0.00000131,0.00000465,0.00000132,-0.00000062,
 0.00000082,0.00002190,0.00000786,0.00001192,-0.00001008,0.00001420,-0.
 00000088,0.00001618,-0.00000396,0.00000305,-0.00000260,-0.00000411,0.0
 0000007,-0.00000084,0.00000060,-0.00000023,-0.00000040,0.00000118,-0.0
 0000002,0.00000045,0.00000010,-0.00000016,-0.00025259,-0.00160064,0.00
 066574,-0.00390293,0.00090470,0.01063199,-0.00056186,-0.00042887,-0.00
 035422,0.00428439,-0.00630487,-0.03368542,0.00987007,-0.05374423,-0.03
 005246,0.00029877,0.00050321,0.00046982,-0.00264030,0.00036958,0.00064
 940,0.00107424,-0.00519242,-0.00133283,-0.00011181,0.00181819,-0.00006
 607,-0.00406752,0.06033964,-0.00012598,0.00001976,-0.00000728,0.000083
 85,-0.00005386,0.00000968,-0.00008860,-0.00007247,0.00002195,0.0002497
 9,-0.00015200,-0.00011056,-0.00001558,0.00007911,-0.00000651,0.0000820
 1,0.00002513,0.00001679,0.00001187,-0.00000415,-0.00000111,0.00001045,
 0.00000154,-0.00000029,-0.00002845,-0.00001605,-0.00001393,-0.00001741
 ,0.00000293,-0.00000335,0.00015042,-0.00000397,0.00000135,-0.00002625,
 -0.00003379,-0.00000136,0.00000132,0.00000653,-0.00000156,0.00000101,0
 .00000725,0.00000209,0.00000474,0.00000237,-0.00000009,-0.00007783,0.0
 0014918,-0.00018750,0.00042199,0.00014701,-0.00371935,0.00056375,-0.00
 037057,-0.00017267,-0.00040709,-0.00036009,-0.00520563,0.04923483,-0.0
 3207108,-0.31240339,-0.00028210,0.00009271,0.00133523,0.00116116,-0.00
 011390,0.00098327,0.00039221,-0.00139289,0.00096334,-0.00015842,0.0003
 0316,0.00143891,-0.05485878,0.03618672,0.33179879,0.00029416,-0.000021
 06,0.00000759,-0.00016895,0.00009206,0.00000738,0.00018629,0.00021365,
 -0.00000479,-0.00036526,0.00145366,0.00007247,-0.00030268,-0.00028435,
 0.00002305,-0.00020626,0.00005465,-0.00001114,-0.00005382,0.00000754,-
 0.00000324,-0.00002695,-0.00000365,-0.00000041,0.00010672,0.00004165,-
 0.00002740,0.00003286,-0.00000207,-0.00000286,-0.00033710,0.00000287,-
 0.00000506,0.00005888,0.00007404,-0.00000275,-0.00000349,-0.00001474,0
 .00000391,-0.00000263,-0.00001505,-0.00000281,-0.00001049,-0.00000582,
 0.00000012,-0.00427757,-0.00223839,0.00018225,-0.01720002,0.01535875,-
 0.01397833,-0.00031093,-0.00046492,-0.00006455,0.00229868,-0.00295928,
 0.00210828,-0.17200758,0.09863421,-0.09956970,-0.00126290,-0.00015943,
 0.00013741,0.00209733,0.00038127,-0.00016019,0.00068880,0.00016777,0.0
 0019377,-0.00040559,-0.00008591,0.00011044,0.00572089,-0.00437792,0.00
 358938,0.18526765,-0.00015178,0.00004633,-0.00000193,0.00012476,-0.000
 07735,0.00001222,-0.00011976,-0.00011565,0.00001045,0.00039684,0.00061
 721,0.00000757,-0.00019152,0.00003935,-0.00002012,0.00008271,0.0001341
 8,0.00001442,-0.00000716,-0.00000583,-0.00000120,0.00000645,0.00000200
 ,-0.00000009,0.00002889,0.00000994,-0.00001729,-0.00003287,0.00004656,
 -0.00000466,0.00018817,-0.00000481,-0.00000163,-0.00003318,-0.00004097
 ,0.00000080,0.00000121,0.00000830,-0.00000293,0.00000093,0.00000836,0.
 00000247,0.00000517,0.00000302,0.00000005,-0.00311645,-0.00241526,0.00
 003831,-0.00881330,0.00662897,-0.00607008,0.00150817,-0.00576519,-0.00
 054250,0.01974227,-0.01238571,0.01652265,0.09821001,-0.12524393,0.0775
 0373,-0.00031756,-0.00031902,-0.00007953,0.00062172,0.00076088,-0.0002
 9398,0.00016016,0.00190850,0.00001545,-0.00010259,-0.00152032,-0.00025
 997,-0.00380915,0.00309620,-0.00242648,-0.10581072,0.13425662,-0.00009
 487,0.00001269,-0.00000485,0.00006800,-0.00002110,0.00000690,-0.000069
 25,-0.00008069,-0.00000581,0.00013753,-0.00044364,0.00000048,0.0001403
 1,0.00006071,-0.00001615,0.00007237,-0.00000510,0.00000956,0.00001690,
 -0.00000355,0.00000020,0.00000835,0.00000106,0.00000005,-0.00001330,0.
 00000430,0.00000252,-0.00002046,0.00002256,0.00000165,0.00010815,0.000
 00026,0.00000120,-0.00001756,-0.00002381,-0.00000010,0.00000114,0.0000
 0459,-0.00000102,0.00000086,0.00000480,0.00000079,0.00000313,0.0000021
 1,-0.00000003,0.00200485,-0.00102797,0.00009818,0.00638583,-0.00470757
 ,0.00357689,0.00216271,-0.00254365,0.00004648,0.00623797,-0.00488360,0
 .00391290,-0.10421798,0.08148760,-0.13292800,0.00002224,0.00005213,0.0
 0022710,0.00000423,-0.00043455,0.00106650,0.00043300,0.00012494,0.0009
 5449,-0.00006405,-0.00014699,0.00027767,-0.02125572,0.01675141,-0.0146
 0219,0.10737452,-0.08419783,0.13732805,0.00037521,-0.00037083,0.000007
 60,-0.00032504,0.00051464,-0.00003622,0.00061961,0.00055599,0.00003228
 ,-0.00177330,0.00052959,0.00009140,-0.00069276,-0.00321004,0.00005988,
 0.00005087,0.00076899,-0.00006072,0.00002551,-0.00001764,0.00000223,0.
 00001001,0.00000394,-0.00000428,0.00009410,0.00009668,-0.00000334,-0.0
 0253042,0.00171193,-0.00047886,-0.00020663,0.00017988,-0.00000374,0.00
 006144,0.00003551,0.00000164,0.00000355,-0.00000817,0.00000696,0.00000
 458,-0.00000793,-0.00000680,0.00000512,0.00000507,0.00000005,0.0166925
 2,-0.02501479,-0.00034462,-0.00387779,-0.00265873,-0.00013392,-0.10550
 671,0.10855635,0.00031361,0.00203863,0.02576651,0.00200135,-0.00534567
 ,0.00157824,-0.00127252,0.00067403,-0.00067989,0.00006515,0.00030635,-
 0.00035360,-0.00006542,-0.00009695,-0.00008012,-0.00061634,0.00056384,
 -0.00056011,0.00054731,0.00000362,0.00040008,0.00012769,0.00018997,0.0
 0142859,0.00057110,0.09863630,-0.00129177,0.00041316,-0.00001717,0.001
 02457,-0.00064380,0.00002705,-0.00106223,-0.00114227,0.00005851,0.0038
 8607,0.00024854,0.00003177,-0.00094322,0.00152956,-0.00006511,0.000749
 01,0.00053591,0.00001929,0.00006002,-0.00004304,0.00000009,0.00007067,
 0.00001306,-0.00000242,-0.00004426,0.00003587,-0.00000479,0.00127472,0
 .00176396,-0.00061342,0.00159623,-0.00006149,0.00000780,-0.00027547,-0
 .00034164,0.00000688,0.00001058,0.00006664,-0.00002148,0.00000786,0.00
 006935,0.00001732,0.00004389,0.00002645,-0.00000037,0.00279005,-0.0200
 8229,0.00003652,-0.00192667,0.00009007,-0.00106418,0.10424499,-0.42051
 295,-0.00833183,0.00004493,0.00288985,0.00060473,-0.00133499,0.0005966
 5,-0.00000273,0.00016470,-0.00052388,0.00036488,-0.00008345,-0.0001536
 7,0.00010599,0.00004446,-0.00024736,-0.00017658,0.00011094,-0.00000121
 ,-0.00009979,0.00004734,0.00001642,0.00004791,-0.00003883,0.00032760,-
 0.00000911,-0.10917013,0.43513051,0.00014744,-0.00005889,-0.00014068,-
 0.00012691,0.00009476,0.00019132,0.00021158,0.00013226,-0.00022047,-0.
 00047777,-0.00004530,-0.00426497,-0.00026721,-0.00002899,-0.00011935,-
 0.00006517,-0.00007394,-0.00012094,-0.00000540,0.00000781,0.00007359,-
 0.00000449,-0.00000086,0.00005832,0.00000512,-0.00001148,-0.00008402,-
 0.00065115,-0.00019000,0.00004038,-0.00018048,0.00000554,0.00004319,0.
 00003160,0.00004002,0.00001365,0.00000126,-0.00000832,0.00000320,-0.00
 000310,-0.00000747,-0.00000139,-0.00000505,-0.00000324,-0.00000027,0.0
 0110098,0.00148635,-0.00012601,0.00056267,0.00047313,0.01155530,0.0004
 6098,-0.01071122,-0.02402072,0.00005632,0.00133916,-0.00162862,0.00035
 894,-0.00047927,0.00133661,-0.00128111,0.00141039,-0.00034755,0.001117
 52,-0.00236546,-0.00042788,-0.00003916,-0.00008030,-0.00023649,-0.0001
 5992,-0.00005918,0.00013415,-0.00000870,0.00026216,-0.00013463,0.00002
 268,-0.00020790,0.00004654,-0.00080146,0.00908023,0.01837774\\-0.00005
 508,0.00001983,-0.00000475,0.00000920,0.00000172,-0.00000561,0.0000005
 4,0.00000254,-0.00000231,0.00000221,0.00000197,0.00000129,-0.00001081,
 -0.00000191,-0.00000038,0.00001602,-0.00001632,-0.00000147,-0.00000268
 ,-0.00000048,-0.00000188,0.00000333,-0.00000184,-0.00000497,-0.0000013
 2,0.00000119,-0.00000186,-0.00000633,-0.00000114,0.00000326,0.00003172
 ,-0.00003408,-0.00000848,0.00000978,0.00001325,-0.00000727,-0.00000060
 ,-0.00000645,-0.00001126,0.00000164,-0.00000468,-0.00000765,0.00000105
 ,-0.00000641,-0.00001063,-0.00000575,-0.00000078,0.00000367,-0.0000046
 3,-0.00000768,0.00001116,0.00001158,-0.00000524,0.00000070,-0.00000699
 ,0.00001771,0.00000542,0.00001288,-0.00000371,0.00000548,0.00000414,0.
 00000591,0.00000096,0.00000331,0.00000445,-0.00000178,-0.00000355,-0.0
 0000110,0.00000931,-0.00000091,0.00000289,0.00001112,-0.00000127,0.000
 00601,0.00000669,-0.00000106,0.00000723,0.00000610,-0.00000643,0.00000
 709,0.00000514\\\@
 The archive entry for this job was punched.


 IT IS DOUBTED WHETHER A MAN EVER BRINGS HIS FACULTIES TO BEAR WITH THEIR FULL FORCE
 ON A SUBJECT UNTIL HE WRITES UPON IT.

                          -- CICERO
 Job cpu time:       0 days  0 hours 29 minutes 46.2 seconds.
 Elapsed time:       0 days  0 hours  3 minutes 44.8 seconds.
 File lengths (MBytes):  RWF=    285 Int=      0 D2E=      0 Chk=     14 Scr=      1
 Normal termination of Gaussian 16 at Wed Jul  8 17:54:49 2026.
