 Entering Gaussian System, Link 0=g16
 Initial command:
 /opt/packages/gaussian/g16RevC.01/g16/l1.exe "/ocean/projects/che200051p/zlab/tmp/Gau-94681.inp" -scrdir="/ocean/projects/che200051p/zlab/tmp/"
 Entering Link 1 = /opt/packages/gaussian/g16RevC.01/g16/l1.exe PID=     94682.
  
 Copyright (c) 1988-2019, Gaussian, Inc.  All Rights Reserved.
  
 This is part of the Gaussian(R) 16 program.  It is based on
 the Gaussian(R) 09 system (copyright 2009, Gaussian, Inc.),
 the Gaussian(R) 03 system (copyright 2003, Gaussian, Inc.),
 the Gaussian(R) 98 system (copyright 1998, Gaussian, Inc.),
 the Gaussian(R) 94 system (copyright 1995, Gaussian, Inc.),
 the Gaussian 92(TM) system (copyright 1992, Gaussian, Inc.),
 the Gaussian 90(TM) system (copyright 1990, Gaussian, Inc.),
 the Gaussian 88(TM) system (copyright 1988, Gaussian, Inc.),
 the Gaussian 86(TM) system (copyright 1986, Carnegie Mellon
 University), and the Gaussian 82(TM) system (copyright 1983,
 Carnegie Mellon University). Gaussian is a federally registered
 trademark of Gaussian, Inc.
  
 This software contains proprietary and confidential information,
 including trade secrets, belonging to Gaussian, Inc.
  
 This software is provided under written license and may be
 used, copied, transmitted, or stored only in accord with that
 written license.
  
 The following legend is applicable only to US Government
 contracts under FAR:
  
                    RESTRICTED RIGHTS LEGEND
  
 Use, reproduction and disclosure by the US Government is
 subject to restrictions as set forth in subparagraphs (a)
 and (c) of the Commercial Computer Software - Restricted
 Rights clause in FAR 52.227-19.
  
 Gaussian, Inc.
 340 Quinnipiac St., Bldg. 40, Wallingford CT 06492
  
  
 ---------------------------------------------------------------
 Warning -- This program may not be used in any manner that
 competes with the business of Gaussian, Inc. or will provide
 assistance to any competitor of Gaussian, Inc.  The licensee
 of this program is prohibited from giving any competitor of
 Gaussian, Inc. access to this program.  By using this program,
 the user acknowledges that Gaussian, Inc. is engaged in the
 business of creating and licensing software in the field of
 computational chemistry and represents and warrants to the
 licensee that it is not a competitor of Gaussian, Inc. and that
 it will not use this program in any manner prohibited above.
 ---------------------------------------------------------------
  

 Cite this work as:
 Gaussian 16, Revision C.01,
 M. J. Frisch, G. W. Trucks, H. B. Schlegel, G. E. Scuseria, 
 M. A. Robb, J. R. Cheeseman, G. Scalmani, V. Barone, 
 G. A. Petersson, H. Nakatsuji, X. Li, M. Caricato, A. V. Marenich, 
 J. Bloino, B. G. Janesko, R. Gomperts, B. Mennucci, H. P. Hratchian, 
 J. V. Ortiz, A. F. Izmaylov, J. L. Sonnenberg, D. Williams-Young, 
 F. Ding, F. Lipparini, F. Egidi, J. Goings, B. Peng, A. Petrone, 
 T. Henderson, D. Ranasinghe, V. G. Zakrzewski, J. Gao, N. Rega, 
 G. Zheng, W. Liang, M. Hada, M. Ehara, K. Toyota, R. Fukuda, 
 J. Hasegawa, M. Ishida, T. Nakajima, Y. Honda, O. Kitao, H. Nakai, 
 T. Vreven, K. Throssell, J. A. Montgomery, Jr., J. E. Peralta, 
 F. Ogliaro, M. J. Bearpark, J. J. Heyd, E. N. Brothers, K. N. Kudin, 
 V. N. Staroverov, T. A. Keith, R. Kobayashi, J. Normand, 
 K. Raghavachari, A. P. Rendell, J. C. Burant, S. S. Iyengar, 
 J. Tomasi, M. Cossi, J. M. Millam, M. Klene, C. Adamo, R. Cammi, 
 J. W. Ochterski, R. L. Martin, K. Morokuma, O. Farkas, 
 J. B. Foresman, and D. J. Fox, Gaussian, Inc., Wallingford CT, 2019.
 
 ******************************************
 Gaussian 16:  ES64L-G16RevC.01  3-Jul-2019
                12-Aug-2026 
 ******************************************
 %chk=mono_s1_planar_opt.chk
 ----------------------------------------------------------------------
 #p TD(NStates=5,Root=1) B3LYP/6-31+G(d) Opt=(CalcFC,MaxStep=3) SCRF=(S
 MD,Solvent=Methanol) Freq
 ----------------------------------------------------------------------
 1/8=3,10=4,18=20,19=15,26=3,38=1/1,3;
 2/9=110,12=2,17=6,18=5,40=1/2;
 3/5=1,6=6,7=11,11=9,25=1,30=1,70=32201,71=2,72=3,74=-5,140=1/1,2,3,8;
 4//1;
 5/5=2,38=5,53=3/2;
 8/6=1,10=2,107=1,108=5/1;
 9/8=1,15=3,41=5,42=1,70=2/14;
 10/5=2004,20=4,28=1/2;
 11/6=1,8=1,12=-1,16=1,42=3/1,2,10;
 10/6=3,21=1,28=1/2,14;
 6/7=2,8=2,9=2,10=2/1;
 7/10=1,12=6,13=8,14=1,25=1,44=2/1,2,3,16;
 1/8=3,10=4,18=20,19=15,26=3/3(2);
 2/9=110/2;
 99//99;
 2/9=110/2;
 3/5=1,6=6,7=11,11=9,25=1,30=1,70=32205,71=1,72=3,74=-5/1,2,3,8;
 4/5=5,16=3,69=1/1;
 5/5=2,38=5,53=3/2;
 8/6=1,10=2,107=1,108=5/1;
 9/8=1,15=2,41=5,42=1,49=4,70=2/14;
 10/5=4,28=1/2;
 7/12=6,13=5,14=1/1,2,3,16;
 1/8=3,18=20,19=15,26=3/3(-8);
 2/9=110/2;
 6/7=2,8=2,9=2,10=2/1;
 99/9=10/99;
 Leave Link    1 at Wed Aug 12 12:22:47 2026, MaxMem=           0 cpu:               0.0 elap:               0.9
 (Enter /opt/packages/gaussian/g16RevC.01/g16/l101.exe)
 -----------------------------
 S1 excited-state optimization
 -----------------------------
 Symbolic Z-matrix:
 Charge =  1 Multiplicity = 1
 C                    -2.49485   0.24672  -0.00076 
 C                    -1.87135  -1.02182   0.04284 
 C                    -0.49205  -1.10156   0.0332 
 C                     0.33546   0.08824  -0.03408 
 C                    -0.31954   1.35519  -0.07072 
 C                    -1.69612   1.43903  -0.05347 
 H                    -2.20355   2.39853  -0.07937 
 H                    -2.46296  -1.92962   0.08365 
 H                    -0.03582  -2.08448   0.07685 
 H                     0.26619   2.26687  -0.11637 
 O                    -3.816     0.45744   0.00177 
 C                    -4.73184  -0.65305   0.05265 
 H                    -4.57125  -1.22757   0.97143 
 H                    -4.59284  -1.29134  -0.82689 
 H                    -5.72499  -0.20516   0.0484 
 C                     1.77561   0.0226   -0.04984 
 C                     2.74931   1.16456  -0.05359 
 N                     2.45874  -1.15329  -0.03236 
 C                     3.90273  -0.97251  -0.14467 
 C                     4.09315   0.48508   0.30521 
 H                     2.4763    1.95667   0.65313 
 H                     2.78874   1.63016  -1.05248 
 H                     4.21306  -1.12259  -1.19253 
 H                     4.43054  -1.709     0.47015 
 H                     4.25105   0.51951   1.38883 
 H                     4.94941   0.95693  -0.18284 
 H                     2.02978  -2.06028  -0.19013 
 
 ITRead=  0  0  0  0  0  0  0  0  0  0  0  0  0  0  0  0  0  0  0  0
 ITRead=  0  0  0  0  0  0  0
 MicOpt= -1 -1 -1 -1 -1 -1 -1 -1 -1 -1 -1 -1 -1 -1 -1 -1 -1 -1 -1 -1
 MicOpt= -1 -1 -1 -1 -1 -1 -1
 NAtoms=     27 NQM=       27 NQMF=       0 NMMI=      0 NMMIF=      0
                NMic=       0 NMicF=      0.
                    Isotopes and Nuclear Properties:
 (Nuclear quadrupole moments (NQMom) in fm**2, nuclear magnetic moments (NMagM)
  in nuclear magnetons)

  Atom         1           2           3           4           5           6           7           8           9          10
 IAtWgt=          12          12          12          12          12          12           1           1           1           1
 AtmWgt=  12.0000000  12.0000000  12.0000000  12.0000000  12.0000000  12.0000000   1.0078250   1.0078250   1.0078250   1.0078250
 NucSpn=           0           0           0           0           0           0           1           1           1           1
 AtZEff=  -0.0000000  -0.0000000  -0.0000000  -0.0000000  -0.0000000  -0.0000000  -0.0000000  -0.0000000  -0.0000000  -0.0000000
 NQMom=    0.0000000   0.0000000   0.0000000   0.0000000   0.0000000   0.0000000   0.0000000   0.0000000   0.0000000   0.0000000
 NMagM=    0.0000000   0.0000000   0.0000000   0.0000000   0.0000000   0.0000000   2.7928460   2.7928460   2.7928460   2.7928460
 AtZNuc=   6.0000000   6.0000000   6.0000000   6.0000000   6.0000000   6.0000000   1.0000000   1.0000000   1.0000000   1.0000000

  Atom        11          12          13          14          15          16          17          18          19          20
 IAtWgt=          16          12           1           1           1          12          12          14          12          12
 AtmWgt=  15.9949146  12.0000000   1.0078250   1.0078250   1.0078250  12.0000000  12.0000000  14.0030740  12.0000000  12.0000000
 NucSpn=           0           0           1           1           1           0           0           2           0           0
 AtZEff=  -0.0000000  -0.0000000  -0.0000000  -0.0000000  -0.0000000  -0.0000000  -0.0000000  -0.0000000  -0.0000000  -0.0000000
 NQMom=    0.0000000   0.0000000   0.0000000   0.0000000   0.0000000   0.0000000   0.0000000   2.0440000   0.0000000   0.0000000
 NMagM=    0.0000000   0.0000000   2.7928460   2.7928460   2.7928460   0.0000000   0.0000000   0.4037610   0.0000000   0.0000000
 AtZNuc=   8.0000000   6.0000000   1.0000000   1.0000000   1.0000000   6.0000000   6.0000000   7.0000000   6.0000000   6.0000000

  Atom        21          22          23          24          25          26          27
 IAtWgt=           1           1           1           1           1           1           1
 AtmWgt=   1.0078250   1.0078250   1.0078250   1.0078250   1.0078250   1.0078250   1.0078250
 NucSpn=           1           1           1           1           1           1           1
 AtZEff=  -0.0000000  -0.0000000  -0.0000000  -0.0000000  -0.0000000  -0.0000000  -0.0000000
 NQMom=    0.0000000   0.0000000   0.0000000   0.0000000   0.0000000   0.0000000   0.0000000
 NMagM=    2.7928460   2.7928460   2.7928460   2.7928460   2.7928460   2.7928460   2.7928460
 AtZNuc=   1.0000000   1.0000000   1.0000000   1.0000000   1.0000000   1.0000000   1.0000000
 Leave Link  101 at Wed Aug 12 12:22:47 2026, MaxMem=   104857600 cpu:               0.1 elap:               0.1
 (Enter /opt/packages/gaussian/g16RevC.01/g16/l103.exe)

 GradGradGradGradGradGradGradGradGradGradGradGradGradGradGradGradGradGrad
 Berny optimization.
 Initialization pass.
                           ----------------------------
                           !    Initial Parameters    !
                           ! (Angstroms and Degrees)  !
 --------------------------                            --------------------------
 ! Name  Definition              Value          Derivative Info.                !
 --------------------------------------------------------------------------------
 ! R1    R(1,2)                  1.4142         calculate D2E/DX2 analytically  !
 ! R2    R(1,6)                  1.4361         calculate D2E/DX2 analytically  !
 ! R3    R(1,11)                 1.3379         calculate D2E/DX2 analytically  !
 ! R4    R(2,3)                  1.3816         calculate D2E/DX2 analytically  !
 ! R5    R(2,8)                  1.0843         calculate D2E/DX2 analytically  !
 ! R6    R(3,4)                  1.4508         calculate D2E/DX2 analytically  !
 ! R7    R(3,9)                  1.0845         calculate D2E/DX2 analytically  !
 ! R8    R(4,5)                  1.4267         calculate D2E/DX2 analytically  !
 ! R9    R(4,16)                 1.4417         calculate D2E/DX2 analytically  !
 ! R10   R(5,6)                  1.3792         calculate D2E/DX2 analytically  !
 ! R11   R(5,10)                 1.0846         calculate D2E/DX2 analytically  !
 ! R12   R(6,7)                  1.0857         calculate D2E/DX2 analytically  !
 ! R13   R(11,12)                1.4403         calculate D2E/DX2 analytically  !
 ! R14   R(12,13)                1.0955         calculate D2E/DX2 analytically  !
 ! R15   R(12,14)                1.0956         calculate D2E/DX2 analytically  !
 ! R16   R(12,15)                1.0895         calculate D2E/DX2 analytically  !
 ! R17   R(16,17)                1.5007         calculate D2E/DX2 analytically  !
 ! R18   R(16,18)                1.36           calculate D2E/DX2 analytically  !
 ! R19   R(17,20)                1.548          calculate D2E/DX2 analytically  !
 ! R20   R(17,21)                1.0961         calculate D2E/DX2 analytically  !
 ! R21   R(17,22)                1.1028         calculate D2E/DX2 analytically  !
 ! R22   R(18,19)                1.4596         calculate D2E/DX2 analytically  !
 ! R23   R(18,27)                1.0156         calculate D2E/DX2 analytically  !
 ! R24   R(19,20)                1.5373         calculate D2E/DX2 analytically  !
 ! R25   R(19,23)                1.1031         calculate D2E/DX2 analytically  !
 ! R26   R(19,24)                1.095          calculate D2E/DX2 analytically  !
 ! R27   R(20,25)                1.0956         calculate D2E/DX2 analytically  !
 ! R28   R(20,26)                1.0927         calculate D2E/DX2 analytically  !
 ! A1    A(2,1,6)              120.0441         calculate D2E/DX2 analytically  !
 ! A2    A(2,1,11)             125.2134         calculate D2E/DX2 analytically  !
 ! A3    A(6,1,11)             114.7425         calculate D2E/DX2 analytically  !
 ! A4    A(1,2,3)              119.4529         calculate D2E/DX2 analytically  !
 ! A5    A(1,2,8)              120.7703         calculate D2E/DX2 analytically  !
 ! A6    A(3,2,8)              119.7768         calculate D2E/DX2 analytically  !
 ! A7    A(2,3,4)              121.4932         calculate D2E/DX2 analytically  !
 ! A8    A(2,3,9)              118.1635         calculate D2E/DX2 analytically  !
 ! A9    A(4,3,9)              120.3433         calculate D2E/DX2 analytically  !
 ! A10   A(3,4,5)              117.8774         calculate D2E/DX2 analytically  !
 ! A11   A(3,4,16)             122.2024         calculate D2E/DX2 analytically  !
 ! A12   A(5,4,16)             119.9167         calculate D2E/DX2 analytically  !
 ! A13   A(4,5,6)              120.7884         calculate D2E/DX2 analytically  !
 ! A14   A(4,5,10)             119.9732         calculate D2E/DX2 analytically  !
 ! A15   A(6,5,10)             119.238          calculate D2E/DX2 analytically  !
 ! A16   A(1,6,5)              120.3382         calculate D2E/DX2 analytically  !
 ! A17   A(1,6,7)              118.3372         calculate D2E/DX2 analytically  !
 ! A18   A(5,6,7)              121.3246         calculate D2E/DX2 analytically  !
 ! A19   A(1,11,12)            120.4341         calculate D2E/DX2 analytically  !
 ! A20   A(11,12,13)           109.9238         calculate D2E/DX2 analytically  !
 ! A21   A(11,12,14)           109.8861         calculate D2E/DX2 analytically  !
 ! A22   A(11,12,15)           105.2206         calculate D2E/DX2 analytically  !
 ! A23   A(13,12,14)           110.4369         calculate D2E/DX2 analytically  !
 ! A24   A(13,12,15)           110.6411         calculate D2E/DX2 analytically  !
 ! A25   A(14,12,15)           110.6115         calculate D2E/DX2 analytically  !
 ! A26   A(4,16,17)            127.8423         calculate D2E/DX2 analytically  !
 ! A27   A(4,16,18)            122.7492         calculate D2E/DX2 analytically  !
 ! A28   A(17,16,18)           109.3931         calculate D2E/DX2 analytically  !
 ! A29   A(16,17,20)           103.2183         calculate D2E/DX2 analytically  !
 ! A30   A(16,17,21)           112.7486         calculate D2E/DX2 analytically  !
 ! A31   A(16,17,22)           110.2878         calculate D2E/DX2 analytically  !
 ! A32   A(20,17,21)           112.5807         calculate D2E/DX2 analytically  !
 ! A33   A(20,17,22)           111.3602         calculate D2E/DX2 analytically  !
 ! A34   A(21,17,22)           106.7271         calculate D2E/DX2 analytically  !
 ! A35   A(16,18,19)           112.8827         calculate D2E/DX2 analytically  !
 ! A36   A(16,18,27)           123.9155         calculate D2E/DX2 analytically  !
 ! A37   A(19,18,27)           121.0973         calculate D2E/DX2 analytically  !
 ! A38   A(18,19,20)           102.5601         calculate D2E/DX2 analytically  !
 ! A39   A(18,19,23)           109.5457         calculate D2E/DX2 analytically  !
 ! A40   A(18,19,24)           110.5094         calculate D2E/DX2 analytically  !
 ! A41   A(20,19,23)           111.8479         calculate D2E/DX2 analytically  !
 ! A42   A(20,19,24)           114.4381         calculate D2E/DX2 analytically  !
 ! A43   A(23,19,24)           107.8335         calculate D2E/DX2 analytically  !
 ! A44   A(17,20,19)           103.9351         calculate D2E/DX2 analytically  !
 ! A45   A(17,20,25)           109.9113         calculate D2E/DX2 analytically  !
 ! A46   A(17,20,26)           112.7801         calculate D2E/DX2 analytically  !
 ! A47   A(19,20,25)           109.7            calculate D2E/DX2 analytically  !
 ! A48   A(19,20,26)           112.0731         calculate D2E/DX2 analytically  !
 ! A49   A(25,20,26)           108.3759         calculate D2E/DX2 analytically  !
 ! D1    D(6,1,2,3)             -0.049          calculate D2E/DX2 analytically  !
 ! D2    D(6,1,2,8)            179.9498         calculate D2E/DX2 analytically  !
 ! D3    D(11,1,2,3)           179.9227         calculate D2E/DX2 analytically  !
 ! D4    D(11,1,2,8)            -0.0786         calculate D2E/DX2 analytically  !
 ! D5    D(2,1,6,5)              0.4242         calculate D2E/DX2 analytically  !
 ! D6    D(2,1,6,7)           -179.5941         calculate D2E/DX2 analytically  !
 ! D7    D(11,1,6,5)          -179.5503         calculate D2E/DX2 analytically  !
 ! D8    D(11,1,6,7)             0.4314         calculate D2E/DX2 analytically  !
 ! D9    D(2,1,11,12)            0.0452         calculate D2E/DX2 analytically  !
 ! D10   D(6,1,11,12)         -179.9818         calculate D2E/DX2 analytically  !
 ! D11   D(1,2,3,4)             -0.6173         calculate D2E/DX2 analytically  !
 ! D12   D(1,2,3,9)            179.4241         calculate D2E/DX2 analytically  !
 ! D13   D(8,2,3,4)            179.384          calculate D2E/DX2 analytically  !
 ! D14   D(8,2,3,9)             -0.5747         calculate D2E/DX2 analytically  !
 ! D15   D(2,3,4,5)              0.9009         calculate D2E/DX2 analytically  !
 ! D16   D(2,3,4,16)          -179.7739         calculate D2E/DX2 analytically  !
 ! D17   D(9,3,4,5)           -179.1414         calculate D2E/DX2 analytically  !
 ! D18   D(9,3,4,16)             0.1838         calculate D2E/DX2 analytically  !
 ! D19   D(3,4,5,6)             -0.5171         calculate D2E/DX2 analytically  !
 ! D20   D(3,4,5,10)           179.7075         calculate D2E/DX2 analytically  !
 ! D21   D(16,4,5,6)          -179.8583         calculate D2E/DX2 analytically  !
 ! D22   D(16,4,5,10)            0.3663         calculate D2E/DX2 analytically  !
 ! D23   D(3,4,16,17)         -176.9479         calculate D2E/DX2 analytically  !
 ! D24   D(3,4,16,18)            1.4682         calculate D2E/DX2 analytically  !
 ! D25   D(5,4,16,17)            2.3639         calculate D2E/DX2 analytically  !
 ! D26   D(5,4,16,18)         -179.22           calculate D2E/DX2 analytically  !
 ! D27   D(4,5,6,1)             -0.1226         calculate D2E/DX2 analytically  !
 ! D28   D(4,5,6,7)            179.8963         calculate D2E/DX2 analytically  !
 ! D29   D(10,5,6,1)           179.6544         calculate D2E/DX2 analytically  !
 ! D30   D(10,5,6,7)            -0.3267         calculate D2E/DX2 analytically  !
 ! D31   D(1,11,12,13)          60.5616         calculate D2E/DX2 analytically  !
 ! D32   D(1,11,12,14)         -61.1786         calculate D2E/DX2 analytically  !
 ! D33   D(1,11,12,15)         179.7187         calculate D2E/DX2 analytically  !
 ! D34   D(4,16,17,20)         165.5096         calculate D2E/DX2 analytically  !
 ! D35   D(4,16,17,21)          43.7609         calculate D2E/DX2 analytically  !
 ! D36   D(4,16,17,22)         -75.4309         calculate D2E/DX2 analytically  !
 ! D37   D(18,16,17,20)        -13.0781         calculate D2E/DX2 analytically  !
 ! D38   D(18,16,17,21)       -134.8268         calculate D2E/DX2 analytically  !
 ! D39   D(18,16,17,22)        105.9813         calculate D2E/DX2 analytically  !
 ! D40   D(4,16,18,19)         176.1153         calculate D2E/DX2 analytically  !
 ! D41   D(4,16,18,27)          12.5127         calculate D2E/DX2 analytically  !
 ! D42   D(17,16,18,19)         -5.2107         calculate D2E/DX2 analytically  !
 ! D43   D(17,16,18,27)       -168.8133         calculate D2E/DX2 analytically  !
 ! D44   D(16,17,20,19)         25.0188         calculate D2E/DX2 analytically  !
 ! D45   D(16,17,20,25)        -92.3215         calculate D2E/DX2 analytically  !
 ! D46   D(16,17,20,26)        146.6292         calculate D2E/DX2 analytically  !
 ! D47   D(21,17,20,19)        146.8805         calculate D2E/DX2 analytically  !
 ! D48   D(21,17,20,25)         29.5402         calculate D2E/DX2 analytically  !
 ! D49   D(21,17,20,26)        -91.5091         calculate D2E/DX2 analytically  !
 ! D50   D(22,17,20,19)        -93.2952         calculate D2E/DX2 analytically  !
 ! D51   D(22,17,20,25)        149.3645         calculate D2E/DX2 analytically  !
 ! D52   D(22,17,20,26)         28.3152         calculate D2E/DX2 analytically  !
 ! D53   D(16,18,19,20)         21.2054         calculate D2E/DX2 analytically  !
 ! D54   D(16,18,19,23)        -97.7205         calculate D2E/DX2 analytically  !
 ! D55   D(16,18,19,24)        143.6089         calculate D2E/DX2 analytically  !
 ! D56   D(27,18,19,20)       -174.6723         calculate D2E/DX2 analytically  !
 ! D57   D(27,18,19,23)         66.4018         calculate D2E/DX2 analytically  !
 ! D58   D(27,18,19,24)        -52.2688         calculate D2E/DX2 analytically  !
 ! D59   D(18,19,20,17)        -27.6702         calculate D2E/DX2 analytically  !
 ! D60   D(18,19,20,25)         89.8169         calculate D2E/DX2 analytically  !
 ! D61   D(18,19,20,26)       -149.7504         calculate D2E/DX2 analytically  !
 ! D62   D(23,19,20,17)         89.6275         calculate D2E/DX2 analytically  !
 ! D63   D(23,19,20,25)       -152.8854         calculate D2E/DX2 analytically  !
 ! D64   D(23,19,20,26)        -32.4527         calculate D2E/DX2 analytically  !
 ! D65   D(24,19,20,17)       -147.374          calculate D2E/DX2 analytically  !
 ! D66   D(24,19,20,25)        -29.887          calculate D2E/DX2 analytically  !
 ! D67   D(24,19,20,26)         90.5457         calculate D2E/DX2 analytically  !
 --------------------------------------------------------------------------------
 Trust Radius=3.00D-02 FncErr=1.00D-07 GrdErr=1.00D-06 EigMax=2.50D+02 EigMin=1.00D-04
 Number of steps in this run=    154 maximum allowed number of steps=    162.
 GradGradGradGradGradGradGradGradGradGradGradGradGradGradGradGradGradGrad

 Leave Link  103 at Wed Aug 12 12:22:48 2026, MaxMem=   104857600 cpu:               0.0 elap:               0.3
 (Enter /opt/packages/gaussian/g16RevC.01/g16/l202.exe)
                          Input orientation:                          
 ---------------------------------------------------------------------
 Center     Atomic      Atomic             Coordinates (Angstroms)
 Number     Number       Type             X           Y           Z
 ---------------------------------------------------------------------
      1          6           0       -2.494850    0.246720   -0.000760
      2          6           0       -1.871350   -1.021820    0.042840
      3          6           0       -0.492050   -1.101560    0.033200
      4          6           0        0.335460    0.088240   -0.034080
      5          6           0       -0.319540    1.355190   -0.070720
      6          6           0       -1.696120    1.439030   -0.053470
      7          1           0       -2.203550    2.398530   -0.079370
      8          1           0       -2.462960   -1.929620    0.083650
      9          1           0       -0.035820   -2.084480    0.076850
     10          1           0        0.266190    2.266870   -0.116370
     11          8           0       -3.816000    0.457440    0.001770
     12          6           0       -4.731840   -0.653050    0.052650
     13          1           0       -4.571250   -1.227570    0.971430
     14          1           0       -4.592840   -1.291340   -0.826890
     15          1           0       -5.724990   -0.205160    0.048400
     16          6           0        1.775610    0.022600   -0.049840
     17          6           0        2.749310    1.164560   -0.053590
     18          7           0        2.458740   -1.153290   -0.032360
     19          6           0        3.902730   -0.972510   -0.144670
     20          6           0        4.093150    0.485080    0.305210
     21          1           0        2.476300    1.956670    0.653130
     22          1           0        2.788740    1.630160   -1.052480
     23          1           0        4.213060   -1.122590   -1.192530
     24          1           0        4.430540   -1.709000    0.470150
     25          1           0        4.251050    0.519510    1.388830
     26          1           0        4.949410    0.956930   -0.182840
     27          1           0        2.029780   -2.060280   -0.190130
 ---------------------------------------------------------------------
                    Distance matrix (angstroms):
                    1          2          3          4          5
     1  C    0.000000
     2  C    1.414159   0.000000
     3  C    2.414585   1.381637   0.000000
     4  C    2.834939   2.471469   1.450835   0.000000
     5  C    2.442452   2.840983   2.464991   1.426720   0.000000
     6  C    1.436089   2.468960   2.812809   2.439739   1.379239
     7  H    2.172860   3.438617   3.897760   3.433084   2.153631
     8  H    2.178210   1.084329   2.138391   3.452068   3.925310
     9  H    3.389299   2.121220   1.084520   2.207004   3.454505
    10  H    3.423115   3.925545   3.455954   2.181284   1.084585
    11  O    1.337852   2.443678   3.671527   4.167999   3.610601
    12  C    2.411755   2.884179   4.263491   5.121969   4.849396
    13  H    2.725825   2.862529   4.187604   5.178630   5.082693
    14  H    2.729410   2.869770   4.194312   5.178796   5.083012
    15  H    3.261965   3.939227   5.309183   6.068108   5.627412
    16  C    4.276619   3.794696   2.532373   1.441731   2.483120
    17  C    5.324137   5.112735   3.955913   2.643013   3.074813
    18  N    5.147726   4.332738   2.951971   2.459617   3.743365
    19  C    6.514312   5.777334   4.400271   3.723283   4.821952
    20  C    6.599407   6.157503   4.859576   3.793789   4.513341
    21  H    5.297531   5.305273   4.306760   2.923437   2.949993
    22  H    5.562045   5.472583   4.405063   3.071358   3.271218
    23  H    6.949200   6.209375   4.862193   4.224204   5.286049
    24  H    7.211631   6.353631   4.979137   4.500444   5.678473
    25  H    6.892934   6.455321   5.192552   4.188378   4.870209
    26  H    7.480278   7.105572   5.821816   4.697370   5.285169
    27  H    5.082360   4.043697   2.707147   2.740659   4.147168
                    6          7          8          9         10
     6  C    0.000000
     7  H    1.085724   0.000000
     8  H    3.457549   4.338980   0.000000
     9  H    3.897269   4.982051   2.432085   0.000000
    10  H    2.130713   2.473524   5.009870   4.366096   0.000000
    11  O    2.336763   2.524759   2.745082   4.555958   4.466796
    12  C    3.688313   3.965075   2.603538   4.909397   5.790924
    13  H    4.053091   4.456320   2.392888   4.701563   6.065908
    14  H    4.055131   4.458995   2.402680   4.712987   6.064311
    15  H    4.352647   4.381332   3.689965   5.991603   6.483234
    16  C    3.749559   4.634612   4.668454   2.781567   2.705462
    17  C    4.453895   5.104328   6.063047   4.281381   2.717520
    18  N    4.897288   5.861278   4.983902   2.664934   4.063475
    19  C    6.096799   6.975301   6.441289   4.098503   4.870196
    20  C    5.878292   6.592240   6.990168   4.868591   4.242420
    21  H    4.263370   4.757393   6.310614   4.793093   2.360708
    22  H    4.598752   5.143957   6.445400   4.801258   2.764952
    23  H    6.540471   7.403398   6.844646   4.537570   5.312659
    24  H    6.907983   7.822079   6.907850   4.499338   5.787345
    25  H    6.188261   6.881002   7.264961   5.184526   4.604129
    26  H    6.664250   7.297517   7.959046   5.845522   4.863426
    27  H    5.113333   6.149336   4.502970   2.082923   4.673320
                   11         12         13         14         15
    11  O    0.000000
    12  C    1.440326   0.000000
    13  H    2.085642   1.095454   0.000000
    14  H    2.085279   1.095594   1.799580   0.000000
    15  H    2.021251   1.089482   1.796781   1.796575   0.000000
    16  C    5.608730   6.543234   6.548935   6.548847   7.504700
    17  C    6.603513   7.699519   7.769398   7.780527   8.584888
    18  N    6.478270   7.208461   7.101681   7.097543   8.238866
    19  C    7.851433   8.642730   8.550969   8.528880   9.660181
    20  C    7.915017   8.901661   8.857135   8.937770   9.845723
    21  H    6.501154   7.689506   7.740068   7.919139   8.502962
    22  H    6.790383   7.936843   8.150600   7.941900   8.778607
    23  H    8.269743   9.043350   9.047533   8.815103  10.057158
    24  H    8.539219   9.232472   9.028581   9.125686  10.274931
    25  H    8.185663   9.157106   9.003304   9.295320  10.091743
    26  H    8.781571   9.817031   9.836023   9.824666  10.739960
    27  H    6.367801   6.910770   6.753978   6.697449   7.977144
                   16         17         18         19         20
    16  C    0.000000
    17  C    1.500726   0.000000
    18  N    1.360033   2.336089   0.000000
    19  C    2.350293   2.430173   1.459590   0.000000
    20  C    2.389757   1.548010   2.338697   1.537277   0.000000
    21  H    2.173881   1.096096   3.184659   3.354293   2.213782
    22  H    2.148481   1.102778   2.982807   2.973043   2.203637
    23  H    2.925468   2.944623   2.103468   1.103104   2.200501
    24  H    3.212084   3.370191   2.109342   1.094991   2.225988
    25  H    2.905941   2.179883   2.833799   2.167734   1.095605
    26  H    3.311143   2.213652   3.267891   2.195389   1.092711
    27  H    2.103015   3.306956   1.015642   2.166391   3.313867
                   21         22         23         24         25
    21  H    0.000000
    22  H    1.764464   0.000000
    23  H    3.988062   3.102569   0.000000
    24  H    4.158085   4.020435   1.776423   0.000000
    25  H    2.399254   3.054814   3.059633   2.417115   0.000000
    26  H    2.795460   2.424460   2.426126   2.793350   1.774596
    27  H    4.128723   3.865102   2.578911   2.514561   3.752662
                   26         27
    26  H    0.000000
    27  H    4.198553   0.000000
 Stoichiometry    C11H14NO(1+)
 Framework group  C1[X(C11H14NO)]
 Deg. of freedom    75
 Full point group                 C1      NOp   1
 Largest Abelian subgroup         C1      NOp   1
 Largest concise Abelian subgroup C1      NOp   1
                         Standard orientation:                         
 ---------------------------------------------------------------------
 Center     Atomic      Atomic             Coordinates (Angstroms)
 Number     Number       Type             X           Y           Z
 ---------------------------------------------------------------------
      1          6           0       -2.494849    0.246721   -0.000761
      2          6           0       -1.871349   -1.021820    0.042839
      3          6           0       -0.492049   -1.101560    0.033199
      4          6           0        0.335461    0.088240   -0.034081
      5          6           0       -0.319539    1.355190   -0.070721
      6          6           0       -1.696119    1.439030   -0.053471
      7          1           0       -2.203548    2.398531   -0.079371
      8          1           0       -2.462959   -1.929619    0.083649
      9          1           0       -0.035819   -2.084480    0.076849
     10          1           0        0.266192    2.266870   -0.116371
     11          8           0       -3.815999    0.457441    0.001769
     12          6           0       -4.731839   -0.653049    0.052649
     13          1           0       -4.571249   -1.227569    0.971429
     14          1           0       -4.592839   -1.291339   -0.826891
     15          1           0       -5.724989   -0.205159    0.048399
     16          6           0        1.775611    0.022600   -0.049841
     17          6           0        2.749311    1.164559   -0.053591
     18          7           0        2.458741   -1.153291   -0.032361
     19          6           0        3.902731   -0.972511   -0.144671
     20          6           0        4.093151    0.485079    0.305209
     21          1           0        2.476302    1.956669    0.653129
     22          1           0        2.788741    1.630159   -1.052481
     23          1           0        4.213061   -1.122591   -1.192531
     24          1           0        4.430541   -1.709001    0.470149
     25          1           0        4.251051    0.519509    1.388829
     26          1           0        4.949411    0.956929   -0.182841
     27          1           0        2.029781   -2.060280   -0.190131
 ---------------------------------------------------------------------
 Rotational constants (GHZ):           2.8187553           0.3487876           0.3136627
 Leave Link  202 at Wed Aug 12 12:22:48 2026, MaxMem=   104857600 cpu:               0.0 elap:               0.0
 (Enter /opt/packages/gaussian/g16RevC.01/g16/l301.exe)
 Standard basis: 6-31+G(d) (6D, 7F)
 Ernie: Thresh=  0.10000D-02 Tol=  0.10000D-05 Strict=F.
 There are   275 symmetry adapted cartesian basis functions of A   symmetry.
 There are   275 symmetry adapted basis functions of A   symmetry.
   275 basis functions,   472 primitive gaussians,   275 cartesian basis functions
    47 alpha electrons       47 beta electrons
       nuclear repulsion energy       751.7670788702 Hartrees.
 IExCor=  402 DFT=T Ex+Corr=B3LYP ExCW=0 ScaHFX=  0.200000
 ScaDFX=  0.800000  0.720000  1.000000  0.810000 ScalE2=  1.000000  1.000000
 IRadAn=      5 IRanWt=     -1 IRanGd=            0 ICorTp=0 IEmpDi=  4
 NAtoms=   27 NActive=   27 NUniq=   27 SFac= 1.00D+00 NAtFMM=   60 NAOKFM=F Big=F
 Integral buffers will be    131072 words long.
 Regular integral format.
 Two-electron integral symmetry is turned on.
 Force inversion solution in PCM.
 ------------------------------------------------------------------------------
 Polarizable Continuum Model (PCM)
 =================================
 Model                : PCM.
 Atomic radii         : SMD-Coulomb.
 Polarization charges : Total charges.
 Charge compensation  : None.
 Solution method      : Matrix inversion.
 Cavity type          : VdW (van der Waals Surface) (Alpha=1.000).
 Cavity algorithm     : GePol (No added spheres)
                        Default sphere list used, NSphG=   27.
                        Lebedev-Laikov grids with approx.  5.0 points / Ang**2.
                        Smoothing algorithm: York/Karplus (Gamma=1.0000).
                        Polarization charges: spherical gaussians, with
                                              point-specific exponents (IZeta= 3).
                        Self-potential: point-specific (ISelfS= 7).
                        Self-field    : sphere-specific E.n sum rule (ISelfD= 2).
 1st derivatives      : Analytical E(r).r(x)/FMM algorithm (CHGder, D1EAlg=3).
                        Cavity 1st derivative terms included.
 2nd derivatives      : Analytical E(r).r(xy)/FMM algorithm (CHGder, D2EAlg=3).
                        Cavity 2nd derivative terms included.
 Solvent              : Methanol, Eps=  32.613000 Eps(inf)=   1.765709
 ------------------------------------------------------------------------------
 GePol: Number of generator spheres                  =      27
 GePol: Total number of spheres                      =      27
 GePol: Number of exposed spheres                    =      27 (100.00%)
 GePol: Number of points                             =    1993
 GePol: Average weight of points                     =       0.11
 GePol: Minimum weight of points                     =   0.10D-10
 GePol: Maximum weight of points                     =    0.21991
 GePol: Number of points with low weight             =     115
 GePol: Fraction of low-weight points (<1% of avg)   =       5.77%
 GePol: Cavity surface area                          =    217.139 Ang**2
 GePol: Cavity volume                                =    193.011 Ang**3
 ------------------------------------------------------------------------------
 Atomic radii for non-electrostatic terms: SMD-CDS.
 ------------------------------------------------------------------------------
 PCM non-electrostatic energy =        -0.0004037355 Hartrees.
 Nuclear repulsion after PCM non-electrostatic terms =      751.7666751348 Hartrees.
 Leave Link  301 at Wed Aug 12 12:22:48 2026, MaxMem=   104857600 cpu:               0.0 elap:               0.1
 (Enter /opt/packages/gaussian/g16RevC.01/g16/l302.exe)
 NPDir=0 NMtPBC=     1 NCelOv=     1 NCel=       1 NClECP=     1 NCelD=      1
         NCelK=      1 NCelE2=     1 NClLst=     1 CellRange=     0.0.
 One-electron integrals computed using PRISM.
 One-electron integral symmetry used in STVInt
 NBasis=   275 RedAO= T EigKep=  1.02D-06  NBF=   275
 NBsUse=   274 1.00D-06 EigRej=  4.29D-07 NBFU=   274
 Precomputing XC quadrature grid using
 IXCGrd= 4 IRadAn=           5 IRanWt=          -1 IRanGd=           0 AccXCQ= 0.00D+00.
 Generated NRdTot=       0 NPtTot=           0 NUsed=           0 NTot=          32
 NSgBfM=   274   274   274   274   274 MxSgAt=    27 MxSgA2=    27.
 Leave Link  302 at Wed Aug 12 12:22:49 2026, MaxMem=   104857600 cpu:               0.6 elap:               0.7
 (Enter /opt/packages/gaussian/g16RevC.01/g16/l303.exe)
 DipDrv:  MaxL=1.
 Leave Link  303 at Wed Aug 12 12:22:49 2026, MaxMem=   104857600 cpu:               0.0 elap:               0.1
 (Enter /opt/packages/gaussian/g16RevC.01/g16/l308.exe)
 Leave Link  308 at Wed Aug 12 12:22:49 2026, MaxMem=   104857600 cpu:               0.0 elap:               0.1
 (Enter /opt/packages/gaussian/g16RevC.01/g16/l401.exe)
 ExpMin= 4.38D-02 ExpMax= 5.48D+03 ExpMxC= 8.25D+02 IAcc=3 IRadAn=         5 AccDes= 0.00D+00
 Harris functional with IExCor=  402 and IRadAn=       5 diagonalized for initial guess.
 HarFok:  IExCor=  402 AccDes= 0.00D+00 IRadAn=         5 IDoV= 1 UseB2=F ITyADJ=14
 ICtDFT=  3500011 ScaDFX=  1.000000  1.000000  1.000000  1.000000
 FoFCou: FMM=F IPFlag=           0 FMFlag=      100000 FMFlg1=           0
         NFxFlg=           0 DoJE=T BraDBF=F KetDBF=T FulRan=T
         wScrn=  0.000000 ICntrl=       500 IOpCl=  0 I1Cent=   200000004 NGrid=           0
         NMat0=    1 NMatS0=      1 NMatT0=    0 NMatD0=    1 NMtDS0=    0 NMtDT0=    0
 Petite list used in FoFCou.
 Harris En= -557.357667458039    
 JPrj=0 DoOrth=F DoCkMO=F.
 Leave Link  401 at Wed Aug 12 12:22:55 2026, MaxMem=   104857600 cpu:               5.4 elap:               5.7
 (Enter /opt/packages/gaussian/g16RevC.01/g16/l502.exe)
 Integral symmetry usage will be decided dynamically.
 Closed shell SCF:
 Using DIIS extrapolation, IDIIS=  1040.
 NGot=   104857600 LenX=   104701058 LenY=   104624992
 Requested convergence on RMS density matrix=1.00D-08 within 128 cycles.
 Requested convergence on MAX density matrix=1.00D-06.
 Requested convergence on             energy=1.00D-06.
 No special actions if energy rises.
 Fock matrices will be formed incrementally for  20 cycles.

 Cycle   1  Pass 1  IDiag  1:
 FoFJK:  IHMeth= 1 ICntrl=       0 DoSepK=F KAlg= 0 I1Cent=           0 FoldK=F
 IRaf= 880000000 NMat=       1 IRICut=       1 DoRegI=T DoRafI=F ISym2E= 0 IDoP0=0 IntGTp=1.
 FoFCou: FMM=F IPFlag=           0 FMFlag=      100000 FMFlg1=           0
         NFxFlg=           0 DoJE=F BraDBF=F KetDBF=F FulRan=T
         wScrn=  0.000000 ICntrl=         0 IOpCl=  0 I1Cent=           0 NGrid=           0
         NMat0=    1 NMatS0=      1 NMatT0=    0 NMatD0=    1 NMtDS0=    0 NMtDT0=    0
 Symmetry not used in FoFCou.
 Inv3:  Mode=1 IEnd=    11916147.
 Iteration    1 A*A^-1 deviation from unit magnitude is 3.33D-15 for    739.
 Iteration    1 A*A^-1 deviation from orthogonality  is 2.50D-15 for    954    260.
 Iteration    1 A^-1*A deviation from unit magnitude is 3.00D-15 for    586.
 Iteration    1 A^-1*A deviation from orthogonality  is 2.60D-15 for   1719   1680.
 E= -557.230679881532    
 DIIS: error= 2.10D-02 at cycle   1 NSaved=   1.
 NSaved= 1 IEnMin= 1 EnMin= -557.230679881532     IErMin= 1 ErrMin= 2.10D-02
 ErrMax= 2.10D-02  0.00D+00 EMaxC= 1.00D-01 BMatC= 2.21D-01 BMatP= 2.21D-01
 IDIUse=3 WtCom= 7.90D-01 WtEn= 2.10D-01
 Coeff-Com:  0.100D+01
 Coeff-En:   0.100D+01
 Coeff:      0.100D+01
 Gap=     0.128 Goal=   None    Shift=    0.000
 GapD=    0.128 DampG=1.000 DampE=0.500 DampFc=0.5000 IDamp=-1.
 Damping current iteration by 5.00D-01
 RMSDP=2.47D-02 MaxDP=1.91D+00              OVMax= 1.68D-01

 Cycle   2  Pass 1  IDiag  1:
 RMSU=  8.88D-03    CP:  9.02D-01
 E= -557.335589697023     Delta-E=       -0.104909815491 Rises=F Damp=T
 DIIS: error= 5.96D-03 at cycle   2 NSaved=   2.
 NSaved= 2 IEnMin= 2 EnMin= -557.335589697023     IErMin= 2 ErrMin= 5.96D-03
 ErrMax= 5.96D-03  0.00D+00 EMaxC= 1.00D-01 BMatC= 1.53D-02 BMatP= 2.21D-01
 IDIUse=3 WtCom= 9.40D-01 WtEn= 5.96D-02
 Coeff-Com:  0.697D-02 0.993D+00
 Coeff-En:   0.220D-01 0.978D+00
 Coeff:      0.786D-02 0.992D+00
 Gap=     0.170 Goal=   None    Shift=    0.000
 RMSDP=2.07D-02 MaxDP=2.12D+00 DE=-1.05D-01 OVMax= 1.19D-01

 Cycle   3  Pass 1  IDiag  1:
 RMSU=  8.98D-03    CP:  6.88D-01  8.38D-01
 E= -557.449683308176     Delta-E=       -0.114093611152 Rises=F Damp=F
 DIIS: error= 3.30D-03 at cycle   3 NSaved=   3.
 NSaved= 3 IEnMin= 3 EnMin= -557.449683308176     IErMin= 3 ErrMin= 3.30D-03
 ErrMax= 3.30D-03  0.00D+00 EMaxC= 1.00D-01 BMatC= 5.81D-03 BMatP= 1.53D-02
 IDIUse=3 WtCom= 9.67D-01 WtEn= 3.30D-02
 Coeff-Com: -0.542D-01 0.371D+00 0.683D+00
 Coeff-En:   0.000D+00 0.000D+00 0.100D+01
 Coeff:     -0.525D-01 0.359D+00 0.693D+00
 Gap=     0.146 Goal=   None    Shift=    0.000
 RMSDP=2.07D-03 MaxDP=8.53D-02 DE=-1.14D-01 OVMax= 3.22D-02

 Cycle   4  Pass 1  IDiag  1:
 RMSU=  1.82D-03    CP:  6.99D-01  8.15D-01  9.69D-01
 E= -557.453978280994     Delta-E=       -0.004294972818 Rises=F Damp=F
 DIIS: error= 1.49D-03 at cycle   4 NSaved=   4.
 NSaved= 4 IEnMin= 4 EnMin= -557.453978280994     IErMin= 4 ErrMin= 1.49D-03
 ErrMax= 1.49D-03  0.00D+00 EMaxC= 1.00D-01 BMatC= 1.28D-03 BMatP= 5.81D-03
 IDIUse=3 WtCom= 9.85D-01 WtEn= 1.49D-02
 Coeff-Com: -0.278D-01 0.981D-01 0.363D+00 0.566D+00
 Coeff-En:   0.000D+00 0.000D+00 0.163D+00 0.837D+00
 Coeff:     -0.274D-01 0.967D-01 0.360D+00 0.570D+00
 Gap=     0.148 Goal=   None    Shift=    0.000
 RMSDP=1.41D-03 MaxDP=7.74D-02 DE=-4.29D-03 OVMax= 1.48D-02

 Cycle   5  Pass 1  IDiag  1:
 RMSU=  9.17D-04    CP:  6.92D-01  8.24D-01  9.00D-01  6.67D-01
 E= -557.455194181208     Delta-E=       -0.001215900214 Rises=F Damp=F
 DIIS: error= 3.93D-04 at cycle   5 NSaved=   5.
 NSaved= 5 IEnMin= 5 EnMin= -557.455194181208     IErMin= 5 ErrMin= 3.93D-04
 ErrMax= 3.93D-04  0.00D+00 EMaxC= 1.00D-01 BMatC= 8.93D-05 BMatP= 1.28D-03
 IDIUse=3 WtCom= 9.96D-01 WtEn= 3.93D-03
 Coeff-Com: -0.981D-02 0.235D-01 0.129D+00 0.291D+00 0.567D+00
 Coeff-En:   0.000D+00 0.000D+00 0.000D+00 0.000D+00 0.100D+01
 Coeff:     -0.977D-02 0.234D-01 0.129D+00 0.289D+00 0.568D+00
 Gap=     0.147 Goal=   None    Shift=    0.000
 RMSDP=3.76D-04 MaxDP=1.66D-02 DE=-1.22D-03 OVMax= 4.02D-03

 Cycle   6  Pass 1  IDiag  1:
 RMSU=  2.04D-04    CP:  6.93D-01  8.27D-01  9.19D-01  6.73D-01  7.44D-01
 E= -557.455267854710     Delta-E=       -0.000073673502 Rises=F Damp=F
 DIIS: error= 1.51D-04 at cycle   6 NSaved=   6.
 NSaved= 6 IEnMin= 6 EnMin= -557.455267854710     IErMin= 6 ErrMin= 1.51D-04
 ErrMax= 1.51D-04  0.00D+00 EMaxC= 1.00D-01 BMatC= 1.29D-05 BMatP= 8.93D-05
 IDIUse=3 WtCom= 9.98D-01 WtEn= 1.51D-03
 Coeff-Com: -0.408D-02 0.704D-02 0.499D-01 0.133D+00 0.347D+00 0.467D+00
 Coeff-En:   0.000D+00 0.000D+00 0.000D+00 0.000D+00 0.593D-01 0.941D+00
 Coeff:     -0.407D-02 0.703D-02 0.498D-01 0.133D+00 0.347D+00 0.468D+00
 Gap=     0.147 Goal=   None    Shift=    0.000
 RMSDP=8.86D-05 MaxDP=6.95D-03 DE=-7.37D-05 OVMax= 1.13D-03

 Cycle   7  Pass 1  IDiag  1:
 RMSU=  4.68D-05    CP:  6.93D-01  8.29D-01  9.21D-01  6.71D-01  7.07D-01
                    CP:  7.36D-01
 E= -557.455279454627     Delta-E=       -0.000011599917 Rises=F Damp=F
 DIIS: error= 2.87D-05 at cycle   7 NSaved=   7.
 NSaved= 7 IEnMin= 7 EnMin= -557.455279454627     IErMin= 7 ErrMin= 2.87D-05
 ErrMax= 2.87D-05  0.00D+00 EMaxC= 1.00D-01 BMatC= 4.68D-07 BMatP= 1.29D-05
 IDIUse=1 WtCom= 1.00D+00 WtEn= 0.00D+00
 Coeff-Com: -0.147D-02 0.216D-02 0.167D-01 0.494D-01 0.142D+00 0.231D+00
 Coeff-Com:  0.560D+00
 Coeff:     -0.147D-02 0.216D-02 0.167D-01 0.494D-01 0.142D+00 0.231D+00
 Coeff:      0.560D+00
 Gap=     0.147 Goal=   None    Shift=    0.000
 RMSDP=1.69D-05 MaxDP=1.25D-03 DE=-1.16D-05 OVMax= 2.19D-04

 Cycle   8  Pass 1  IDiag  1:
 RMSU=  1.39D-05    CP:  6.93D-01  8.28D-01  9.21D-01  6.72D-01  7.13D-01
                    CP:  7.27D-01  8.96D-01
 E= -557.455279847451     Delta-E=       -0.000000392823 Rises=F Damp=F
 DIIS: error= 9.05D-06 at cycle   8 NSaved=   8.
 NSaved= 8 IEnMin= 8 EnMin= -557.455279847451     IErMin= 8 ErrMin= 9.05D-06
 ErrMax= 9.05D-06  0.00D+00 EMaxC= 1.00D-01 BMatC= 5.17D-08 BMatP= 4.68D-07
 IDIUse=1 WtCom= 1.00D+00 WtEn= 0.00D+00
 Coeff-Com: -0.665D-04-0.114D-03-0.235D-03 0.243D-02 0.125D-01 0.311D-01
 Coeff-Com:  0.268D+00 0.687D+00
 Coeff:     -0.665D-04-0.114D-03-0.235D-03 0.243D-02 0.125D-01 0.311D-01
 Coeff:      0.268D+00 0.687D+00
 Gap=     0.147 Goal=   None    Shift=    0.000
 RMSDP=7.19D-06 MaxDP=5.04D-04 DE=-3.93D-07 OVMax= 6.27D-05

 Cycle   9  Pass 1  IDiag  1:
 RMSU=  4.02D-06    CP:  6.93D-01  8.28D-01  9.21D-01  6.73D-01  7.15D-01
                    CP:  7.36D-01  9.49D-01  9.05D-01
 E= -557.455279893865     Delta-E=       -0.000000046415 Rises=F Damp=F
 DIIS: error= 2.52D-06 at cycle   9 NSaved=   9.
 NSaved= 9 IEnMin= 9 EnMin= -557.455279893865     IErMin= 9 ErrMin= 2.52D-06
 ErrMax= 2.52D-06  0.00D+00 EMaxC= 1.00D-01 BMatC= 4.10D-09 BMatP= 5.17D-08
 IDIUse=1 WtCom= 1.00D+00 WtEn= 0.00D+00
 Coeff-Com:  0.283D-04-0.141D-03-0.872D-03-0.106D-02-0.329D-03 0.339D-02
 Coeff-Com:  0.103D+00 0.333D+00 0.564D+00
 Coeff:      0.283D-04-0.141D-03-0.872D-03-0.106D-02-0.329D-03 0.339D-02
 Coeff:      0.103D+00 0.333D+00 0.564D+00
 Gap=     0.147 Goal=   None    Shift=    0.000
 RMSDP=1.34D-06 MaxDP=4.97D-05 DE=-4.64D-08 OVMax= 2.27D-05

 Cycle  10  Pass 1  IDiag  1:
 RMSU=  1.09D-06    CP:  6.93D-01  8.28D-01  9.21D-01  6.72D-01  7.15D-01
                    CP:  7.37D-01  9.56D-01  9.19D-01  9.31D-01
 E= -557.455279897248     Delta-E=       -0.000000003383 Rises=F Damp=F
 DIIS: error= 9.31D-07 at cycle  10 NSaved=  10.
 NSaved=10 IEnMin=10 EnMin= -557.455279897248     IErMin=10 ErrMin= 9.31D-07
 ErrMax= 9.31D-07  0.00D+00 EMaxC= 1.00D-01 BMatC= 5.95D-10 BMatP= 4.10D-09
 IDIUse=1 WtCom= 1.00D+00 WtEn= 0.00D+00
 Coeff-Com:  0.268D-04-0.548D-04-0.464D-03-0.104D-02-0.223D-02-0.361D-02
 Coeff-Com:  0.124D-01 0.651D-01 0.299D+00 0.631D+00
 Coeff:      0.268D-04-0.548D-04-0.464D-03-0.104D-02-0.223D-02-0.361D-02
 Coeff:      0.124D-01 0.651D-01 0.299D+00 0.631D+00
 Gap=     0.147 Goal=   None    Shift=    0.000
 RMSDP=4.51D-07 MaxDP=1.94D-05 DE=-3.38D-09 OVMax= 9.44D-06

 Cycle  11  Pass 1  IDiag  1:
 RMSU=  2.72D-07    CP:  6.93D-01  8.28D-01  9.21D-01  6.72D-01  7.15D-01
                    CP:  7.37D-01  9.61D-01  9.23D-01  9.64D-01  7.99D-01
 E= -557.455279897800     Delta-E=       -0.000000000552 Rises=F Damp=F
 DIIS: error= 2.91D-07 at cycle  11 NSaved=  11.
 NSaved=11 IEnMin=11 EnMin= -557.455279897800     IErMin=11 ErrMin= 2.91D-07
 ErrMax= 2.91D-07  0.00D+00 EMaxC= 1.00D-01 BMatC= 3.19D-11 BMatP= 5.95D-10
 IDIUse=1 WtCom= 1.00D+00 WtEn= 0.00D+00
 Coeff-Com:  0.124D-04-0.211D-04-0.198D-03-0.484D-03-0.115D-02-0.208D-02
 Coeff-Com:  0.755D-03 0.146D-01 0.122D+00 0.309D+00 0.557D+00
 Coeff:      0.124D-04-0.211D-04-0.198D-03-0.484D-03-0.115D-02-0.208D-02
 Coeff:      0.755D-03 0.146D-01 0.122D+00 0.309D+00 0.557D+00
 Gap=     0.147 Goal=   None    Shift=    0.000
 RMSDP=1.05D-07 MaxDP=5.85D-06 DE=-5.52D-10 OVMax= 3.14D-06

 Cycle  12  Pass 1  IDiag  1:
 RMSU=  8.00D-08    CP:  6.93D-01  8.28D-01  9.21D-01  6.72D-01  7.15D-01
                    CP:  7.37D-01  9.61D-01  9.24D-01  9.64D-01  8.19D-01
                    CP:  9.85D-01
 E= -557.455279897827     Delta-E=       -0.000000000027 Rises=F Damp=F
 DIIS: error= 9.06D-08 at cycle  12 NSaved=  12.
 NSaved=12 IEnMin=12 EnMin= -557.455279897827     IErMin=12 ErrMin= 9.06D-08
 ErrMax= 9.06D-08  0.00D+00 EMaxC= 1.00D-01 BMatC= 2.95D-12 BMatP= 3.19D-11
 IDIUse=1 WtCom= 1.00D+00 WtEn= 0.00D+00
 Coeff-Com:  0.333D-06 0.118D-05-0.521D-05-0.222D-04-0.883D-04-0.239D-03
 Coeff-Com: -0.156D-02-0.482D-02 0.339D-02 0.222D-01 0.244D+00 0.737D+00
 Coeff:      0.333D-06 0.118D-05-0.521D-05-0.222D-04-0.883D-04-0.239D-03
 Coeff:     -0.156D-02-0.482D-02 0.339D-02 0.222D-01 0.244D+00 0.737D+00
 Gap=     0.147 Goal=   None    Shift=    0.000
 RMSDP=5.35D-08 MaxDP=3.89D-06 DE=-2.69D-11 OVMax= 6.71D-07

 Cycle  13  Pass 1  IDiag  1:
 RMSU=  3.06D-08    CP:  6.93D-01  8.28D-01  9.21D-01  6.72D-01  7.15D-01
                    CP:  7.37D-01  9.61D-01  9.25D-01  9.71D-01  8.31D-01
                    CP:  1.00D+00  8.77D-01
 E= -557.455279897823     Delta-E=        0.000000000004 Rises=F Damp=F
 DIIS: error= 2.46D-08 at cycle  13 NSaved=  13.
 NSaved=13 IEnMin=12 EnMin= -557.455279897827     IErMin=13 ErrMin= 2.46D-08
 ErrMax= 2.46D-08  0.00D+00 EMaxC= 1.00D-01 BMatC= 9.01D-14 BMatP= 2.95D-12
 IDIUse=1 WtCom= 1.00D+00 WtEn= 0.00D+00
 Coeff-Com: -0.280D-06 0.107D-05 0.377D-05 0.714D-05 0.244D-05-0.224D-04
 Coeff-Com: -0.566D-03-0.215D-02-0.198D-02-0.199D-02 0.659D-01 0.245D+00
 Coeff-Com:  0.696D+00
 Coeff:     -0.280D-06 0.107D-05 0.377D-05 0.714D-05 0.244D-05-0.224D-04
 Coeff:     -0.566D-03-0.215D-02-0.198D-02-0.199D-02 0.659D-01 0.245D+00
 Coeff:      0.696D+00
 Gap=     0.147 Goal=   None    Shift=    0.000
 RMSDP=8.92D-09 MaxDP=4.35D-07 DE= 4.21D-12 OVMax= 2.88D-07

 Error on total polarization charges =  0.05318
 SCF Done:  E(RB3LYP) =  -557.455279898     A.U. after   13 cycles
            NFock= 13  Conv=0.89D-08     -V/T= 2.0104
 KE= 5.517329879818D+02 PE=-2.781307356822D+03 EE= 9.203524138078D+02
 SMD-CDS (non-electrostatic) energy       (kcal/mol) =      -0.25
 (included in total energy above)
 Leave Link  502 at Wed Aug 12 12:25:52 2026, MaxMem=   104857600 cpu:             175.5 elap:             176.3
 (Enter /opt/packages/gaussian/g16RevC.01/g16/l801.exe)
 DoSCS=F DFT=T ScalE2(SS,OS)=  1.000000  1.000000
 ExpMin= 4.38D-02 ExpMax= 5.48D+03 ExpMxC= 8.25D+02 IAcc=3 IRadAn=         5 AccDes= 0.00D+00
 HarFok:  IExCor=  205 AccDes= 0.00D+00 IRadAn=         5 IDoV=-2 UseB2=F ITyADJ=14
 ICtDFT= 12500011 ScaDFX=  1.000000  1.000000  1.000000  1.000000
 Largest valence mixing into a core orbital is  5.50D-05
 Largest core mixing into a valence orbital is  1.18D-05
 Range of M.O.s used for correlation:    14   274
 NBasis=   275 NAE=    47 NBE=    47 NFC=    13 NFV=     0
 NROrb=    261 NOA=    34 NOB=    34 NVA=   227 NVB=   227

 **** Warning!!: The largest alpha MO coefficient is  0.20585450D+03

 Leave Link  801 at Wed Aug 12 12:25:52 2026, MaxMem=   104857600 cpu:               0.6 elap:               0.6
 (Enter /opt/packages/gaussian/g16RevC.01/g16/l914.exe)
 RHF ground state
 Two-electron integrals replicated using symmetry.
 MDV=   104857600 DFT=T DoStab=F Mixed=T DoRPA=T DoScal=F NonHer=T
 NEqPCM:  Using equilibrium solvation (IEInf=0, Eps=  32.6130, EpsInf=   1.7657)
 Making orbital integer symmetry assigments:
 Orbital symmetries:
       Occupied  (A) (A) (A) (A) (A) (A) (A) (A) (A) (A) (A) (A)
                 (A) (A) (A) (A) (A) (A) (A) (A) (A) (A) (A) (A)
                 (A) (A) (A) (A) (A) (A) (A) (A) (A) (A) (A) (A)
                 (A) (A) (A) (A) (A) (A) (A) (A) (A) (A) (A)
       Virtual   (A) (A) (A) (A) (A) (A) (A) (A) (A) (A) (A) (A)
                 (A) (A) (A) (A) (A) (A) (A) (A) (A) (A) (A) (A)
                 (A) (A) (A) (A) (A) (A) (A) (A) (A) (A) (A) (A)
                 (A) (A) (A) (A) (A) (A) (A) (A) (A) (A) (A) (A)
                 (A) (A) (A) (A) (A) (A) (A) (A) (A) (A) (A) (A)
                 (A) (A) (A) (A) (A) (A) (A) (A) (A) (A) (A) (A)
                 (A) (A) (A) (A) (A) (A) (A) (A) (A) (A) (A) (A)
                 (A) (A) (A) (A) (A) (A) (A) (A) (A) (A) (A) (A)
                 (A) (A) (A) (A) (A) (A) (A) (A) (A) (A) (A) (A)
                 (A) (A) (A) (A) (A) (A) (A) (A) (A) (A) (A) (A)
                 (A) (A) (A) (A) (A) (A) (A) (A) (A) (A) (A) (A)
                 (A) (A) (A) (A) (A) (A) (A) (A) (A) (A) (A) (A)
                 (A) (A) (A) (A) (A) (A) (A) (A) (A) (A) (A) (A)
                 (A) (A) (A) (A) (A) (A) (A) (A) (A) (A) (A) (A)
                 (A) (A) (A) (A) (A) (A) (A) (A) (A) (A) (A) (A)
                 (A) (A) (A) (A) (A) (A) (A) (A) (A) (A) (A) (A)
                 (A) (A) (A) (A) (A) (A) (A) (A) (A) (A) (A) (A)
                 (A) (A) (A) (A) (A) (A) (A) (A) (A) (A) (A) (A)
                 (A) (A) (A) (A) (A) (A) (A) (A) (A) (A) (A)
    20 initial guesses have been made.
 Convergence on wavefunction:    0.000001000000000
 Davidson Disk Diagonalization:  ConvIn= 1.00D-06 SkipCon=T Conv= 1.00D-06.
 Max sub-space:  2000 roots to seek:    20 dimension of matrix:        15436
 Iteration     1 Dimension    20 NMult     0 NNew     20
 CISAX will form    20 AO SS matrices at one time.
 NMat=    20 NSing=    20 JSym2X= 0.
 FoFJK:  IHMeth= 1 ICntrl=       0 DoSepK=F KAlg= 0 I1Cent=           0 FoldK=F
 IRaf= 880000000 NMat=      40 IRICut=      50 DoRegI=T DoRafI=T ISym2E= 0 IDoP0=0 IntGTp=1.
 FoFCou: FMM=F IPFlag=           0 FMFlag=      100000 FMFlg1=           0
         NFxFlg=           0 DoJE=F BraDBF=F KetDBF=F FulRan=T
         wScrn=  0.000000 ICntrl=         0 IOpCl=  0 I1Cent=           0 NGrid=           0
         NMat0=   40 NMatS0=     20 NMatT0=    0 NMatD0=   40 NMtDS0=    0 NMtDT0=    0
 Symmetry not used in FoFCou.
 Raff kept on since  88.08% of shell-pairs survive, threshold=   0.20 IRatSp=88.
 New state      3 was old state      4
 New state      4 was old state      3
 Excitation Energies [eV] at current iteration:
 Root      1 :     4.078894371325378
 Root      2 :     4.483625970173898
 Root      3 :     5.656713623962268
 Root      4 :     5.766119191340189
 Root      5 :     5.783492380647010
 Root      6 :     6.016734175564256
 Root      7 :     6.287152715356509
 Root      8 :     6.405756065989952
 Root      9 :     6.423431485919831
 Root     10 :     6.595740870544070
 Root     11 :     6.613648205315178
 Root     12 :     6.819712601734639
 Root     13 :     6.858872154247378
 Root     14 :     6.896448848761874
 Root     15 :     6.965975514019696
 Root     16 :     7.033809140753004
 Root     17 :     7.106278303022578
 Root     18 :     7.144830362193983
 Root     19 :     7.248566107233714
 Root     20 :     7.874965424889883
 Iteration     2 Dimension    30 NMult    20 NNew     10
 CISAX will form    10 AO SS matrices at one time.
 NMat=    10 NSing=    10 JSym2X= 0.
 Root      1 not converged, maximum delta is    0.045873121174741
 Root      2 not converged, maximum delta is    0.073550269644587
 New state      3 was old state      4
 Root      3 not converged, maximum delta is    0.411067914777176
 New state      4 was old state      3
 Root      4 not converged, maximum delta is    0.284685495682257
 Root      5 not converged, maximum delta is    0.303739727203504
 Excitation Energies [eV] at current iteration:
 Root      1 :     3.548132403675105   Change is   -0.530761967650274
 Root      2 :     4.239600952606849   Change is   -0.244025017567049
 Root      3 :     5.189654810482699   Change is   -0.576464380857490
 Root      4 :     5.317921077192555   Change is   -0.338792546769714
 Root      5 :     5.729362680910028   Change is   -0.054129699736982
 Iteration     3 Dimension    40 NMult    30 NNew     10
 CISAX will form    10 AO SS matrices at one time.
 NMat=    10 NSing=    10 JSym2X= 0.
 Root      1 not converged, maximum delta is    0.011156889685007
 Root      2 not converged, maximum delta is    0.007260992585036
 Root      3 not converged, maximum delta is    0.016703691545824
 Root      4 not converged, maximum delta is    0.031931495200392
 Root      5 not converged, maximum delta is    0.004768841796505
 Excitation Energies [eV] at current iteration:
 Root      1 :     3.529745075432286   Change is   -0.018387328242819
 Root      2 :     4.232465130210105   Change is   -0.007135822396743
 Root      3 :     5.170140482004642   Change is   -0.019514328478056
 Root      4 :     5.287811999768166   Change is   -0.030109077424389
 Root      5 :     5.727780066505316   Change is   -0.001582614404711
 Iteration     4 Dimension    50 NMult    40 NNew     10
 CISAX will form    10 AO SS matrices at one time.
 NMat=    10 NSing=    10 JSym2X= 0.
 Root      1 not converged, maximum delta is    0.001754551485651
 Root      2 not converged, maximum delta is    0.001147346454287
 Root      3 not converged, maximum delta is    0.002783326824881
 Root      4 not converged, maximum delta is    0.005802442773454
 Root      5 not converged, maximum delta is    0.001310807937281
 Excitation Energies [eV] at current iteration:
 Root      1 :     3.528172481419241   Change is   -0.001572594013045
 Root      2 :     4.232079286718917   Change is   -0.000385843491189
 Root      3 :     5.169106167173774   Change is   -0.001034314830869
 Root      4 :     5.284487404068452   Change is   -0.003324595699713
 Root      5 :     5.727522174219096   Change is   -0.000257892286221
 Iteration     5 Dimension    60 NMult    50 NNew     10
 CISAX will form    10 AO SS matrices at one time.
 NMat=    10 NSing=    10 JSym2X= 0.
 Root      1 not converged, maximum delta is    0.000324028614042
 Root      2 not converged, maximum delta is    0.000371159026648
 Root      3 not converged, maximum delta is    0.000576173499736
 Root      4 not converged, maximum delta is    0.000745730062601
 Root      5 not converged, maximum delta is    0.000332957599478
 Excitation Energies [eV] at current iteration:
 Root      1 :     3.528100000728134   Change is   -0.000072480691107
 Root      2 :     4.232047480414648   Change is   -0.000031806304269
 Root      3 :     5.168981743891037   Change is   -0.000124423282736
 Root      4 :     5.284181863842566   Change is   -0.000305540225886
 Root      5 :     5.727495004030771   Change is   -0.000027170188325
 Iteration     6 Dimension    70 NMult    60 NNew     10
 CISAX will form    10 AO SS matrices at one time.
 NMat=    10 NSing=    10 JSym2X= 0.
 Root      1 not converged, maximum delta is    0.000046265932110
 Root      2 not converged, maximum delta is    0.000052952055646
 Root      3 not converged, maximum delta is    0.000183259339482
 Root      4 not converged, maximum delta is    0.000332007859283
 Root      5 not converged, maximum delta is    0.000116079064662
 Excitation Energies [eV] at current iteration:
 Root      1 :     3.528096620087812   Change is   -0.000003380640322
 Root      2 :     4.232046190074604   Change is   -0.000001290340044
 Root      3 :     5.168971967191177   Change is   -0.000009776699860
 Root      4 :     5.284150276627274   Change is   -0.000031587215292
 Root      5 :     5.727492275977163   Change is   -0.000002728053608
 Iteration     7 Dimension    80 NMult    70 NNew     10
 CISAX will form    10 AO SS matrices at one time.
 NMat=    10 NSing=    10 JSym2X= 0.
 Root      1 not converged, maximum delta is    0.000011768315733
 Root      2 not converged, maximum delta is    0.000009514433200
 Root      3 not converged, maximum delta is    0.000065139739237
 Root      4 not converged, maximum delta is    0.000107461041223
 Root      5 not converged, maximum delta is    0.000042713451747
 Excitation Energies [eV] at current iteration:
 Root      1 :     3.528096443169007   Change is   -0.000000176918805
 Root      2 :     4.232046120426930   Change is   -0.000000069647674
 Root      3 :     5.168970881171247   Change is   -0.000001086019930
 Root      4 :     5.284147122879023   Change is   -0.000003153748251
 Root      5 :     5.727491948955028   Change is   -0.000000327022135
 Iteration     8 Dimension    90 NMult    80 NNew     10
 CISAX will form    10 AO SS matrices at one time.
 NMat=    10 NSing=    10 JSym2X= 0.
 Root      1 not converged, maximum delta is    0.000002346479184
 Root      2 not converged, maximum delta is    0.000003024030172
 Root      3 not converged, maximum delta is    0.000014954206895
 Root      4 not converged, maximum delta is    0.000038501315420
 Root      5 not converged, maximum delta is    0.000009574406871
 Excitation Energies [eV] at current iteration:
 Root      1 :     3.528096437144046   Change is   -0.000000006024961
 Root      2 :     4.232046116646027   Change is   -0.000000003780902
 Root      3 :     5.168970779501446   Change is   -0.000000101669800
 Root      4 :     5.284146799683191   Change is   -0.000000323195833
 Root      5 :     5.727491914860771   Change is   -0.000000034094257
 Iteration     9 Dimension   100 NMult    90 NNew     10
 CISAX will form    10 AO SS matrices at one time.
 NMat=    10 NSing=    10 JSym2X= 0.
 Root      1 has converged.
 Root      2 has converged.
 Root      3 not converged, maximum delta is    0.000006600610382
 Root      4 not converged, maximum delta is    0.000009972935113
 Root      5 not converged, maximum delta is    0.000003986768242
 Excitation Energies [eV] at current iteration:
 Root      1 :     3.528096436972341   Change is   -0.000000000171704
 Root      2 :     4.232046116426680   Change is   -0.000000000219347
 Root      3 :     5.168970768344254   Change is   -0.000000011157193
 Root      4 :     5.284146761096001   Change is   -0.000000038587189
 Root      5 :     5.727491910008188   Change is   -0.000000004852583
 Iteration    10 Dimension   106 NMult   100 NNew      6
 CISAX will form     6 AO SS matrices at one time.
 NMat=     6 NSing=     6 JSym2X= 0.
 Root      1 has converged.
 Root      2 has converged.
 Root      3 not converged, maximum delta is    0.000001979011405
 Root      4 not converged, maximum delta is    0.000002363922085
 Root      5 not converged, maximum delta is    0.000001413280430
 Excitation Energies [eV] at current iteration:
 Root      1 :     3.528096436971922   Change is   -0.000000000000419
 Root      2 :     4.232046116425942   Change is   -0.000000000000738
 Root      3 :     5.168970767202582   Change is   -0.000000001141672
 Root      4 :     5.284146757147894   Change is   -0.000000003948107
 Root      5 :     5.727491909263403   Change is   -0.000000000744785
 Iteration    11 Dimension   112 NMult   106 NNew      6
 CISAX will form     6 AO SS matrices at one time.
 NMat=     6 NSing=     6 JSym2X= 0.
 Root      1 has converged.
 Root      2 has converged.
 Root      3 has converged.
 Root      4 has converged.
 Root      5 has converged.
 Excitation Energies [eV] at current iteration:
 Root      1 :     3.528096436971968   Change is    0.000000000000046
 Root      2 :     4.232046116425417   Change is   -0.000000000000525
 Root      3 :     5.168970767094164   Change is   -0.000000000108418
 Root      4 :     5.284146756796110   Change is   -0.000000000351784
 Root      5 :     5.727491909164927   Change is   -0.000000000098476
 Convergence achieved on expansion vectors.
 ***********************************************************************
 Excited states from <AA,BB:AA,BB> singles matrix:
 ***********************************************************************
 
 1PDM for each excited state written to RWF  633
 Ground to excited state transition densities written to RWF  633
 Ground to excited state transition electric dipole moments (Au):
       state          X           Y           Z        Dip. S.      Osc.
         1         3.1812     -0.1262     -0.0630     10.1401      0.8765
         2         0.5552     -0.6417      0.0153      0.7202      0.0747
         3        -0.6806      1.3024     -0.0294      2.1604      0.2736
         4         0.1954     -0.8814     -0.0089      0.8151      0.1055
         5        -0.0610      0.0467     -0.0333      0.0070      0.0010
 Ground to excited state transition velocity dipole moments (Au):
       state          X           Y           Z        Dip. S.      Osc.
         1        -0.4009      0.0132      0.0084      0.1610      0.8277
         2        -0.0846      0.0971     -0.0024      0.0166      0.0711
         3         0.1192     -0.2434      0.0053      0.0735      0.2580
         4        -0.0414      0.1659      0.0024      0.0293      0.1004
         5         0.0130     -0.0100      0.0073      0.0003      0.0010
 Ground to excited state transition magnetic dipole moments (Au):
       state          X           Y           Z
         1         0.0102      0.0010      0.4179
         2        -0.0003     -0.0317     -0.6755
         3        -0.0105      0.0273      0.1937
         4         0.0438     -0.0333      0.1508
         5         0.1369     -0.0141      0.0035
 Ground to excited state transition velocity quadrupole moments (Au):
       state          XX          YY          ZZ          XY          XZ          YZ
         1         0.2305     -0.0860     -0.0213      0.2945      0.0405     -0.0039
         2         0.0786      0.0259     -0.0035      0.0104      0.0098     -0.0026
         3        -0.0726     -0.1450      0.0197      0.5952     -0.0434      0.0107
         4        -1.5272      0.0928      0.0132      0.7075      0.0830     -0.0644
         5         0.0744     -0.0096     -0.0026     -0.0501      0.0204      0.0387
 <0|del|b> * <b|rxdel|0> + <0|del|b> * <b|delr+rdel|0>
 Rotatory Strengths (R) in cgs (10**-40 erg-esu-cm/Gauss)
       state          XX          YY          ZZ    R(velocity)    E-M Angle
         1        14.9623     -4.0441    -13.9817     -1.0212       90.19
         2        -5.4834      4.3296     -5.2554     -2.1364       90.93
         3       -24.2514     -3.9052      2.5744     -8.5274       97.44
         4       -31.4261     -0.8546      6.8485     -8.4774      104.73
         5         0.0135      4.4892      2.0391      2.1806       38.00
 1/2[<0|r|b>*<b|rxdel|0> + (<0|rxdel|b>*<b|r|0>)*]
 Rotatory Strengths (R) in cgs (10**-40 erg-esu-cm/Gauss)
       state          XX          YY          ZZ     R(length)
         1       -23.0070      0.0876     18.6303     -1.4297
         2         0.1166    -14.3650      7.3036     -2.3149
         3        -5.0340    -25.1704      4.0215     -8.7277
         4        -6.0587    -20.7598      0.9449     -8.6246
         5         5.9028      0.4648      0.0828      2.1501
  1/2[<0|del|b>*<b|r|0> + (<0|r|b>*<b|del|0>)*] (Au)
       state          X           Y           Z        Dip. S.   Osc.(frdel)
         1        -1.2754     -0.0017     -0.0005      1.2776      0.8517
         2        -0.0470     -0.0623     -0.0000      0.1093      0.0729
         3        -0.0811     -0.3171     -0.0002      0.3984      0.2656
         4        -0.0081     -0.1463     -0.0000      0.1544      0.1029
         5        -0.0008     -0.0005     -0.0002      0.0015      0.0010

 Excitation energies and oscillator strengths:
 
 Excited State   1:      Singlet-A      3.5281 eV  351.42 nm  f=0.8765  <S**2>=0.000
      47 -> 48         0.70446
 This state for optimization and/or second-order correction.
 Total Energy, E(TD-HF/TD-DFT) =  -557.325624739    
 Copying the excited state density for this state as the 1-particle RhoCI density.
 
 Excited State   2:      Singlet-A      4.2320 eV  292.97 nm  f=0.0747  <S**2>=0.000
      46 -> 48         0.68457
      47 -> 49         0.16873
 
 Excited State   3:      Singlet-A      5.1690 eV  239.86 nm  f=0.2736  <S**2>=0.000
      46 -> 48        -0.16675
      47 -> 49         0.67436
 
 Excited State   4:      Singlet-A      5.2841 eV  234.63 nm  f=0.1055  <S**2>=0.000
      45 -> 48         0.69676
 
 Excited State   5:      Singlet-A      5.7275 eV  216.47 nm  f=0.0010  <S**2>=0.000
      41 -> 48         0.11687
      44 -> 48         0.69056
 SavETr:  write IOETrn=   770 NScale= 10 NData=  16 NLR=1 NState=    5 LETran=     100.
 The selected state is a singlet.
 CISGrd: IGrad=3 NXY=2 DFT=T
 CISAX will form     1 AO SS matrices at one time.
 NMat=     1 NSing=     1 JSym2X= 0.
 GePol: Maximum number of non-zero 1st derivatives   =     256
 GePol: Maximum number of non-zero 2nd derivatives   =     256
 Leave Link  914 at Wed Aug 12 12:44:14 2026, MaxMem=   104857600 cpu:            1089.0 elap:            1101.2
 (Enter /opt/packages/gaussian/g16RevC.01/g16/l1002.exe)
 Minotr:  Closed shell wavefunction.
          Computing CIS/TDA/TD derivatives.
          Using Z-Vector for PSCF gradient.
          Skipping F1 and S1 gradient terms here.
          IDoAtm=111111111111111111111111111
 NEqPCM:  Using equilibrium solvation (IEInf=0, Eps=  32.6130, EpsInf=   1.7657)
          Frozen-core window.
          Direct CPHF calculation.
          Differentiating once with respect to electric field.
                with respect to dipole field.
          Differentiating once with respect to nuclear coordinates.
          Requested convergence is 1.0D-10 RMS, and 1.0D-09 maximum.
          NewPWx=F KeepS1=T KeepF1=T KeepIn=T MapXYZ=F SortEE=F KeepMc=T.
 Two-electron integral symmetry used by symmetrizing perturbed Fock matrices.
          MDV=     104857600 using IRadAn=       5.
          Solving linear equations separately, MaxMat=     384.
          There are     1 degrees of freedom in the 1st order CPHF.  IDoFFX=0 NUNeed=     1.
 FoFJK:  IHMeth= 1 ICntrl=       0 DoSepK=F KAlg= 0 I1Cent=           0 FoldK=F
 IRaf= 900000000 NMat=       1 IRICut=       1 DoRegI=T DoRafI=F ISym2E=-1 IDoP0=0 IntGTp=1.
 FoFCou: FMM=F IPFlag=           0 FMFlag=      100000 FMFlg1=           0
         NFxFlg=           0 DoJE=F BraDBF=F KetDBF=F FulRan=T
         wScrn=  0.000000 ICntrl=         0 IOpCl=  0 I1Cent=           0 NGrid=           0
         NMat0=    1 NMatS0=      1 NMatT0=    0 NMatD0=    1 NMtDS0=    0 NMtDT0=    0
 Petite list used in FoFCou.
 LinEq1:  Iter=  0 NonCon=     1 RMS=9.40D-03 Max=6.27D-01 NDo=     1
 AX will form     1 AO Fock derivatives at one time.
 LinEq1:  Iter=  1 NonCon=     1 RMS=3.70D-03 Max=2.61D-01 NDo=     1
 LinEq1:  Iter=  2 NonCon=     1 RMS=2.83D-03 Max=1.35D-01 NDo=     1
 LinEq1:  Iter=  3 NonCon=     1 RMS=6.52D-04 Max=2.10D-02 NDo=     1
 LinEq1:  Iter=  4 NonCon=     1 RMS=4.28D-04 Max=1.35D-02 NDo=     1
 LinEq1:  Iter=  5 NonCon=     1 RMS=2.06D-04 Max=8.40D-03 NDo=     1
 LinEq1:  Iter=  6 NonCon=     1 RMS=9.51D-05 Max=2.48D-03 NDo=     1
 LinEq1:  Iter=  7 NonCon=     1 RMS=5.50D-05 Max=1.95D-03 NDo=     1
 LinEq1:  Iter=  8 NonCon=     1 RMS=3.36D-05 Max=9.54D-04 NDo=     1
 LinEq1:  Iter=  9 NonCon=     1 RMS=1.51D-05 Max=6.10D-04 NDo=     1
 LinEq1:  Iter= 10 NonCon=     1 RMS=1.05D-05 Max=3.60D-04 NDo=     1
 LinEq1:  Iter= 11 NonCon=     1 RMS=3.92D-06 Max=1.15D-04 NDo=     1
 LinEq1:  Iter= 12 NonCon=     1 RMS=1.86D-06 Max=3.91D-05 NDo=     1
 LinEq1:  Iter= 13 NonCon=     1 RMS=6.93D-07 Max=1.38D-05 NDo=     1
 LinEq1:  Iter= 14 NonCon=     1 RMS=4.04D-07 Max=1.11D-05 NDo=     1
 LinEq1:  Iter= 15 NonCon=     1 RMS=1.10D-07 Max=2.32D-06 NDo=     1
 LinEq1:  Iter= 16 NonCon=     1 RMS=6.49D-08 Max=2.41D-06 NDo=     1
 LinEq1:  Iter= 17 NonCon=     1 RMS=2.23D-08 Max=5.98D-07 NDo=     1
 LinEq1:  Iter= 18 NonCon=     1 RMS=1.38D-08 Max=5.72D-07 NDo=     1
 LinEq1:  Iter= 19 NonCon=     1 RMS=4.28D-09 Max=6.35D-08 NDo=     1
 LinEq1:  Iter= 20 NonCon=     1 RMS=2.73D-09 Max=8.18D-08 NDo=     1
 LinEq1:  Iter= 21 NonCon=     1 RMS=8.00D-10 Max=1.31D-08 NDo=     1
 LinEq1:  Iter= 22 NonCon=     1 RMS=2.13D-10 Max=3.73D-09 NDo=     1
 LinEq1:  Iter= 23 NonCon=     1 RMS=1.00D-10 Max=1.21D-09 NDo=     1
 LinEq1:  Iter= 24 NonCon=     0 RMS=3.23D-11 Max=7.80D-10 NDo=     1
 Linear equations converged to 1.000D-10 1.000D-09 after    24 iterations.
          There are     1 degrees of freedom in the 1st order CPHF.  IDoFFX=0 NUNeed=     1.
 End of Minotr F.D. properties file   721 does not exist.
 End of Minotr F.D. properties file   722 does not exist.
 End of Minotr F.D. properties file   788 does not exist.
 Leave Link 1002 at Wed Aug 12 12:51:05 2026, MaxMem=   104857600 cpu:             409.0 elap:             410.3
 (Enter /opt/packages/gaussian/g16RevC.01/g16/l1101.exe)
 Using compressed Sx but separate Hx and Fx, NAtomX=    27.
 Will process     28 centers per pass.
 Leave Link 1101 at Wed Aug 12 12:51:05 2026, MaxMem=   104857600 cpu:               0.2 elap:               0.2
 (Enter /opt/packages/gaussian/g16RevC.01/g16/l1102.exe)
 Use density number 6.
 Symmetrizing basis deriv contribution to polar:
 IMax=3 JMax=2 DiffMx= 0.00D+00
 Leave Link 1102 at Wed Aug 12 12:51:05 2026, MaxMem=   104857600 cpu:               0.0 elap:               0.1
 (Enter /opt/packages/gaussian/g16RevC.01/g16/l1110.exe)
 Forming Gx(P) for the SCF density, NAtomX=    27.
 Integral derivatives from FoFJK, PRISM(SPDF).
 Do as many integral derivatives as possible in FoFJK.
 G2DrvN: MDV=     104854683.
 G2DrvN: will do    28 centers at a time, making    1 passes.
 Calling FoFCou, ICntrl=  3107 FMM=F I1Cent=   0 AccDes= 0.00D+00.
 FoFJK:  IHMeth= 1 ICntrl=    3107 DoSepK=F KAlg= 0 I1Cent=           0 FoldK=F
 IRaf=         0 NMat=       1 IRICut=       1 DoRegI=T DoRafI=F ISym2E= 0 IDoP0=0 IntGTp=1.
 FoFCou: FMM=F IPFlag=           0 FMFlag=      100000 FMFlg1=           0
         NFxFlg=           0 DoJE=F BraDBF=F KetDBF=F FulRan=T
         wScrn=  0.000000 ICntrl=      3107 IOpCl=  0 I1Cent=           0 NGrid=           0
         NMat0=    1 NMatS0=      1 NMatT0=    0 NMatD0=    1 NMtDS0=    0 NMtDT0=    0
 Symmetry not used in FoFCou.
 NEqPCM:  Using equilibrium solvation (IEInf=0, Eps=  32.6130, EpsInf=   1.7657)
 G2PCM: DoFxE=T DoFxN=T DoGrad=T DoDP/DQ/DG/TGxP=FFFF NFrqRd=   0 IEInf=0 SqF1=F DoCFld=F IF1Alg=4.
 Forming Gx(P) for generalized density number  6 NAtomX=    27.
 Integral derivatives from FoFJK, PRISM(SPDF).
 Do as many integral derivatives as possible in FoFJK.
 G2DrvN: MDV=     104854683.
 G2DrvN: will do    28 centers at a time, making    1 passes.
 Calling FoFCou, ICntrl=  3107 FMM=F I1Cent=   0 AccDes= 0.00D+00.
 NEqPCM:  Using equilibrium solvation (IEInf=0, Eps=  32.6130, EpsInf=   1.7657)
 G2PCM: DoFxE=T DoFxN=F DoGrad=F DoDP/DQ/DG/TGxP=FFFF NFrqRd=   0 IEInf=0 SqF1=F DoCFld=F IF1Alg=4.
 Forming Gx(T) for CIS/TDA/TD state  1 NAtomX=    27.
 Integral derivatives from FoFJK, PRISM(SPDF).
 Do as many integral derivatives as possible in FoFJK.
 G2DrvN: MDV=     104854683.
 G2DrvN: will do    28 centers at a time, making    1 passes.
 Calling FoFCou, ICntrl=  3107 FMM=F I1Cent=   0 AccDes= 0.00D+00.
 NEqPCM:  Using equilibrium solvation (IEInf=0, Eps=  32.6130, EpsInf=   1.7657)
 G2PCM: DoFxE=T DoFxN=F DoGrad=F DoDP/DQ/DG/TGxP=FFFF NFrqRd=   0 IEInf=0 SqF1=T DoCFld=F IF1Alg=4.
 End of G2Drv F.D. properties file   721 does not exist.
 End of G2Drv F.D. properties file   722 does not exist.
 End of G2Drv F.D. properties file   788 does not exist.
 Leave Link 1110 at Wed Aug 12 13:08:27 2026, MaxMem=   104857600 cpu:            1038.2 elap:            1041.6
 (Enter /opt/packages/gaussian/g16RevC.01/g16/l1002.exe)
 Minotr:  Closed shell wavefunction.
          IDoAtm=111111111111111111111111111
 NEqPCM:  Using equilibrium solvation (IEInf=0, Eps=  32.6130, EpsInf=   1.7657)
          Frozen-core window.
          Direct CPHF calculation.
          Differentiating once with respect to electric field.
                with respect to dipole field.
          Differentiating once with respect to nuclear coordinates.
          Requested convergence is 1.0D-08 RMS, and 1.0D-07 maximum.
          Secondary convergence is 1.0D-12 RMS, and 1.0D-12 maximum.
          NewPWx=T KeepS1=T KeepF1=T KeepIn=T MapXYZ=F SortEE=F KeepMc=T.
         8348 words used for storage of precomputed grid.
 Two-electron integrals replicated using symmetry.
          MDV=     104857600 using IRadAn=       1.
          Solving linear equations simultaneously, MaxMat=     384.
 FoF2E skips out because all densities are zero.
 CalDSu exits because no D1Ps are significant.
 FoFJK:  IHMeth= 1 ICntrl=       0 DoSepK=F KAlg= 0 I1Cent=           0 FoldK=F
 IRaf= 880000000 NMat=      81 IRICut=     202 DoRegI=T DoRafI=T ISym2E= 2 IDoP0=0 IntGTp=1.
          There are    84 degrees of freedom in the 1st order CPHF.  IDoFFX=6 NUNeed=    84.
     81 vectors produced by pass  0 Test12= 1.27D-14 1.19D-09 XBig12= 3.88D+02 1.70D+01.
 AX will form    81 AO Fock derivatives at one time.
     81 vectors produced by pass  1 Test12= 1.27D-14 1.19D-09 XBig12= 5.42D+01 2.26D+00.
     81 vectors produced by pass  2 Test12= 1.27D-14 1.19D-09 XBig12= 3.20D-01 7.77D-02.
     81 vectors produced by pass  3 Test12= 1.27D-14 1.19D-09 XBig12= 7.18D-04 2.10D-03.
     81 vectors produced by pass  4 Test12= 1.27D-14 1.19D-09 XBig12= 1.71D-06 1.25D-04.
     63 vectors produced by pass  5 Test12= 1.27D-14 1.19D-09 XBig12= 2.08D-09 4.26D-06.
     11 vectors produced by pass  6 Test12= 1.27D-14 1.19D-09 XBig12= 2.16D-12 1.30D-07.
      2 vectors produced by pass  7 Test12= 1.27D-14 1.19D-09 XBig12= 2.05D-15 4.50D-09.
 InvSVY:  IOpt=1 It=  1 EMax= 1.07D-14
 Solved reduced A of dimension   481 with    84 vectors.
 FullF1:  Do perturbations      1 to      84.
 Isotropic polarizability for W=    0.000000      216.52 Bohr**3.
 Saving first derivative matrices.
 End of Minotr F.D. properties file   721 does not exist.
 End of Minotr F.D. properties file   722 does not exist.
 End of Minotr F.D. properties file   788 does not exist.
 Leave Link 1002 at Wed Aug 12 13:21:29 2026, MaxMem=   104857600 cpu:             778.3 elap:             781.5
 (Enter /opt/packages/gaussian/g16RevC.01/g16/l1014.exe)
 This link is doing    84 degrees of freedom
 Form MO integral derivatives with frozen-active canonical formalism.
 CISSec: MDV=     104844524
 Doing TD-HF/TD-DFT second derivatives, IDoFFX=6 IOneXC=4 IRadAn=         1.
 Frozen orbitals handled with amplitudes over full window.
 Frozen-core window:  NFC=  13 NFV=   0.
 Symmetry is being used.
 Would need an additional          2066200000 words for in-memory AO integral storage.
 The selected state is a singlet.
 CISGrX: IGrad=3 NXY=2 DFT=T
 CISAX will form    84 AO SS matrices at one time.
 NMat=    84 NSing=    84 JSym2X= 0.
 FoFJK:  IHMeth= 1 ICntrl=       0 DoSepK=F KAlg= 0 I1Cent=           0 FoldK=F
 IRaf= 880000000 NMat=     168 IRICut=     210 DoRegI=T DoRafI=T ISym2E= 0 IDoP0=0 IntGTp=1.
 FoFCou: FMM=F IPFlag=           0 FMFlag=      100000 FMFlg1=           0
         NFxFlg=           0 DoJE=F BraDBF=F KetDBF=F FulRan=T
         wScrn=  0.000000 ICntrl=         0 IOpCl=  0 I1Cent=           0 NGrid=           0
         NMat0=  168 NMatS0=     84 NMatT0=    0 NMatD0=  168 NMtDS0=    0 NMtDT0=    0
 Symmetry not used in FoFCou.
 Raff kept on since  90.00% of shell-pairs survive, threshold=   0.20 IRatSp=90.
     81 vectors produced by pass  0 Test12= 1.84D-14 1.19D-09 XBig12= 5.44D+02 1.37D+01.
 AX will form    81 AO Fock derivatives at one time.
     81 vectors produced by pass  1 Test12= 1.84D-14 1.19D-09 XBig12= 3.11D+04 7.40D+01.
     81 vectors produced by pass  2 Test12= 1.84D-14 1.19D-09 XBig12= 1.52D+03 7.32D+00.
     81 vectors produced by pass  3 Test12= 1.84D-14 1.19D-09 XBig12= 6.61D+00 4.01D-01.
     81 vectors produced by pass  4 Test12= 1.84D-14 1.19D-09 XBig12= 2.28D-02 1.56D-02.
     65 vectors produced by pass  5 Test12= 1.84D-14 1.19D-09 XBig12= 3.97D-05 4.75D-04.
     20 vectors produced by pass  6 Test12= 1.84D-14 1.19D-09 XBig12= 5.68D-08 1.66D-05.
      2 vectors produced by pass  7 Test12= 1.84D-14 1.19D-09 XBig12= 8.70D-11 7.75D-07.
      1 vectors produced by pass  8 Test12= 1.84D-14 1.19D-09 XBig12= 1.45D-13 3.05D-08.
      1 vectors produced by pass  9 Test12= 1.84D-14 1.19D-09 XBig12= 2.19D-16 1.34D-09.
 InvSVY:  IOpt=1 It=  1 EMax= 4.09D-14
 Solved reduced A of dimension   494 with    84 vectors.
 Tx.T = -2.75D-05 for pert.     1
 Tx.T = -5.92D-06 for pert.     2
 Tx.T =  5.80D-06 for pert.     3
 Tx.T = -3.95D-06 for pert.     9
 Tx.T =  3.80D-06 for pert.    12
 Tx.T =  1.68D-06 for pert.    49
 Tx.T = -1.45D-06 for pert.    13
 Tx.T = -1.31D-06 for pert.    15
 Tx.T =  1.08D-06 for pert.     6
 Tx.T =  9.81D-07 for pert.    51
 SavDET:  read IOETrn=   770 NScale= 10 NData=  16 NLR=1 NState=    5 NDeriv=    0 LETran=     100.
 SavDET: write IOETrn=   770 NScale= 10 NData=  16 NLR=1 NState=    5 NDeriv=   84 LETran=    1444.
 TDDxLx will form    84 C1x/S1x matrices at one time.
 Interchange theorem applied.
 D1PCM: PCM CHGder 1st derivatives, ID1Alg=3 FixD1E=F DoIter=F DoCFld=F I1PDM=6.
 Leave Link 1014 at Wed Aug 12 13:44:31 2026, MaxMem=   104857600 cpu:            1366.7 elap:            1382.0
 (Enter /opt/packages/gaussian/g16RevC.01/g16/l601.exe)
 Copying SCF densities to generalized density rwf, IOpCl= 0 IROHF=0.

 **********************************************************************

            Population analysis using the SCF Density.

 **********************************************************************

 Orbital symmetries:
       Occupied  (A) (A) (A) (A) (A) (A) (A) (A) (A) (A) (A) (A)
                 (A) (A) (A) (A) (A) (A) (A) (A) (A) (A) (A) (A)
                 (A) (A) (A) (A) (A) (A) (A) (A) (A) (A) (A) (A)
                 (A) (A) (A) (A) (A) (A) (A) (A) (A) (A) (A)
       Virtual   (A) (A) (A) (A) (A) (A) (A) (A) (A) (A) (A) (A)
                 (A) (A) (A) (A) (A) (A) (A) (A) (A) (A) (A) (A)
                 (A) (A) (A) (A) (A) (A) (A) (A) (A) (A) (A) (A)
                 (A) (A) (A) (A) (A) (A) (A) (A) (A) (A) (A) (A)
                 (A) (A) (A) (A) (A) (A) (A) (A) (A) (A) (A) (A)
                 (A) (A) (A) (A) (A) (A) (A) (A) (A) (A) (A) (A)
                 (A) (A) (A) (A) (A) (A) (A) (A) (A) (A) (A) (A)
                 (A) (A) (A) (A) (A) (A) (A) (A) (A) (A) (A) (A)
                 (A) (A) (A) (A) (A) (A) (A) (A) (A) (A) (A) (A)
                 (A) (A) (A) (A) (A) (A) (A) (A) (A) (A) (A) (A)
                 (A) (A) (A) (A) (A) (A) (A) (A) (A) (A) (A) (A)
                 (A) (A) (A) (A) (A) (A) (A) (A) (A) (A) (A) (A)
                 (A) (A) (A) (A) (A) (A) (A) (A) (A) (A) (A) (A)
                 (A) (A) (A) (A) (A) (A) (A) (A) (A) (A) (A) (A)
                 (A) (A) (A) (A) (A) (A) (A) (A) (A) (A) (A) (A)
                 (A) (A) (A) (A) (A) (A) (A) (A) (A) (A) (A) (A)
                 (A) (A) (A) (A) (A) (A) (A) (A) (A) (A) (A) (A)
                 (A) (A) (A) (A) (A) (A) (A) (A) (A) (A) (A) (A)
                 (A) (A) (A) (A) (A) (A) (A) (A) (A) (A) (A)
 The electronic state is 1-A.
 Alpha  occ. eigenvalues --  -19.21251 -14.41589 -10.30267 -10.28851 -10.24160
 Alpha  occ. eigenvalues --  -10.23585 -10.23049 -10.22988 -10.22339 -10.21391
 Alpha  occ. eigenvalues --  -10.21380 -10.21026 -10.20068  -1.09609  -0.99828
 Alpha  occ. eigenvalues --   -0.87691  -0.80551  -0.79800  -0.77614  -0.74916
 Alpha  occ. eigenvalues --   -0.70647  -0.64431  -0.63222  -0.61501  -0.60584
 Alpha  occ. eigenvalues --   -0.56472  -0.54152  -0.51201  -0.50008  -0.48154
 Alpha  occ. eigenvalues --   -0.47508  -0.45833  -0.45257  -0.43973  -0.43025
 Alpha  occ. eigenvalues --   -0.42580  -0.41307  -0.40589  -0.38999  -0.38391
 Alpha  occ. eigenvalues --   -0.37368  -0.36749  -0.34679  -0.34469  -0.31573
 Alpha  occ. eigenvalues --   -0.28246  -0.24530
 Alpha virt. eigenvalues --   -0.09786  -0.02896   0.00199   0.01048   0.01586
 Alpha virt. eigenvalues --    0.02174   0.02849   0.03070   0.03411   0.04183
 Alpha virt. eigenvalues --    0.04839   0.05123   0.05247   0.06487   0.07044
 Alpha virt. eigenvalues --    0.07415   0.07864   0.08116   0.09515   0.09906
 Alpha virt. eigenvalues --    0.10660   0.11244   0.11461   0.12136   0.12355
 Alpha virt. eigenvalues --    0.12731   0.13214   0.13541   0.13965   0.14180
 Alpha virt. eigenvalues --    0.14838   0.15059   0.15419   0.16134   0.16803
 Alpha virt. eigenvalues --    0.17312   0.17880   0.18036   0.18689   0.19454
 Alpha virt. eigenvalues --    0.19801   0.20284   0.20513   0.20827   0.21428
 Alpha virt. eigenvalues --    0.21998   0.22667   0.23122   0.23579   0.24034
 Alpha virt. eigenvalues --    0.24433   0.25043   0.25248   0.25948   0.26070
 Alpha virt. eigenvalues --    0.26805   0.27256   0.27782   0.28129   0.28846
 Alpha virt. eigenvalues --    0.29531   0.29767   0.30259   0.30869   0.30923
 Alpha virt. eigenvalues --    0.31579   0.31853   0.32871   0.33401   0.34281
 Alpha virt. eigenvalues --    0.34907   0.35602   0.36243   0.37636   0.39337
 Alpha virt. eigenvalues --    0.40370   0.42544   0.42878   0.44943   0.45354
 Alpha virt. eigenvalues --    0.46314   0.55132   0.58208   0.62613   0.65392
 Alpha virt. eigenvalues --    0.66116   0.66324   0.66848   0.67710   0.68327
 Alpha virt. eigenvalues --    0.68615   0.69326   0.69642   0.70362   0.71618
 Alpha virt. eigenvalues --    0.72010   0.72391   0.73858   0.74907   0.75127
 Alpha virt. eigenvalues --    0.75783   0.77619   0.79314   0.82645   0.83445
 Alpha virt. eigenvalues --    0.85386   0.87483   0.90072   0.91106   0.91990
 Alpha virt. eigenvalues --    0.92972   0.94403   0.95059   0.96363   0.97104
 Alpha virt. eigenvalues --    0.98345   0.98646   1.00489   1.02861   1.03852
 Alpha virt. eigenvalues --    1.04993   1.06372   1.07241   1.09013   1.09665
 Alpha virt. eigenvalues --    1.10408   1.12834   1.13471   1.14708   1.15715
 Alpha virt. eigenvalues --    1.17445   1.19831   1.21052   1.22203   1.22483
 Alpha virt. eigenvalues --    1.24385   1.28006   1.28356   1.29119   1.33198
 Alpha virt. eigenvalues --    1.33880   1.35261   1.38469   1.40821   1.41727
 Alpha virt. eigenvalues --    1.42936   1.43052   1.44383   1.47608   1.48340
 Alpha virt. eigenvalues --    1.53136   1.53549   1.55036   1.59960   1.63774
 Alpha virt. eigenvalues --    1.70540   1.72723   1.74947   1.77680   1.80674
 Alpha virt. eigenvalues --    1.81409   1.82511   1.85987   1.87142   1.88376
 Alpha virt. eigenvalues --    1.91615   1.93123   1.93362   1.96288   1.97926
 Alpha virt. eigenvalues --    1.99556   2.00993   2.02027   2.04102   2.05896
 Alpha virt. eigenvalues --    2.08277   2.09526   2.10216   2.11875   2.13604
 Alpha virt. eigenvalues --    2.17019   2.18939   2.19588   2.21561   2.22801
 Alpha virt. eigenvalues --    2.27791   2.29127   2.29402   2.30049   2.33415
 Alpha virt. eigenvalues --    2.36625   2.37057   2.41821   2.45792   2.49467
 Alpha virt. eigenvalues --    2.52341   2.53591   2.56259   2.58705   2.61114
 Alpha virt. eigenvalues --    2.62173   2.66526   2.69145   2.74314   2.75852
 Alpha virt. eigenvalues --    2.78007   2.81335   2.82752   2.87308   3.02036
 Alpha virt. eigenvalues --    3.02548   3.09633   3.22813   3.38362   4.08534
 Alpha virt. eigenvalues --    4.22221   4.24510   4.25264   4.27575   4.31488
 Alpha virt. eigenvalues --    4.35533   4.37336   4.42817   4.48753   4.56541
 Alpha virt. eigenvalues --    4.62721   4.77861
          Condensed to atoms (all electrons):
               1          2          3          4          5          6
     1  C    6.860172  -0.066202   0.374743  -1.161343  -0.058775  -0.054007
     2  C   -0.066202  14.795941  -8.723758   1.082846   0.792755  -1.178597
     3  C    0.374743  -8.723758  20.959579  -3.637067  -5.020281  -0.422428
     4  C   -1.161343   1.082846  -3.637067  10.378199  -0.858264   1.163389
     5  C   -0.058775   0.792755  -5.020281  -0.858264  14.748318  -2.594194
     6  C   -0.054007  -1.178597  -0.422428   1.163389  -2.594194  10.664990
     7  H   -0.067430   0.021157  -0.019935   0.043670  -0.075262   0.405715
     8  H   -0.034112   0.222261   0.098107   0.023176  -0.017954   0.022917
     9  H    0.004599  -0.001921   0.277493  -0.053115   0.024419  -0.027376
    10  H    0.027521  -0.028291   0.033782  -0.035906   0.304380  -0.012977
    11  O    0.411633   0.245037  -0.087556  -0.025932   0.013050  -0.565405
    12  C   -0.131904  -0.184775   0.053584  -0.016327   0.004028   0.104277
    13  H   -0.047619  -0.000167   0.042068  -0.001929   0.001519  -0.002889
    14  H   -0.056806   0.014904   0.034050   0.000658  -0.001283  -0.002378
    15  H    0.034414  -0.036109  -0.013489  -0.000185   0.000546   0.021669
    16  C    0.055463  -1.270225   1.594301  -0.673109   0.754173  -0.489232
    17  C    0.032722  -0.672520   1.111377  -0.932238  -0.923572  -0.296379
    18  N   -0.022564   0.275749  -0.232424   0.293250  -0.061504   0.032383
    19  C   -0.003361  -0.015710  -0.149364  -0.050371   0.084883  -0.038476
    20  C    0.000079   0.034514   0.136089   0.013902  -0.117647  -0.034931
    21  H   -0.000364   0.007293  -0.021621  -0.042433   0.028861   0.014573
    22  H   -0.001481   0.006451   0.014914   0.012996  -0.036056  -0.010035
    23  H   -0.000178   0.002313   0.014403  -0.015267  -0.010866  -0.000378
    24  H    0.000043  -0.001521  -0.007406   0.003992   0.002968  -0.000039
    25  H   -0.000131   0.001233   0.012608   0.002265  -0.014160  -0.000662
    26  H    0.000050  -0.000546  -0.001745   0.000820   0.002729   0.000126
    27  H    0.001558   0.061089   0.053513  -0.054368  -0.030457  -0.002036
               7          8          9         10         11         12
     1  C   -0.067430  -0.034112   0.004599   0.027521   0.411633  -0.131904
     2  C    0.021157   0.222261  -0.001921  -0.028291   0.245037  -0.184775
     3  C   -0.019935   0.098107   0.277493   0.033782  -0.087556   0.053584
     4  C    0.043670   0.023176  -0.053115  -0.035906  -0.025932  -0.016327
     5  C   -0.075262  -0.017954   0.024419   0.304380   0.013050   0.004028
     6  C    0.405715   0.022917  -0.027376  -0.012977  -0.565405   0.104277
     7  H    0.465572  -0.000097   0.000011  -0.003689  -0.003459  -0.001335
     8  H   -0.000097   0.463717  -0.004133   0.000012  -0.010826  -0.003262
     9  H    0.000011  -0.004133   0.476848  -0.000095  -0.000641   0.000628
    10  H   -0.003689   0.000012  -0.000095   0.467157  -0.000439   0.000288
    11  O   -0.003459  -0.010826  -0.000641  -0.000439   8.479708   0.068484
    12  C   -0.001335  -0.003262   0.000628   0.000288   0.068484   5.281195
    13  H    0.000002  -0.000737   0.000003   0.000000  -0.033161   0.382491
    14  H    0.000002  -0.000798   0.000002   0.000000  -0.033063   0.384517
    15  H   -0.000007   0.000111  -0.000000  -0.000000  -0.051653   0.393461
    16  C   -0.002662  -0.000351   0.042989   0.000232  -0.007171   0.000850
    17  C    0.000997   0.000076   0.017854   0.003115  -0.001211  -0.000478
    18  N    0.000086   0.000407  -0.000104   0.000139  -0.000015   0.000048
    19  C    0.000004   0.000061   0.007286   0.000928  -0.000064   0.000080
    20  C   -0.000049  -0.000004  -0.001381  -0.000871   0.000070  -0.000041
    21  H    0.000000  -0.000000   0.000001   0.000109   0.000002   0.000001
    22  H   -0.000000  -0.000000  -0.000002  -0.000664  -0.000000   0.000000
    23  H    0.000000   0.000000  -0.000004  -0.000000   0.000000  -0.000000
    24  H    0.000000   0.000000   0.000003   0.000000  -0.000000  -0.000000
    25  H    0.000000   0.000000  -0.000001  -0.000005  -0.000000  -0.000000
    26  H    0.000000   0.000000   0.000000   0.000001  -0.000000  -0.000000
    27  H    0.000000  -0.000001   0.004910  -0.000001  -0.000002   0.000025
              13         14         15         16         17         18
     1  C   -0.047619  -0.056806   0.034414   0.055463   0.032722  -0.022564
     2  C   -0.000167   0.014904  -0.036109  -1.270225  -0.672520   0.275749
     3  C    0.042068   0.034050  -0.013489   1.594301   1.111377  -0.232424
     4  C   -0.001929   0.000658  -0.000185  -0.673109  -0.932238   0.293250
     5  C    0.001519  -0.001283   0.000546   0.754173  -0.923572  -0.061504
     6  C   -0.002889  -0.002378   0.021669  -0.489232  -0.296379   0.032383
     7  H    0.000002   0.000002  -0.000007  -0.002662   0.000997   0.000086
     8  H   -0.000737  -0.000798   0.000111  -0.000351   0.000076   0.000407
     9  H    0.000003   0.000002  -0.000000   0.042989   0.017854  -0.000104
    10  H    0.000000   0.000000  -0.000000   0.000232   0.003115   0.000139
    11  O   -0.033161  -0.033063  -0.051653  -0.007171  -0.001211  -0.000015
    12  C    0.382491   0.384517   0.393461   0.000850  -0.000478   0.000048
    13  H    0.478415  -0.035607  -0.024503   0.000778   0.000032   0.000001
    14  H   -0.035607   0.478571  -0.024648   0.000499   0.000005   0.000002
    15  H   -0.024503  -0.024648   0.461416  -0.000153  -0.000005  -0.000000
    16  C    0.000778   0.000499  -0.000153   6.901571  -1.379927   0.251868
    17  C    0.000032   0.000005  -0.000005  -1.379927   9.561934  -0.413857
    18  N    0.000001   0.000002  -0.000000   0.251868  -0.413857   6.995833
    19  C   -0.000003   0.000003  -0.000000  -0.453228   0.370409   0.073749
    20  C    0.000005  -0.000005   0.000000   0.265838  -0.881163  -0.060606
    21  H    0.000000  -0.000000   0.000000  -0.076942   0.416891   0.009201
    22  H   -0.000000   0.000000   0.000000  -0.000953   0.326113   0.005222
    23  H    0.000000  -0.000000   0.000000  -0.018777   0.012283  -0.038202
    24  H   -0.000000   0.000000  -0.000000  -0.012644   0.043720  -0.039087
    25  H   -0.000000   0.000000  -0.000000   0.028357  -0.115044   0.015036
    26  H    0.000000  -0.000000   0.000000   0.024865  -0.067204   0.004502
    27  H    0.000000   0.000000  -0.000000  -0.030728  -0.013939   0.258821
              19         20         21         22         23         24
     1  C   -0.003361   0.000079  -0.000364  -0.001481  -0.000178   0.000043
     2  C   -0.015710   0.034514   0.007293   0.006451   0.002313  -0.001521
     3  C   -0.149364   0.136089  -0.021621   0.014914   0.014403  -0.007406
     4  C   -0.050371   0.013902  -0.042433   0.012996  -0.015267   0.003992
     5  C    0.084883  -0.117647   0.028861  -0.036056  -0.010866   0.002968
     6  C   -0.038476  -0.034931   0.014573  -0.010035  -0.000378  -0.000039
     7  H    0.000004  -0.000049   0.000000  -0.000000   0.000000   0.000000
     8  H    0.000061  -0.000004  -0.000000  -0.000000   0.000000   0.000000
     9  H    0.007286  -0.001381   0.000001  -0.000002  -0.000004   0.000003
    10  H    0.000928  -0.000871   0.000109  -0.000664  -0.000000   0.000000
    11  O   -0.000064   0.000070   0.000002  -0.000000   0.000000  -0.000000
    12  C    0.000080  -0.000041   0.000001   0.000000  -0.000000  -0.000000
    13  H   -0.000003   0.000005   0.000000  -0.000000   0.000000  -0.000000
    14  H    0.000003  -0.000005  -0.000000   0.000000  -0.000000   0.000000
    15  H   -0.000000   0.000000   0.000000   0.000000   0.000000  -0.000000
    16  C   -0.453228   0.265838  -0.076942  -0.000953  -0.018777  -0.012644
    17  C    0.370409  -0.881163   0.416891   0.326113   0.012283   0.043720
    18  N    0.073749  -0.060606   0.009201   0.005222  -0.038202  -0.039087
    19  C    6.092898  -0.309711   0.024021   0.006964   0.417878   0.420933
    20  C   -0.309711   6.794238  -0.040879  -0.017711  -0.054384  -0.084010
    21  H    0.024021  -0.040879   0.438380  -0.024493  -0.000212  -0.000042
    22  H    0.006964  -0.017711  -0.024493   0.432498   0.001458  -0.000164
    23  H    0.417878  -0.054384  -0.000212   0.001458   0.473653  -0.033549
    24  H    0.420933  -0.084010  -0.000042  -0.000164  -0.033549   0.466603
    25  H   -0.085067   0.474758  -0.005425   0.003105   0.003215  -0.005535
    26  H   -0.052820   0.416279   0.000957  -0.004699  -0.003378   0.001229
    27  H   -0.031982   0.020045  -0.000073  -0.000193   0.000007  -0.000877
              25         26         27
     1  C   -0.000131   0.000050   0.001558
     2  C    0.001233  -0.000546   0.061089
     3  C    0.012608  -0.001745   0.053513
     4  C    0.002265   0.000820  -0.054368
     5  C   -0.014160   0.002729  -0.030457
     6  C   -0.000662   0.000126  -0.002036
     7  H    0.000000   0.000000   0.000000
     8  H    0.000000   0.000000  -0.000001
     9  H   -0.000001   0.000000   0.004910
    10  H   -0.000005   0.000001  -0.000001
    11  O   -0.000000  -0.000000  -0.000002
    12  C   -0.000000  -0.000000   0.000025
    13  H   -0.000000   0.000000   0.000000
    14  H    0.000000  -0.000000   0.000000
    15  H   -0.000000   0.000000  -0.000000
    16  C    0.028357   0.024865  -0.030728
    17  C   -0.115044  -0.067204  -0.013939
    18  N    0.015036   0.004502   0.258821
    19  C   -0.085067  -0.052820  -0.031982
    20  C    0.474758   0.416279   0.020045
    21  H   -0.005425   0.000957  -0.000073
    22  H    0.003105  -0.004699  -0.000193
    23  H    0.003215  -0.003378   0.000007
    24  H   -0.005535   0.001229  -0.000877
    25  H    0.463936  -0.025293  -0.000169
    26  H   -0.025293   0.462127  -0.000083
    27  H   -0.000169  -0.000083   0.281322
 Mulliken charges:
               1
     1  C   -0.096720
     2  C    0.616800
     3  C   -0.473534
     4  C    0.538691
     5  C   -0.942356
     6  C   -0.697620
     7  H    0.236710
     8  H    0.241431
     9  H    0.231726
    10  H    0.245274
    11  O   -0.397384
    12  C   -0.335835
    13  H    0.241299
    14  H    0.241372
    15  H    0.239136
    16  C    0.494317
    17  C   -0.199989
    18  N   -0.347933
    19  C   -0.309939
    20  C   -0.552424
    21  H    0.272195
    22  H    0.286730
    23  H    0.249988
    24  H    0.245383
    25  H    0.246977
    26  H    0.242083
    27  H    0.483620
 Sum of Mulliken charges =   1.00000
 Mulliken charges with hydrogens summed into heavy atoms:
               1
     1  C   -0.096720
     2  C    0.858231
     3  C   -0.241808
     4  C    0.538691
     5  C   -0.697082
     6  C   -0.460909
    11  O   -0.397384
    12  C    0.385973
    16  C    0.494317
    17  C    0.358936
    18  N    0.135687
    19  C    0.185432
    20  C   -0.063363
 APT charges:
               1
     1  C    0.277789
     2  C    0.150757
     3  C   -0.500190
     4  C    1.314596
     5  C   -0.972342
     6  C    0.585614
     7  H    0.105660
     8  H    0.121656
     9  H    0.081403
    10  H    0.101894
    11  O   -0.862311
    12  C    0.600931
    13  H   -0.020705
    14  H   -0.019979
    15  H    0.021788
    16  C   -0.256844
    17  C    0.128800
    18  N   -0.385578
    19  C    0.152907
    20  C    0.106213
    21  H    0.006494
    22  H   -0.040720
    23  H   -0.018017
    24  H    0.030365
    25  H   -0.014760
    26  H   -0.012180
    27  H    0.316759
 Sum of APT charges =   1.00000
 APT charges with hydrogens summed into heavy atoms:
               1
     1  C    0.277789
     2  C    0.272413
     3  C   -0.418787
     4  C    1.314596
     5  C   -0.870448
     6  C    0.691274
    11  O   -0.862311
    12  C    0.582035
    16  C   -0.256844
    17  C    0.094574
    18  N   -0.068820
    19  C    0.165255
    20  C    0.079273
 Electronic spatial extent (au):  <R**2>=           3417.1328
 Charge=              1.0000 electrons
 Dipole moment (field-independent basis, Debye):
    X=              5.3027    Y=             -3.4163    Z=             -0.5179  Tot=              6.3292
 Quadrupole moment (field-independent basis, Debye-Ang):
   XX=            -23.9087   YY=            -58.5666   ZZ=            -77.7995
   XY=              4.7367   XZ=             -2.1299   YZ=              0.2461
 Traceless Quadrupole moment (field-independent basis, Debye-Ang):
   XX=             29.5162   YY=             -5.1417   ZZ=            -24.3745
   XY=              4.7367   XZ=             -2.1299   YZ=              0.2461
 Octapole moment (field-independent basis, Debye-Ang**2):
  XXX=              6.5204  YYY=            -12.4689  ZZZ=             -0.4798  XYY=             13.0020
  XXY=            -48.4308  XXZ=             -2.7170  XZZ=              5.9820  YZZ=             -1.3025
  YYZ=             -1.7026  XYZ=              1.5512
 Hexadecapole moment (field-independent basis, Debye-Ang**3):
 XXXX=          -2834.8923 YYYY=           -471.2429 ZZZZ=           -117.4790 XXXY=            101.2603
 XXXZ=            -27.6367 YYYX=            -30.3093 YYYZ=              0.5190 ZZZX=             -3.2121
 ZZZY=              1.2843 XXYY=           -643.3195 XXZZ=           -643.5418 YYZZ=           -115.7275
 XXYZ=             -2.4388 YYXZ=             -3.5727 ZZXY=              4.7251
 N-N= 7.517666751348D+02 E-N=-2.781307356234D+03  KE= 5.517329879818D+02
  Exact polarizability:     372.768     -26.365     207.935      -5.066      -2.062     122.247
 Approx polarizability:     342.231     -25.919     211.953      -3.114      -3.079     123.749
 No NMR shielding tensors so no spin-rotation constants.
 Leave Link  601 at Wed Aug 12 13:44:31 2026, MaxMem=   104857600 cpu:               0.1 elap:               0.3
 (Enter /opt/packages/gaussian/g16RevC.01/g16/l701.exe)
 ... and contract with generalized density number  6.
 Compute integral second derivatives.
 D2PCM: PCM CHGder 2nd derivatives, FixD1E=F FixD2E=F DoIter=F DoCFld=F I1PDM=6
 Compute integral first derivatives.
 D1PCM: PCM CHGder 1st derivatives, ID1Alg=3 FixD1E=F DoIter=F DoCFld=F I1PDM=6.
 Leave Link  701 at Wed Aug 12 13:45:32 2026, MaxMem=   104857600 cpu:              59.9 elap:              60.2
 (Enter /opt/packages/gaussian/g16RevC.01/g16/l702.exe)
 L702 exits ... SP integral derivatives will be done elsewhere.
 Leave Link  702 at Wed Aug 12 13:45:32 2026, MaxMem=   104857600 cpu:               0.0 elap:               0.0
 (Enter /opt/packages/gaussian/g16RevC.01/g16/l703.exe)
 Integral derivatives from FoFJK, PRISM(SPDF).
 Compute integral second derivatives, UseDBF=F ICtDFT=           0.
 Calling FoFJK, ICntrl=  10105127 FMM=F ISym2X=0 I1Cent= 0 IOpClX= 0 NMat=1 NMatS=1 NMatT=0.
 FoFJK:  IHMeth= 1 ICntrl=10105127 DoSepK=F KAlg= 0 I1Cent=           0 FoldK=F
 IRaf=         0 NMat=       1 IRICut=       1 DoRegI=T DoRafI=F ISym2E= 0 IDoP0=0 IntGTp=1.
 FoFCou: FMM=F IPFlag=           0 FMFlag=      100000 FMFlg1=         800
         NFxFlg=           0 DoJE=F BraDBF=F KetDBF=F FulRan=T
         wScrn=  0.000000 ICntrl=  10105127 IOpCl=  0 I1Cent=           0 NGrid=           0
         NMat0=    1 NMatS0=      1 NMatT0=    0 NMatD0=    1 NMtDS0=    0 NMtDT0=    0
 Symmetry not used in FoFCou.
 Compute integral first derivatives, UseDBF=F ICtDFT=           0.
 Calling FoFJK, ICntrl=  10002127 FMM=F ISym2X=0 I1Cent= 0 IOpClX= 0 NMat=1 NMatS=1 NMatT=0.
 Leave Link  703 at Wed Aug 12 14:03:53 2026, MaxMem=   104857600 cpu:            1099.1 elap:            1101.3
 (Enter /opt/packages/gaussian/g16RevC.01/g16/l716.exe)
 Dipole        = 6.05103471D-02-1.11660539D+00-1.92040525D-01
 Polarizability= 3.72767708D+02-2.63650990D+01 2.07935240D+02
                -5.06649343D+00-2.06179468D+00 1.22246928D+02
 ***** Axes restored to original set *****
 -------------------------------------------------------------------
 Center     Atomic                   Forces (Hartrees/Bohr)
 Number     Number              X              Y              Z
 -------------------------------------------------------------------
      1        6          -0.000000576    0.000003003   -0.000006912
      2        6           0.000000700    0.000011551    0.000011071
      3        6          -0.000010856    0.000002375    0.000014751
      4        6           0.000024084    0.000023842    0.000991343
      5        6          -0.000014179   -0.000020107   -0.001067202
      6        6           0.000015227   -0.000006101   -0.000012834
      7        1           0.000003046    0.000010221   -0.000015042
      8        1          -0.000001756    0.000006397    0.000011761
      9        1          -0.000005500    0.000002416    0.000009807
     10        1           0.000003015   -0.000005061   -0.000013973
     11        8          -0.000001701    0.000006935   -0.000001915
     12        6           0.000002234    0.000014141    0.000002689
     13        1          -0.000003911    0.000013727    0.000009023
     14        1          -0.000001804    0.000005377    0.000007648
     15        1          -0.000000942    0.000013083    0.000002112
     16        6           0.000011015    0.000016477    0.001209696
     17        6          -0.000001362   -0.000010276   -0.000003070
     18        7          -0.000022520   -0.000023444   -0.001142241
     19        6           0.000003586    0.000002270    0.000001873
     20        6           0.000004764   -0.000016483   -0.000002802
     21        1           0.000002871   -0.000000644   -0.000014548
     22        1           0.000006275   -0.000013784   -0.000011830
     23        1          -0.000004269   -0.000017704    0.000008678
     24        1          -0.000002208   -0.000005717    0.000012143
     25        1           0.000001778   -0.000000160   -0.000004772
     26        1           0.000000328   -0.000008987   -0.000006752
     27        1          -0.000007339   -0.000003346    0.000011295
 -------------------------------------------------------------------
 Cartesian Forces:  Max     0.001209696 RMS     0.000245898
 -------------------------------------------------------------------
 Center     Atomic                Nonadiabatic Coup. (Bohr^-1)
 Number     Number              X              Y              Z
 -------------------------------------------------------------------
      1        6          -0.262882170    0.056383467   -0.002088823
      2        6           0.155505049   -0.162309108    0.005311212
      3        6          -0.167971716   -0.034239796   -0.000540310
      4        6           0.526114441    0.042458343   -0.000934760
      5        6          -0.177114342    0.065263072    0.004144043
      6        6           0.222422935    0.168202089   -0.008850855
      7        1          -0.005442120   -0.007393130    0.000366569
      8        1          -0.000474252    0.005421053    0.000360297
      9        1          -0.009211608    0.001993075   -0.001558551
     10        1          -0.005799041   -0.000556640    0.000611852
     11        8           0.351083100   -0.048370794   -0.000859724
     12        6          -0.064232614   -0.051055817    0.002304127
     13        1           0.005095399    0.017284583   -0.009158245
     14        1           0.004963519    0.018462980    0.007800881
     15        1           0.009484430    0.004758558   -0.000179518
     16        6          -0.408755444    0.155911359   -0.018902387
     17        6          -0.001562085    0.031359424   -0.027822338
     18        7           0.148383959   -0.324478353    0.093439048
     19        6          -0.022141447   -0.021091828   -0.042626086
     20        6           0.005438450   -0.000841295    0.001648785
     21        1           0.006191872    0.004445125    0.003296471
     22        1           0.014734103    0.006680035    0.003333374
     23        1           0.031968243    0.015412014   -0.005578525
     24        1           0.016575967    0.005630087    0.003754721
     25        1           0.000495135    0.002537736    0.004143596
     26        1           0.005154580    0.005006955    0.001440980
     27        1           0.022879089    0.029901877   -0.021290758
 -------------------------------------------------------------------
 Cartesian Nonad. Coup.:  Max     0.526114441 RMS     0.111890214
 FormGI is forming the generalized inverse of G from B-inverse, IUseBI=4.
 GSVD:  received Info=                   1 from GESDD.
 Leave Link  716 at Wed Aug 12 14:03:53 2026, MaxMem=   104857600 cpu:               0.0 elap:               0.1
 (Enter /opt/packages/gaussian/g16RevC.01/g16/l103.exe)

 GradGradGradGradGradGradGradGradGradGradGradGradGradGradGradGradGradGrad
 Berny optimization.
 Red2BG is reusing G-inverse.
 Internal  Forces:  Max     0.001013031 RMS     0.000132238
 Search for a local minimum.
 Step number   1 out of a maximum of  154
 All quantities printed in internal units (Hartrees-Bohrs-Radians)
 RMS Force = .13224D-03 SwitMx=.10000D-02 MixMth= 2
 Mixed Optimization -- En-DIIS/RFO-DIIS
 Second derivative matrix not updated -- analytic derivatives used.
 ITU=  0
     Eigenvalues ---    0.00205   0.00274   0.00463   0.00520   0.00574
     Eigenvalues ---    0.00647   0.00880   0.01343   0.01594   0.01709
     Eigenvalues ---    0.01812   0.01900   0.02240   0.02344   0.02534
     Eigenvalues ---    0.02632   0.02823   0.03126   0.04158   0.04428
     Eigenvalues ---    0.04538   0.05740   0.05930   0.06845   0.07188
     Eigenvalues ---    0.07684   0.08331   0.08498   0.09020   0.09543
     Eigenvalues ---    0.10900   0.11073   0.11787   0.11988   0.12796
     Eigenvalues ---    0.13268   0.15985   0.18033   0.18240   0.18741
     Eigenvalues ---    0.19240   0.19407   0.19907   0.20498   0.23321
     Eigenvalues ---    0.23507   0.23995   0.25067   0.27975   0.28352
     Eigenvalues ---    0.29923   0.30340   0.31966   0.32652   0.32779
     Eigenvalues ---    0.33702   0.33948   0.33966   0.34484   0.34710
     Eigenvalues ---    0.34966   0.35125   0.36030   0.36524   0.36597
     Eigenvalues ---    0.36875   0.37291   0.38033   0.38227   0.39236
     Eigenvalues ---    0.41833   0.45808   0.48270   0.50378   0.54160
 RFO step:  Lambda=-2.99007078D-04 EMin= 2.04837955D-03
 Linear search not attempted -- first point.
 Iteration  1 RMS(Cart)=  0.05337973 RMS(Int)=  0.00089450
 Iteration  2 RMS(Cart)=  0.00163112 RMS(Int)=  0.00003718
 Iteration  3 RMS(Cart)=  0.00000118 RMS(Int)=  0.00003718
 Iteration  4 RMS(Cart)=  0.00000000 RMS(Int)=  0.00003718
 ITry= 1 IFail=0 DXMaxC= 2.13D-01 DCOld= 1.00D+10 DXMaxT= 3.00D-02 DXLimC= 3.00D+00 Rises=F
 Variable       Old X    -DE/DX   Delta X   Delta X   Delta X     New X
                                 (Linear)    (Quad)   (Total)
    R1        2.67237  -0.00000   0.00000   0.00080   0.00080   2.67317
    R2        2.71381   0.00000   0.00000  -0.00026  -0.00026   2.71355
    R3        2.52817   0.00000   0.00000   0.00015   0.00015   2.52832
    R4        2.61091  -0.00001   0.00000  -0.00005  -0.00005   2.61087
    R5        2.04908  -0.00000   0.00000  -0.00001  -0.00001   2.04907
    R6        2.74168  -0.00000   0.00000  -0.00158  -0.00158   2.74010
    R7        2.04945  -0.00000   0.00000   0.00004   0.00004   2.04948
    R8        2.69611   0.00001   0.00000   0.00021   0.00021   2.69632
    R9        2.72448  -0.00001   0.00000  -0.00155  -0.00155   2.72293
   R10        2.60638  -0.00001   0.00000  -0.00051  -0.00051   2.60587
   R11        2.04957  -0.00000   0.00000   0.00018   0.00018   2.04975
   R12        2.05172   0.00001   0.00000   0.00004   0.00004   2.05176
   R13        2.72182  -0.00000   0.00000   0.00017   0.00017   2.72199
   R14        2.07011   0.00000   0.00000  -0.00011  -0.00011   2.07000
   R15        2.07037   0.00000   0.00000   0.00006   0.00006   2.07044
   R16        2.05882   0.00000   0.00000   0.00000   0.00000   2.05883
   R17        2.83596  -0.00000   0.00000  -0.00079  -0.00075   2.83521
   R18        2.57009  -0.00002   0.00000  -0.00033  -0.00029   2.56980
   R19        2.92532   0.00001   0.00000  -0.00047  -0.00049   2.92483
   R20        2.07132  -0.00000   0.00000   0.00028   0.00028   2.07160
   R21        2.08395   0.00000   0.00000   0.00060   0.00060   2.08454
   R22        2.75822  -0.00001   0.00000   0.00033   0.00033   2.75855
   R23        1.91929  -0.00000   0.00000   0.00007   0.00007   1.91935
   R24        2.90503   0.00000   0.00000   0.00027   0.00023   2.90526
   R25        2.08457  -0.00000   0.00000  -0.00013  -0.00013   2.08443
   R26        2.06923   0.00000   0.00000   0.00015   0.00015   2.06938
   R27        2.07039  -0.00000   0.00000   0.00001   0.00001   2.07040
   R28        2.06492  -0.00000   0.00000   0.00003   0.00003   2.06496
    A1        2.09516  -0.00000   0.00000   0.00074   0.00071   2.09588
    A2        2.18539  -0.00000   0.00000  -0.00072  -0.00071   2.18467
    A3        2.00263   0.00000   0.00000  -0.00001  -0.00000   2.00263
    A4        2.08485   0.00000   0.00000  -0.00018  -0.00020   2.08465
    A5        2.10784   0.00000   0.00000  -0.00016  -0.00015   2.10769
    A6        2.09050  -0.00000   0.00000   0.00034   0.00034   2.09084
    A7        2.12046  -0.00000   0.00000  -0.00109  -0.00110   2.11935
    A8        2.06234  -0.00000   0.00000   0.00289   0.00289   2.06523
    A9        2.10039   0.00000   0.00000  -0.00180  -0.00179   2.09860
   A10        2.05735   0.00000   0.00000   0.00197   0.00189   2.05924
   A11        2.13283   0.00001   0.00000  -0.00009  -0.00014   2.13269
   A12        2.09294  -0.00001   0.00000  -0.00167  -0.00172   2.09122
   A13        2.10816  -0.00000   0.00000  -0.00076  -0.00079   2.10736
   A14        2.09393   0.00000   0.00000  -0.00104  -0.00103   2.09290
   A15        2.08110   0.00000   0.00000   0.00182   0.00183   2.08292
   A16        2.10030   0.00000   0.00000  -0.00050  -0.00053   2.09977
   A17        2.06537  -0.00000   0.00000  -0.00007  -0.00006   2.06531
   A18        2.11751  -0.00000   0.00000   0.00057   0.00059   2.11810
   A19        2.10197  -0.00000   0.00000   0.00081   0.00081   2.10278
   A20        1.91853   0.00000   0.00000   0.00022   0.00022   1.91875
   A21        1.91787  -0.00000   0.00000   0.00008   0.00008   1.91795
   A22        1.83645   0.00000   0.00000  -0.00014  -0.00014   1.83631
   A23        1.92749  -0.00000   0.00000  -0.00011  -0.00011   1.92738
   A24        1.93105  -0.00000   0.00000   0.00039   0.00039   1.93145
   A25        1.93054   0.00000   0.00000  -0.00044  -0.00044   1.93009
   A26        2.23127   0.00000   0.00000  -0.00124  -0.00151   2.22976
   A27        2.14238   0.00000   0.00000   0.00115   0.00088   2.14326
   A28        1.90927   0.00001   0.00000   0.00093   0.00081   1.91008
   A29        1.80150  -0.00001   0.00000  -0.00200  -0.00196   1.79954
   A30        1.96783  -0.00004   0.00000  -0.00150  -0.00151   1.96632
   A31        1.92488   0.00004   0.00000   0.00060   0.00059   1.92547
   A32        1.96490   0.00003   0.00000   0.00376   0.00374   1.96864
   A33        1.94360  -0.00003   0.00000  -0.00106  -0.00106   1.94254
   A34        1.86274  -0.00000   0.00000   0.00012   0.00013   1.86287
   A35        1.97017  -0.00000   0.00000  -0.00149  -0.00143   1.96874
   A36        2.16273   0.00002   0.00000   0.00038   0.00035   2.16308
   A37        2.11355  -0.00001   0.00000   0.00097   0.00094   2.11449
   A38        1.79001   0.00002   0.00000  -0.00060  -0.00062   1.78939
   A39        1.91193  -0.00001   0.00000   0.00052   0.00052   1.91245
   A40        1.92875  -0.00001   0.00000   0.00010   0.00011   1.92887
   A41        1.95211  -0.00005   0.00000  -0.00036  -0.00035   1.95176
   A42        1.99732   0.00003   0.00000   0.00059   0.00060   1.99792
   A43        1.88205   0.00000   0.00000  -0.00023  -0.00023   1.88182
   A44        1.81401  -0.00003   0.00000  -0.00142  -0.00145   1.81256
   A45        1.91831   0.00001   0.00000   0.00052   0.00053   1.91884
   A46        1.96838   0.00001   0.00000   0.00030   0.00031   1.96870
   A47        1.91463   0.00004   0.00000   0.00008   0.00009   1.91471
   A48        1.95604  -0.00002   0.00000  -0.00012  -0.00012   1.95593
   A49        1.89152  -0.00001   0.00000   0.00059   0.00059   1.89211
    D1       -0.00085   0.00003   0.00000   0.00956   0.00956   0.00870
    D2        3.14072   0.00006   0.00000   0.01228   0.01228  -3.13019
    D3        3.14024  -0.00001   0.00000   0.00724   0.00724  -3.13570
    D4       -0.00137   0.00002   0.00000   0.00996   0.00996   0.00859
    D5        0.00740  -0.00003   0.00000  -0.00401  -0.00401   0.00340
    D6       -3.13451  -0.00006   0.00000  -0.00365  -0.00364  -3.13815
    D7       -3.13374   0.00000   0.00000  -0.00192  -0.00192  -3.13567
    D8        0.00753  -0.00002   0.00000  -0.00156  -0.00156   0.00597
    D9        0.00079   0.00002   0.00000   0.01141   0.01140   0.01219
   D10       -3.14128  -0.00002   0.00000   0.00919   0.00920  -3.13208
   D11       -0.01077   0.00008   0.00000   0.00036   0.00036  -0.01042
   D12        3.13154   0.00005   0.00000  -0.00306  -0.00306   3.12848
   D13        3.13084   0.00005   0.00000  -0.00234  -0.00234   3.12850
   D14       -0.01003   0.00003   0.00000  -0.00576  -0.00576  -0.01579
   D15        0.01572  -0.00018   0.00000  -0.01541  -0.01541   0.00031
   D16       -3.13765   0.00021   0.00000   0.00456   0.00458  -3.13307
   D17       -3.12661  -0.00016   0.00000  -0.01191  -0.01193  -3.13853
   D18        0.00321   0.00023   0.00000   0.00805   0.00806   0.01127
   D19       -0.00902   0.00017   0.00000   0.02096   0.02097   0.01194
   D20        3.13649   0.00015   0.00000   0.01369   0.01371  -3.13299
   D21       -3.13912  -0.00020   0.00000   0.00146   0.00146  -3.13766
   D22        0.00639  -0.00023   0.00000  -0.00581  -0.00580   0.00059
   D23       -3.08832   0.00023   0.00000   0.05630   0.05632  -3.03201
   D24        0.02562   0.00062   0.00000   0.09987   0.09988   0.12550
   D25        0.04126   0.00063   0.00000   0.07669   0.07668   0.11794
   D26       -3.12798   0.00101   0.00000   0.12026   0.12025  -3.00773
   D27       -0.00214  -0.00007   0.00000  -0.01165  -0.01163  -0.01377
   D28        3.13978  -0.00005   0.00000  -0.01202  -0.01201   3.12777
   D29        3.13556  -0.00005   0.00000  -0.00444  -0.00442   3.13114
   D30       -0.00570  -0.00003   0.00000  -0.00481  -0.00480  -0.01050
   D31        1.05700  -0.00000   0.00000  -0.01380  -0.01380   1.04320
   D32       -1.06777  -0.00000   0.00000  -0.01386  -0.01386  -1.08163
   D33        3.13668  -0.00000   0.00000  -0.01330  -0.01330   3.12339
   D34        2.88869   0.00021   0.00000   0.02868   0.02865   2.91734
   D35        0.76377   0.00019   0.00000   0.02621   0.02619   0.78996
   D36       -1.31652   0.00019   0.00000   0.02663   0.02661  -1.28990
   D37       -0.22826  -0.00013   0.00000  -0.01018  -0.01019  -0.23844
   D38       -2.35317  -0.00015   0.00000  -0.01265  -0.01265  -2.36582
   D39        1.84972  -0.00015   0.00000  -0.01223  -0.01222   1.83750
   D40        3.07379  -0.00018   0.00000  -0.03013  -0.03017   3.04362
   D41        0.21839  -0.00020   0.00000  -0.02973  -0.02976   0.18863
   D42       -0.09094   0.00014   0.00000   0.00631   0.00632  -0.08463
   D43       -2.94635   0.00012   0.00000   0.00672   0.00673  -2.93962
   D44        0.43666   0.00007   0.00000   0.01002   0.01003   0.44669
   D45       -1.61131   0.00003   0.00000   0.01045   0.01046  -1.60086
   D46        2.55916   0.00003   0.00000   0.00912   0.00912   2.56828
   D47        2.56355   0.00004   0.00000   0.00895   0.00895   2.57250
   D48        0.51557   0.00000   0.00000   0.00938   0.00938   0.52495
   D49       -1.59713  -0.00000   0.00000   0.00804   0.00804  -1.58909
   D50       -1.62831   0.00005   0.00000   0.01096   0.01095  -1.61736
   D51        2.60690   0.00001   0.00000   0.01138   0.01138   2.61828
   D52        0.49419   0.00000   0.00000   0.01005   0.01004   0.50424
   D53        0.37010  -0.00008   0.00000   0.00048   0.00049   0.37059
   D54       -1.70555  -0.00004   0.00000   0.00098   0.00099  -1.70456
   D55        2.50645  -0.00003   0.00000   0.00088   0.00089   2.50733
   D56       -3.04861  -0.00006   0.00000  -0.00000  -0.00001  -3.04862
   D57        1.15893  -0.00001   0.00000   0.00049   0.00049   1.15942
   D58       -0.91226  -0.00001   0.00000   0.00039   0.00039  -0.91187
   D59       -0.48294  -0.00000   0.00000  -0.00698  -0.00697  -0.48991
   D60        1.56760   0.00001   0.00000  -0.00710  -0.00709   1.56051
   D61       -2.61364   0.00002   0.00000  -0.00638  -0.00637  -2.62001
   D62        1.56430  -0.00002   0.00000  -0.00688  -0.00688   1.55742
   D63       -2.66835  -0.00000   0.00000  -0.00700  -0.00700  -2.67535
   D64       -0.56641   0.00001   0.00000  -0.00628  -0.00627  -0.57268
   D65       -2.57216  -0.00002   0.00000  -0.00702  -0.00701  -2.57918
   D66       -0.52163  -0.00001   0.00000  -0.00714  -0.00714  -0.52876
   D67        1.58032   0.00000   0.00000  -0.00642  -0.00641   1.57391
         Item               Value     Threshold  Converged?
 Maximum Force            0.001013     0.000450     NO 
 RMS     Force            0.000132     0.000300     YES
 Maximum Displacement     0.213201     0.001800     NO 
 RMS     Displacement     0.053479     0.001200     NO 
 Predicted change in Energy=-1.557922D-04
 Lowest energy point so far.  Saving SCF results.
 GradGradGradGradGradGradGradGradGradGradGradGradGradGradGradGradGradGrad

 Leave Link  103 at Wed Aug 12 14:03:54 2026, MaxMem=   104857600 cpu:               0.1 elap:               0.2
 (Enter /opt/packages/gaussian/g16RevC.01/g16/l202.exe)
                          Input orientation:                          
 ---------------------------------------------------------------------
 Center     Atomic      Atomic             Coordinates (Angstroms)
 Number     Number       Type             X           Y           Z
 ---------------------------------------------------------------------
      1          6           0       -2.493099    0.245196   -0.024787
      2          6           0       -1.870403   -1.021253    0.072143
      3          6           0       -0.491125   -1.100847    0.082362
      4          6           0        0.335507    0.086288   -0.017080
      5          6           0       -0.317965    1.349966   -0.126336
      6          6           0       -1.694333    1.434481   -0.122396
      7          1           0       -2.201827    2.391782   -0.192191
      8          1           0       -2.462885   -1.927165    0.135761
      9          1           0       -0.032744   -2.079862    0.169776
     10          1           0        0.270053    2.257531   -0.210573
     11          8           0       -3.814349    0.455379   -0.038162
     12          6           0       -4.731222   -0.650747    0.064930
     13          1           0       -4.565451   -1.186862    1.005670
     14          1           0       -4.598891   -1.325361   -0.788173
     15          1           0       -5.723791   -0.201865    0.047981
     16          6           0        1.774961    0.021548   -0.018413
     17          6           0        2.745990    1.164772    0.015178
     18          7           0        2.459512   -1.152314   -0.070465
     19          6           0        3.901604   -0.961287   -0.192056
     20          6           0        4.093371    0.471652    0.330917
     21          1           0        2.476284    1.926396    0.756083
     22          1           0        2.775710    1.671067   -0.964412
     23          1           0        4.198891   -1.054932   -1.250136
     24          1           0        4.439489   -1.727383    0.376236
     25          1           0        4.258061    0.450714    1.413875
     26          1           0        4.945654    0.969245   -0.138197
     27          1           0        2.029910   -2.050878   -0.269527
 ---------------------------------------------------------------------
                    Distance matrix (angstroms):
                    1          2          3          4          5
     1  C    0.000000
     2  C    1.414581   0.000000
     3  C    2.414791   1.381611   0.000000
     4  C    2.833076   2.469949   1.450000   0.000000
     5  C    2.441728   2.841152   2.465771   1.426831   0.000000
     6  C    1.435949   2.469712   2.813810   2.439050   1.378966
     7  H    2.172715   3.439262   3.898762   3.432788   2.153753
     8  H    2.178495   1.084323   2.138572   3.450848   3.925425
     9  H    3.390736   2.123011   1.084538   2.205160   3.454382
    10  H    3.423304   3.925800   3.455996   2.180830   1.084682
    11  O    1.337930   2.443672   3.671537   4.166290   3.610091
    12  C    2.412459   2.884720   4.263956   5.120712   4.849358
    13  H    2.721631   2.856953   4.178521   5.165880   5.075241
    14  H    2.735648   2.877025   4.204995   5.189954   5.091339
    15  H    3.262290   3.939616   5.309440   6.066495   5.626857
    16  C    4.273920   3.792667   2.530824   1.440910   2.481267
    17  C    5.319330   5.108135   3.951766   2.640946   3.072807
    18  N    5.146209   4.334245   2.955039   2.459345   3.738837
    19  C    6.509670   5.778362   4.403504   3.720897   4.811546
    20  C    6.599954   6.153238   4.853054   3.793567   4.521106
    21  H    5.303862   5.296234   4.292274   2.926893   2.986429
    22  H    5.538623   5.468949   4.410380   3.059992   3.221227
    23  H    6.926365   6.211754   4.875849   4.212902   5.239127
    24  H    7.218910   6.356558   4.978941   4.504083   5.688236
    25  H    6.905805   6.443990   5.170593   4.191285   4.911305
    26  H    7.474768   7.103870   5.821726   4.695502   5.277384
    27  H    5.078333   4.048371   2.716984   2.739016   4.135066
                    6          7          8          9         10
     6  C    0.000000
     7  H    1.085747   0.000000
     8  H    3.458031   4.339240   0.000000
     9  H    3.898313   4.983125   2.435171   0.000000
    10  H    2.131666   2.475591   5.010047   4.364554   0.000000
    11  O    2.336707   2.524600   2.744671   4.557545   4.467641
    12  C    3.688625   3.964963   2.603769   4.912134   5.791954
    13  H    4.048121   4.452895   2.392818   4.694848   6.060131
    14  H    4.061581   4.462988   2.403819   4.726165   6.072673
    15  H    4.352377   4.380515   3.690241   5.994141   6.483953
    16  C    3.747426   4.632824   4.666968   2.778334   2.702091
    17  C    4.450634   5.101907   6.058629   4.274683   2.715760
    18  N    4.893734   5.856920   4.987275   2.670094   4.054677
    19  C    6.087616   6.963831   6.445704   4.106242   4.852762
    20  C    5.884731   6.602277   6.984046   4.853969   4.254449
    21  H    4.290426   4.795887   6.295245   4.763305   2.431364
    22  H    4.554805   5.088382   6.449847   4.821127   2.681516
    23  H    6.496081   7.346310   6.860084   4.579669   5.242983
    24  H    6.918800   7.835669   6.909450   4.490850   5.797248
    25  H    6.225667   6.933783   7.242858   5.134453   4.669864
    26  H    6.656285   7.287868   7.959315   5.846055   4.850378
    27  H    5.102878   6.136026   4.512734   2.109116   4.654349
                   11         12         13         14         15
    11  O    0.000000
    12  C    1.440416   0.000000
    13  H    2.085832   1.095395   0.000000
    14  H    2.085440   1.095628   1.799492   0.000000
    15  H    2.021227   1.089484   1.796980   1.796329   0.000000
    16  C    5.606156   6.541357   6.535276   6.559931   7.502374
    17  C    6.598798   7.694627   7.743929   7.797013   8.579392
    18  N    6.476654   7.209476   7.106994   7.096908   8.239164
    19  C    7.846436   8.642231   8.554324   8.529145   9.658290
    20  C    7.916345   8.899662   8.842012   8.946342   9.844306
    21  H    6.508976   7.685538   7.703291   7.938309   8.501302
    22  H    6.764962   7.924922   8.120445   7.962059   8.762096
    23  H    8.243902   9.035468   9.050953   8.814052  10.043528
    24  H    8.547632   9.238939   9.043080   9.121940  10.282374
    25  H    8.201965   9.156423   8.983466   9.297799  10.095984
    26  H    8.775632   9.813642   9.819285   9.837989  10.735140
    27  H    6.363192   6.912679   6.772846   6.688526   7.977440
                   16         17         18         19         20
    16  C    0.000000
    17  C    1.500328   0.000000
    18  N    1.359879   2.336298   0.000000
    19  C    2.349197   2.428686   1.459762   0.000000
    20  C    2.387394   1.547754   2.338348   1.537397   0.000000
    21  H    2.172589   1.096245   3.187776   3.356966   2.216307
    22  H    2.148796   1.103093   2.978356   2.965377   2.202886
    23  H    2.924275   2.939222   2.103936   1.103034   2.200301
    24  H    3.211575   3.370884   2.109634   1.095070   2.226568
    25  H    2.898520   2.180044   2.829796   2.167908   1.095610
    26  H    3.311461   2.213657   3.269022   2.195427   1.092727
    27  H    2.103095   3.306695   1.015678   2.167129   3.313845
                   21         22         23         24         25
    21  H    0.000000
    22  H    1.764923   0.000000
    23  H    3.985048   3.088391   0.000000
    24  H    4.165160   4.014345   1.776279   0.000000
    25  H    2.405214   3.056612   3.060626   2.419446   0.000000
    26  H    2.795293   2.425664   2.427212   2.791532   1.774989
    27  H    4.131566   3.859010   2.580306   2.515498   3.749196
                   26         27
    26  H    0.000000
    27  H    4.199995   0.000000
 Stoichiometry    C11H14NO(1+)
 Framework group  C1[X(C11H14NO)]
 Deg. of freedom    75
 Full point group                 C1      NOp   1
 RotChk:  IX=0 Diff= 1.40D-02
 Largest Abelian subgroup         C1      NOp   1
 Largest concise Abelian subgroup C1      NOp   1
                         Standard orientation:                         
 ---------------------------------------------------------------------
 Center     Atomic      Atomic             Coordinates (Angstroms)
 Number     Number       Type             X           Y           Z
 ---------------------------------------------------------------------
      1          6           0       -2.493463    0.246015   -0.013595
      2          6           0       -1.870515   -1.021278    0.069726
      3          6           0       -0.491215   -1.100892    0.076160
      4          6           0        0.335158    0.087194   -0.013606
      5          6           0       -0.318594    1.351834   -0.109211
      6          6           0       -1.694953    1.436231   -0.101446
      7          1           0       -2.202630    2.394135   -0.160874
      8          1           0       -2.462826   -1.927795    0.125877
      9          1           0       -0.032612   -2.080681    0.153104
     10          1           0        0.269209    2.260203   -0.185955
     11          8           0       -3.814746    0.456246   -0.022050
     12          6           0       -4.731355   -0.650875    0.072347
     13          1           0       -4.563511   -1.196051    1.007495
     14          1           0       -4.600867   -1.317203   -0.787525
     15          1           0       -5.723974   -0.201904    0.061908
     16          6           0        1.774608    0.022548   -0.018710
     17          6           0        2.745670    1.165446    0.023809
     18          7           0        2.459082   -1.150718   -0.083605
     19          6           0        3.900899   -0.958447   -0.206495
     20          6           0        4.093761    0.469380    0.329887
     21          1           0        2.477558    1.919857    0.772631
     22          1           0        2.773231    1.681191   -0.950902
     23          1           0        4.195875   -1.041842   -1.266078
     24          1           0        4.440050   -1.729971    0.353188
     25          1           0        4.260818    0.437982    1.412230
     26          1           0        4.945000    0.971532   -0.136255
     27          1           0        2.029076   -2.047340   -0.290406
 ---------------------------------------------------------------------
 Rotational constants (GHZ):           2.8207116           0.3487593           0.3140535
 Leave Link  202 at Wed Aug 12 14:03:54 2026, MaxMem=   104857600 cpu:               0.0 elap:               0.0
 (Enter /opt/packages/gaussian/g16RevC.01/g16/l301.exe)
 Standard basis: 6-31+G(d) (6D, 7F)
 Ernie: Thresh=  0.10000D-02 Tol=  0.10000D-05 Strict=F.
 There are   275 symmetry adapted cartesian basis functions of A   symmetry.
 There are   275 symmetry adapted basis functions of A   symmetry.
   275 basis functions,   472 primitive gaussians,   275 cartesian basis functions
    47 alpha electrons       47 beta electrons
       nuclear repulsion energy       751.8957726816 Hartrees.
 IExCor=  402 DFT=T Ex+Corr=B3LYP ExCW=0 ScaHFX=  0.200000
 ScaDFX=  0.800000  0.720000  1.000000  0.810000 ScalE2=  1.000000  1.000000
 IRadAn=      5 IRanWt=     -1 IRanGd=            0 ICorTp=0 IEmpDi=  4
 NAtoms=   27 NActive=   27 NUniq=   27 SFac= 1.00D+00 NAtFMM=   60 NAOKFM=F Big=F
 Integral buffers will be    131072 words long.
 Regular integral format.
 Two-electron integral symmetry is turned on.
 ------------------------------------------------------------------------------
 Polarizable Continuum Model (PCM)
 =================================
 Model                : PCM.
 Atomic radii         : SMD-Coulomb.
 Polarization charges : Total charges.
 Charge compensation  : None.
 Solution method      : Matrix inversion.
 Cavity type          : VdW (van der Waals Surface) (Alpha=1.000).
 Cavity algorithm     : GePol (No added spheres)
                        Default sphere list used, NSphG=   27.
                        Lebedev-Laikov grids with approx.  5.0 points / Ang**2.
                        Smoothing algorithm: York/Karplus (Gamma=1.0000).
                        Polarization charges: spherical gaussians, with
                                              point-specific exponents (IZeta= 3).
                        Self-potential: point-specific (ISelfS= 7).
                        Self-field    : sphere-specific E.n sum rule (ISelfD= 2).
 1st derivatives      : Analytical E(r).r(x)/FMM algorithm (CHGder, D1EAlg=3).
                        Cavity 1st derivative terms included.
 Solvent              : Methanol, Eps=  32.613000 Eps(inf)=   1.765709
 ------------------------------------------------------------------------------
 GePol: Number of generator spheres                  =      27
 GePol: Total number of spheres                      =      27
 GePol: Number of exposed spheres                    =      27 (100.00%)
 GePol: Number of points                             =    2001
 GePol: Average weight of points                     =       0.11
 GePol: Minimum weight of points                     =   0.73D-10
 GePol: Maximum weight of points                     =    0.21991
 GePol: Number of points with low weight             =     116
 GePol: Fraction of low-weight points (<1% of avg)   =       5.80%
 GePol: Cavity surface area                          =    217.060 Ang**2
 GePol: Cavity volume                                =    192.734 Ang**3
 ------------------------------------------------------------------------------
 Atomic radii for non-electrostatic terms: SMD-CDS.
 ------------------------------------------------------------------------------
 PCM non-electrostatic energy =        -0.0004165853 Hartrees.
 Nuclear repulsion after PCM non-electrostatic terms =      751.8953560963 Hartrees.
 Leave Link  301 at Wed Aug 12 14:03:54 2026, MaxMem=   104857600 cpu:               0.1 elap:               0.1
 (Enter /opt/packages/gaussian/g16RevC.01/g16/l302.exe)
 NPDir=0 NMtPBC=     1 NCelOv=     1 NCel=       1 NClECP=     1 NCelD=      1
         NCelK=      1 NCelE2=     1 NClLst=     1 CellRange=     0.0.
 One-electron integrals computed using PRISM.
 One-electron integral symmetry used in STVInt
 NBasis=   275 RedAO= T EigKep=  1.08D-06  NBF=   275
 NBsUse=   274 1.00D-06 EigRej=  4.52D-07 NBFU=   274
 Precomputing XC quadrature grid using
 IXCGrd= 4 IRadAn=           5 IRanWt=          -1 IRanGd=           0 AccXCQ= 0.00D+00.
 Generated NRdTot=       0 NPtTot=           0 NUsed=           0 NTot=          32
 NSgBfM=   274   274   274   274   274 MxSgAt=    27 MxSgA2=    27.
 Leave Link  302 at Wed Aug 12 14:03:55 2026, MaxMem=   104857600 cpu:               0.6 elap:               0.7
 (Enter /opt/packages/gaussian/g16RevC.01/g16/l303.exe)
 DipDrv:  MaxL=1.
 Leave Link  303 at Wed Aug 12 14:03:55 2026, MaxMem=   104857600 cpu:               0.0 elap:               0.1
 (Enter /opt/packages/gaussian/g16RevC.01/g16/l308.exe)
 Leave Link  308 at Wed Aug 12 14:03:55 2026, MaxMem=   104857600 cpu:               0.0 elap:               0.1
 (Enter /opt/packages/gaussian/g16RevC.01/g16/l401.exe)
 Initial guess from the checkpoint file:  "mono_s1_planar_opt.chk"
 B after Tr=    -0.000000   -0.000000   -0.000000
         Rot=    0.999997   -0.002606   -0.000089   -0.000022 Ang=  -0.30 deg.
 Guess basis will be translated and rotated to current coordinates.
 JPrj=2 DoOrth=T DoCkMO=T.
 Generating alternative initial guess.
 ExpMin= 4.38D-02 ExpMax= 5.48D+03 ExpMxC= 8.25D+02 IAcc=3 IRadAn=         5 AccDes= 0.00D+00
 Harris functional with IExCor=  402 and IRadAn=       5 diagonalized for initial guess.
 HarFok:  IExCor=  402 AccDes= 0.00D+00 IRadAn=         5 IDoV= 1 UseB2=F ITyADJ=14
 ICtDFT=  3500011 ScaDFX=  1.000000  1.000000  1.000000  1.000000
 FoFCou: FMM=F IPFlag=           0 FMFlag=      100000 FMFlg1=           0
         NFxFlg=           0 DoJE=T BraDBF=F KetDBF=T FulRan=T
         wScrn=  0.000000 ICntrl=       500 IOpCl=  0 I1Cent=   200000004 NGrid=           0
         NMat0=    1 NMatS0=      1 NMatT0=    0 NMatD0=    1 NMtDS0=    0 NMtDT0=    0
 Petite list used in FoFCou.
 Harris En= -557.357793395492    
 Leave Link  401 at Wed Aug 12 14:04:01 2026, MaxMem=   104857600 cpu:               5.5 elap:               5.6
 (Enter /opt/packages/gaussian/g16RevC.01/g16/l502.exe)
 Integral symmetry usage will be decided dynamically.
 Closed shell SCF:
 Using DIIS extrapolation, IDIIS=  1040.
 NGot=   104857600 LenX=   104701058 LenY=   104624992
 Requested convergence on RMS density matrix=1.00D-08 within 128 cycles.
 Requested convergence on MAX density matrix=1.00D-06.
 Requested convergence on             energy=1.00D-06.
 No special actions if energy rises.
 Fock matrices will be formed incrementally for  20 cycles.

 Cycle   1  Pass 1  IDiag  1:
 FoFJK:  IHMeth= 1 ICntrl=       0 DoSepK=F KAlg= 0 I1Cent=           0 FoldK=F
 IRaf= 880000000 NMat=       1 IRICut=       1 DoRegI=T DoRafI=F ISym2E= 0 IDoP0=0 IntGTp=1.
 FoFCou: FMM=F IPFlag=           0 FMFlag=      100000 FMFlg1=           0
         NFxFlg=           0 DoJE=F BraDBF=F KetDBF=F FulRan=T
         wScrn=  0.000000 ICntrl=         0 IOpCl=  0 I1Cent=           0 NGrid=           0
         NMat0=    1 NMatS0=      1 NMatT0=    0 NMatD0=    1 NMtDS0=    0 NMtDT0=    0
 Symmetry not used in FoFCou.
 Inv3:  Mode=1 IEnd=    12012003.
 Iteration    1 A*A^-1 deviation from unit magnitude is 3.33D-15 for   1802.
 Iteration    1 A*A^-1 deviation from orthogonality  is 1.89D-15 for   1704   1016.
 Iteration    1 A^-1*A deviation from unit magnitude is 3.11D-15 for   1802.
 Iteration    1 A^-1*A deviation from orthogonality  is 5.45D-15 for    840    811.
 E= -557.440521682670    
 DIIS: error= 7.90D-03 at cycle   1 NSaved=   1.
 NSaved= 1 IEnMin= 1 EnMin= -557.440521682670     IErMin= 1 ErrMin= 7.90D-03
 ErrMax= 7.90D-03  0.00D+00 EMaxC= 1.00D-01 BMatC= 1.07D-02 BMatP= 1.07D-02
 IDIUse=3 WtCom= 9.21D-01 WtEn= 7.90D-02
 Coeff-Com:  0.100D+01
 Coeff-En:   0.100D+01
 Coeff:      0.100D+01
 Gap=     0.421 Goal=   None    Shift=    0.000
 GapD=    0.421 DampG=2.000 DampE=1.000 DampFc=2.0000 IDamp=-1.
 RMSDP=6.34D-03 MaxDP=3.73D-01              OVMax= 3.59D-02

 Cycle   2  Pass 1  IDiag  1:
 RMSU=  5.83D-03    CP:  9.60D-01
 E= -557.455182984521     Delta-E=       -0.014661301851 Rises=F Damp=F
 DIIS: error= 4.62D-04 at cycle   2 NSaved=   2.
 NSaved= 2 IEnMin= 2 EnMin= -557.455182984521     IErMin= 2 ErrMin= 4.62D-04
 ErrMax= 4.62D-04  0.00D+00 EMaxC= 1.00D-01 BMatC= 8.31D-05 BMatP= 1.07D-02
 IDIUse=3 WtCom= 9.95D-01 WtEn= 4.62D-03
 Coeff-Com: -0.282D-01 0.103D+01
 Coeff-En:   0.000D+00 0.100D+01
 Coeff:     -0.281D-01 0.103D+01
 Gap=     0.147 Goal=   None    Shift=    0.000
 RMSDP=4.27D-04 MaxDP=2.35D-02 DE=-1.47D-02 OVMax= 4.12D-03

 Cycle   3  Pass 1  IDiag  1:
 RMSU=  4.05D-04    CP:  9.61D-01  1.02D+00
 E= -557.455272662025     Delta-E=       -0.000089677504 Rises=F Damp=F
 DIIS: error= 3.30D-04 at cycle   3 NSaved=   3.
 NSaved= 3 IEnMin= 3 EnMin= -557.455272662025     IErMin= 3 ErrMin= 3.30D-04
 ErrMax= 3.30D-04  0.00D+00 EMaxC= 1.00D-01 BMatC= 6.14D-05 BMatP= 8.31D-05
 IDIUse=3 WtCom= 9.97D-01 WtEn= 3.30D-03
 Coeff-Com: -0.179D-01 0.485D+00 0.533D+00
 Coeff-En:   0.000D+00 0.000D+00 0.100D+01
 Coeff:     -0.178D-01 0.483D+00 0.534D+00
 Gap=     0.148 Goal=   None    Shift=    0.000
 RMSDP=2.17D-04 MaxDP=1.08D-02 DE=-8.97D-05 OVMax= 3.91D-03

 Cycle   4  Pass 1  IDiag  1:
 RMSU=  1.68D-04    CP:  9.60D-01  1.02D+00  7.02D-01
 E= -557.455319705979     Delta-E=       -0.000047043955 Rises=F Damp=F
 DIIS: error= 1.78D-04 at cycle   4 NSaved=   4.
 NSaved= 4 IEnMin= 4 EnMin= -557.455319705979     IErMin= 4 ErrMin= 1.78D-04
 ErrMax= 1.78D-04  0.00D+00 EMaxC= 1.00D-01 BMatC= 1.52D-05 BMatP= 6.14D-05
 IDIUse=3 WtCom= 9.98D-01 WtEn= 1.78D-03
 Coeff-Com: -0.580D-02 0.115D+00 0.334D+00 0.557D+00
 Coeff-En:   0.000D+00 0.000D+00 0.214D+00 0.786D+00
 Coeff:     -0.579D-02 0.114D+00 0.334D+00 0.557D+00
 Gap=     0.147 Goal=   None    Shift=    0.000
 RMSDP=7.36D-05 MaxDP=3.45D-03 DE=-4.70D-05 OVMax= 1.33D-03

 Cycle   5  Pass 1  IDiag  1:
 RMSU=  4.98D-05    CP:  9.60D-01  1.02D+00  7.73D-01  7.29D-01
 E= -557.455334628541     Delta-E=       -0.000014922562 Rises=F Damp=F
 DIIS: error= 2.84D-05 at cycle   5 NSaved=   5.
 NSaved= 5 IEnMin= 5 EnMin= -557.455334628541     IErMin= 5 ErrMin= 2.84D-05
 ErrMax= 2.84D-05  0.00D+00 EMaxC= 1.00D-01 BMatC= 5.86D-07 BMatP= 1.52D-05
 IDIUse=1 WtCom= 1.00D+00 WtEn= 0.00D+00
 Coeff-Com: -0.766D-03 0.130D-02 0.873D-01 0.232D+00 0.680D+00
 Coeff:     -0.766D-03 0.130D-02 0.873D-01 0.232D+00 0.680D+00
 Gap=     0.147 Goal=   None    Shift=    0.000
 RMSDP=1.88D-05 MaxDP=1.08D-03 DE=-1.49D-05 OVMax= 2.50D-04

 Cycle   6  Pass 1  IDiag  1:
 RMSU=  1.23D-05    CP:  9.60D-01  1.02D+00  7.91D-01  7.70D-01  8.73D-01
 E= -557.455335111594     Delta-E=       -0.000000483053 Rises=F Damp=F
 DIIS: error= 1.37D-05 at cycle   6 NSaved=   6.
 NSaved= 6 IEnMin= 6 EnMin= -557.455335111594     IErMin= 6 ErrMin= 1.37D-05
 ErrMax= 1.37D-05  0.00D+00 EMaxC= 1.00D-01 BMatC= 1.18D-07 BMatP= 5.86D-07
 IDIUse=1 WtCom= 1.00D+00 WtEn= 0.00D+00
 Coeff-Com:  0.187D-03-0.119D-01 0.117D-01 0.670D-01 0.373D+00 0.560D+00
 Coeff:      0.187D-03-0.119D-01 0.117D-01 0.670D-01 0.373D+00 0.560D+00
 Gap=     0.147 Goal=   None    Shift=    0.000
 RMSDP=8.09D-06 MaxDP=6.55D-04 DE=-4.83D-07 OVMax= 1.51D-04

 Cycle   7  Pass 1  IDiag  1:
 RMSU=  5.02D-06    CP:  9.60D-01  1.02D+00  7.90D-01  7.83D-01  8.87D-01
                    CP:  6.89D-01
 E= -557.455335219354     Delta-E=       -0.000000107759 Rises=F Damp=F
 DIIS: error= 3.67D-06 at cycle   7 NSaved=   7.
 NSaved= 7 IEnMin= 7 EnMin= -557.455335219354     IErMin= 7 ErrMin= 3.67D-06
 ErrMax= 3.67D-06  0.00D+00 EMaxC= 1.00D-01 BMatC= 8.55D-09 BMatP= 1.18D-07
 IDIUse=1 WtCom= 1.00D+00 WtEn= 0.00D+00
 Coeff-Com:  0.153D-03-0.693D-02 0.129D-02 0.235D-01 0.171D+00 0.313D+00
 Coeff-Com:  0.498D+00
 Coeff:      0.153D-03-0.693D-02 0.129D-02 0.235D-01 0.171D+00 0.313D+00
 Coeff:      0.498D+00
 Gap=     0.147 Goal=   None    Shift=    0.000
 RMSDP=2.87D-06 MaxDP=1.59D-04 DE=-1.08D-07 OVMax= 4.49D-05

 Cycle   8  Pass 1  IDiag  1:
 RMSU=  1.33D-06    CP:  9.60D-01  1.02D+00  7.92D-01  7.79D-01  8.86D-01
                    CP:  6.96D-01  6.53D-01
 E= -557.455335227716     Delta-E=       -0.000000008362 Rises=F Damp=F
 DIIS: error= 1.03D-06 at cycle   8 NSaved=   8.
 NSaved= 8 IEnMin= 8 EnMin= -557.455335227716     IErMin= 8 ErrMin= 1.03D-06
 ErrMax= 1.03D-06  0.00D+00 EMaxC= 1.00D-01 BMatC= 4.39D-10 BMatP= 8.55D-09
 IDIUse=1 WtCom= 1.00D+00 WtEn= 0.00D+00
 Coeff-Com:  0.397D-04-0.138D-02-0.970D-03 0.118D-02 0.249D-01 0.650D-01
 Coeff-Com:  0.212D+00 0.699D+00
 Coeff:      0.397D-04-0.138D-02-0.970D-03 0.118D-02 0.249D-01 0.650D-01
 Coeff:      0.212D+00 0.699D+00
 Gap=     0.147 Goal=   None    Shift=    0.000
 RMSDP=5.80D-07 MaxDP=4.13D-05 DE=-8.36D-09 OVMax= 1.44D-05

 Cycle   9  Pass 1  IDiag  1:
 RMSU=  4.88D-07    CP:  9.60D-01  1.02D+00  7.91D-01  7.79D-01  8.90D-01
                    CP:  7.01D-01  6.73D-01  9.30D-01
 E= -557.455335228128     Delta-E=       -0.000000000413 Rises=F Damp=F
 DIIS: error= 4.47D-07 at cycle   9 NSaved=   9.
 NSaved= 9 IEnMin= 9 EnMin= -557.455335228128     IErMin= 9 ErrMin= 4.47D-07
 ErrMax= 4.47D-07  0.00D+00 EMaxC= 1.00D-01 BMatC= 1.03D-10 BMatP= 4.39D-10
 IDIUse=1 WtCom= 1.00D+00 WtEn= 0.00D+00
 Coeff-Com:  0.397D-05 0.708D-04-0.721D-03-0.222D-02-0.670D-02-0.263D-03
 Coeff-Com:  0.565D-01 0.394D+00 0.560D+00
 Coeff:      0.397D-05 0.708D-04-0.721D-03-0.222D-02-0.670D-02-0.263D-03
 Coeff:      0.565D-01 0.394D+00 0.560D+00
 Gap=     0.147 Goal=   None    Shift=    0.000
 RMSDP=2.40D-07 MaxDP=1.94D-05 DE=-4.13D-10 OVMax= 3.58D-06

 Cycle  10  Pass 1  IDiag  1:
 RMSU=  1.25D-07    CP:  9.60D-01  1.02D+00  7.91D-01  7.80D-01  8.89D-01
                    CP:  7.03D-01  6.81D-01  9.52D-01  6.12D-01
 E= -557.455335228208     Delta-E=       -0.000000000080 Rises=F Damp=F
 DIIS: error= 1.60D-07 at cycle  10 NSaved=  10.
 NSaved=10 IEnMin=10 EnMin= -557.455335228208     IErMin=10 ErrMin= 1.60D-07
 ErrMax= 1.60D-07  0.00D+00 EMaxC= 1.00D-01 BMatC= 8.83D-12 BMatP= 1.03D-10
 IDIUse=1 WtCom= 1.00D+00 WtEn= 0.00D+00
 Coeff-Com: -0.186D-05 0.178D-03-0.273D-03-0.125D-02-0.589D-02-0.609D-02
 Coeff-Com:  0.771D-02 0.144D+00 0.294D+00 0.568D+00
 Coeff:     -0.186D-05 0.178D-03-0.273D-03-0.125D-02-0.589D-02-0.609D-02
 Coeff:      0.771D-02 0.144D+00 0.294D+00 0.568D+00
 Gap=     0.147 Goal=   None    Shift=    0.000
 RMSDP=6.70D-08 MaxDP=3.94D-06 DE=-8.00D-11 OVMax= 9.23D-07

 Cycle  11  Pass 1  IDiag  1:
 RMSU=  4.29D-08    CP:  9.60D-01  1.02D+00  7.91D-01  7.80D-01  8.89D-01
                    CP:  7.06D-01  6.86D-01  9.44D-01  6.24D-01  7.94D-01
 E= -557.455335228216     Delta-E=       -0.000000000008 Rises=F Damp=F
 DIIS: error= 3.60D-08 at cycle  11 NSaved=  11.
 NSaved=11 IEnMin=11 EnMin= -557.455335228216     IErMin=11 ErrMin= 3.60D-08
 ErrMax= 3.60D-08  0.00D+00 EMaxC= 1.00D-01 BMatC= 8.73D-13 BMatP= 8.83D-12
 IDIUse=1 WtCom= 1.00D+00 WtEn= 0.00D+00
 Coeff-Com: -0.131D-05 0.907D-04-0.905D-04-0.502D-03-0.268D-02-0.320D-02
 Coeff-Com: -0.838D-03 0.471D-01 0.112D+00 0.313D+00 0.535D+00
 Coeff:     -0.131D-05 0.907D-04-0.905D-04-0.502D-03-0.268D-02-0.320D-02
 Coeff:     -0.838D-03 0.471D-01 0.112D+00 0.313D+00 0.535D+00
 Gap=     0.147 Goal=   None    Shift=    0.000
 RMSDP=2.74D-08 MaxDP=1.74D-06 DE=-7.50D-12 OVMax= 1.53D-07

 Cycle  12  Pass 1  IDiag  1:
 RMSU=  1.41D-08    CP:  9.60D-01  1.02D+00  7.91D-01  7.80D-01  8.89D-01
                    CP:  7.05D-01  6.84D-01  9.49D-01  6.32D-01  7.83D-01
                    CP:  8.50D-01
 E= -557.455335228222     Delta-E=       -0.000000000006 Rises=F Damp=F
 DIIS: error= 1.06D-08 at cycle  12 NSaved=  12.
 NSaved=12 IEnMin=12 EnMin= -557.455335228222     IErMin=12 ErrMin= 1.06D-08
 ErrMax= 1.06D-08  0.00D+00 EMaxC= 1.00D-01 BMatC= 4.50D-14 BMatP= 8.73D-13
 IDIUse=1 WtCom= 1.00D+00 WtEn= 0.00D+00
 Coeff-Com: -0.364D-06 0.213D-04-0.131D-04-0.958D-04-0.590D-03-0.729D-03
 Coeff-Com: -0.138D-02 0.732D-02 0.189D-01 0.846D-01 0.219D+00 0.673D+00
 Coeff:     -0.364D-06 0.213D-04-0.131D-04-0.958D-04-0.590D-03-0.729D-03
 Coeff:     -0.138D-02 0.732D-02 0.189D-01 0.846D-01 0.219D+00 0.673D+00
 Gap=     0.147 Goal=   None    Shift=    0.000
 RMSDP=5.09D-09 MaxDP=2.37D-07 DE=-6.37D-12 OVMax= 9.27D-08

 Error on total polarization charges =  0.05317
 SCF Done:  E(RB3LYP) =  -557.455335228     A.U. after   12 cycles
            NFock= 12  Conv=0.51D-08     -V/T= 2.0104
 KE= 5.517347751879D+02 PE=-2.781563877695D+03 EE= 9.204784111825D+02
 SMD-CDS (non-electrostatic) energy       (kcal/mol) =      -0.26
 (included in total energy above)
 Leave Link  502 at Wed Aug 12 14:06:44 2026, MaxMem=   104857600 cpu:             162.0 elap:             162.9
 (Enter /opt/packages/gaussian/g16RevC.01/g16/l801.exe)
 DoSCS=F DFT=T ScalE2(SS,OS)=  1.000000  1.000000
 ExpMin= 4.38D-02 ExpMax= 5.48D+03 ExpMxC= 8.25D+02 IAcc=3 IRadAn=         5 AccDes= 0.00D+00
 HarFok:  IExCor=  205 AccDes= 0.00D+00 IRadAn=         5 IDoV=-2 UseB2=F ITyADJ=14
 ICtDFT= 12500011 ScaDFX=  1.000000  1.000000  1.000000  1.000000
 Largest valence mixing into a core orbital is  5.49D-05
 Largest core mixing into a valence orbital is  1.18D-05
 Range of M.O.s used for correlation:    14   274
 NBasis=   275 NAE=    47 NBE=    47 NFC=    13 NFV=     0
 NROrb=    261 NOA=    34 NOB=    34 NVA=   227 NVB=   227

 **** Warning!!: The largest alpha MO coefficient is  0.22305659D+03

 Leave Link  801 at Wed Aug 12 14:06:46 2026, MaxMem=   104857600 cpu:               0.6 elap:               0.7
 (Enter /opt/packages/gaussian/g16RevC.01/g16/l914.exe)
 RHF ground state
 Two-electron integrals replicated using symmetry.
 MDV=   104857600 DFT=T DoStab=F Mixed=T DoRPA=T DoScal=F NonHer=T
 NEqPCM:  Using equilibrium solvation (IEInf=0, Eps=  32.6130, EpsInf=   1.7657)
 Making orbital integer symmetry assigments:
 Orbital symmetries:
       Occupied  (A) (A) (A) (A) (A) (A) (A) (A) (A) (A) (A) (A)
                 (A) (A) (A) (A) (A) (A) (A) (A) (A) (A) (A) (A)
                 (A) (A) (A) (A) (A) (A) (A) (A) (A) (A) (A) (A)
                 (A) (A) (A) (A) (A) (A) (A) (A) (A) (A) (A)
       Virtual   (A) (A) (A) (A) (A) (A) (A) (A) (A) (A) (A) (A)
                 (A) (A) (A) (A) (A) (A) (A) (A) (A) (A) (A) (A)
                 (A) (A) (A) (A) (A) (A) (A) (A) (A) (A) (A) (A)
                 (A) (A) (A) (A) (A) (A) (A) (A) (A) (A) (A) (A)
                 (A) (A) (A) (A) (A) (A) (A) (A) (A) (A) (A) (A)
                 (A) (A) (A) (A) (A) (A) (A) (A) (A) (A) (A) (A)
                 (A) (A) (A) (A) (A) (A) (A) (A) (A) (A) (A) (A)
                 (A) (A) (A) (A) (A) (A) (A) (A) (A) (A) (A) (A)
                 (A) (A) (A) (A) (A) (A) (A) (A) (A) (A) (A) (A)
                 (A) (A) (A) (A) (A) (A) (A) (A) (A) (A) (A) (A)
                 (A) (A) (A) (A) (A) (A) (A) (A) (A) (A) (A) (A)
                 (A) (A) (A) (A) (A) (A) (A) (A) (A) (A) (A) (A)
                 (A) (A) (A) (A) (A) (A) (A) (A) (A) (A) (A) (A)
                 (A) (A) (A) (A) (A) (A) (A) (A) (A) (A) (A) (A)
                 (A) (A) (A) (A) (A) (A) (A) (A) (A) (A) (A) (A)
                 (A) (A) (A) (A) (A) (A) (A) (A) (A) (A) (A) (A)
                 (A) (A) (A) (A) (A) (A) (A) (A) (A) (A) (A) (A)
                 (A) (A) (A) (A) (A) (A) (A) (A) (A) (A) (A) (A)
                 (A) (A) (A) (A) (A) (A) (A) (A) (A) (A) (A)
 Generating guess from densities on rwf.
 Convergence on wavefunction:    0.000001000000000
 Davidson Disk Diagonalization:  ConvIn= 1.00D-06 SkipCon=T Conv= 1.00D-06.
 Max sub-space:  2000 roots to seek:     5 dimension of matrix:        15436
 Iteration     1 Dimension    10 NMult     0 NNew     10
 CISAX will form    10 AO SS matrices at one time.
 NMat=    10 NSing=    10 JSym2X= 0.
 FoFJK:  IHMeth= 1 ICntrl=       0 DoSepK=F KAlg= 0 I1Cent=           0 FoldK=F
 IRaf= 880000000 NMat=      20 IRICut=      25 DoRegI=T DoRafI=T ISym2E= 0 IDoP0=0 IntGTp=1.
 FoFCou: FMM=F IPFlag=           0 FMFlag=      100000 FMFlg1=           0
         NFxFlg=           0 DoJE=F BraDBF=F KetDBF=F FulRan=T
         wScrn=  0.000000 ICntrl=         0 IOpCl=  0 I1Cent=           0 NGrid=           0
         NMat0=   20 NMatS0=     10 NMatT0=    0 NMatD0=   20 NMtDS0=    0 NMtDT0=    0
 Symmetry not used in FoFCou.
 Raff kept on since  87.67% of shell-pairs survive, threshold=   0.20 IRatSp=88.
 Excitation Energies [eV] at current iteration:
 Root      1 :     3.554694220038636
 Root      2 :     4.254791581324711
 Root      3 :     5.187023573745884
 Root      4 :     5.317974609909611
 Root      5 :     5.744332200680289
 Iteration     2 Dimension    20 NMult    10 NNew     10
 CISAX will form    10 AO SS matrices at one time.
 NMat=    10 NSing=    10 JSym2X= 0.
 Root      1 not converged, maximum delta is    0.012455035786278
 Root      2 not converged, maximum delta is    0.014293149666588
 Root      3 not converged, maximum delta is    0.013653873070191
 Root      4 not converged, maximum delta is    0.011567438680314
 Root      5 not converged, maximum delta is    0.007622738615628
 Excitation Energies [eV] at current iteration:
 Root      1 :     3.525654987754927   Change is   -0.029039232283709
 Root      2 :     4.233405663432090   Change is   -0.021385917892621
 Root      3 :     5.162179733384171   Change is   -0.024843840361713
 Root      4 :     5.297986627252879   Change is   -0.019987982656732
 Root      5 :     5.735196033524500   Change is   -0.009136167155790
 Iteration     3 Dimension    30 NMult    20 NNew     10
 CISAX will form    10 AO SS matrices at one time.
 NMat=    10 NSing=    10 JSym2X= 0.
 Root      1 not converged, maximum delta is    0.001530135892733
 Root      2 not converged, maximum delta is    0.000975795299669
 Root      3 not converged, maximum delta is    0.003828869219135
 Root      4 not converged, maximum delta is    0.004379087138835
 Root      5 not converged, maximum delta is    0.005520321410302
 Excitation Energies [eV] at current iteration:
 Root      1 :     3.525213713909255   Change is   -0.000441273845673
 Root      2 :     4.233243162723234   Change is   -0.000162500708856
 Root      3 :     5.161816528954807   Change is   -0.000363204429364
 Root      4 :     5.297455997666159   Change is   -0.000530629586720
 Root      5 :     5.734899783690562   Change is   -0.000296249833938
 Iteration     4 Dimension    40 NMult    30 NNew     10
 CISAX will form    10 AO SS matrices at one time.
 NMat=    10 NSing=    10 JSym2X= 0.
 Root      1 not converged, maximum delta is    0.000534692752643
 Root      2 not converged, maximum delta is    0.000278749842331
 Root      3 not converged, maximum delta is    0.001776373695617
 Root      4 not converged, maximum delta is    0.001976182118338
 Root      5 not converged, maximum delta is    0.003854275022463
 Excitation Energies [eV] at current iteration:
 Root      1 :     3.525164315380244   Change is   -0.000049398529010
 Root      2 :     4.233228612684638   Change is   -0.000014550038597
 Root      3 :     5.161775403123730   Change is   -0.000041125831078
 Root      4 :     5.297385367881057   Change is   -0.000070629785103
 Root      5 :     5.734816382033330   Change is   -0.000083401657232
 Iteration     5 Dimension    50 NMult    40 NNew     10
 CISAX will form    10 AO SS matrices at one time.
 NMat=    10 NSing=    10 JSym2X= 0.
 Root      1 not converged, maximum delta is    0.000100139132130
 Root      2 not converged, maximum delta is    0.000075201950275
 Root      3 not converged, maximum delta is    0.000467844407682
 Root      4 not converged, maximum delta is    0.000512616029259
 Root      5 not converged, maximum delta is    0.003436538587261
 Excitation Energies [eV] at current iteration:
 Root      1 :     3.525161819568896   Change is   -0.000002495811348
 Root      2 :     4.233227317681062   Change is   -0.000001295003575
 Root      3 :     5.161770861474512   Change is   -0.000004541649217
 Root      4 :     5.297378082871281   Change is   -0.000007285009776
 Root      5 :     5.734790221487194   Change is   -0.000026160546135
 Iteration     6 Dimension    60 NMult    50 NNew     10
 CISAX will form    10 AO SS matrices at one time.
 NMat=    10 NSing=    10 JSym2X= 0.
 Root      1 not converged, maximum delta is    0.000029059630222
 Root      2 not converged, maximum delta is    0.000022393101472
 Root      3 not converged, maximum delta is    0.000136541991673
 Root      4 not converged, maximum delta is    0.000070742395052
 Root      5 not converged, maximum delta is    0.000929986729142
 Excitation Energies [eV] at current iteration:
 Root      1 :     3.525161678741499   Change is   -0.000000140827396
 Root      2 :     4.233227226609016   Change is   -0.000000091072046
 Root      3 :     5.161770227970380   Change is   -0.000000633504132
 Root      4 :     5.297377461445124   Change is   -0.000000621426156
 Root      5 :     5.734785478834632   Change is   -0.000004742652563
 Iteration     7 Dimension    70 NMult    60 NNew     10
 CISAX will form    10 AO SS matrices at one time.
 NMat=    10 NSing=    10 JSym2X= 0.
 Root      1 not converged, maximum delta is    0.000003146806242
 Root      2 not converged, maximum delta is    0.000005014600708
 Root      3 not converged, maximum delta is    0.000019630864992
 Root      4 not converged, maximum delta is    0.000020146565327
 Root      5 not converged, maximum delta is    0.000164778971787
 Excitation Energies [eV] at current iteration:
 Root      1 :     3.525161672102398   Change is   -0.000000006639101
 Root      2 :     4.233227221040644   Change is   -0.000000005568372
 Root      3 :     5.161770166853267   Change is   -0.000000061117114
 Root      4 :     5.297377390115391   Change is   -0.000000071329733
 Root      5 :     5.734784788210724   Change is   -0.000000690623908
 Iteration     8 Dimension    80 NMult    70 NNew     10
 CISAX will form    10 AO SS matrices at one time.
 NMat=    10 NSing=    10 JSym2X= 0.
 Root      1 has converged.
 Root      2 not converged, maximum delta is    0.000001224145665
 Root      3 not converged, maximum delta is    0.000004480888532
 Root      4 not converged, maximum delta is    0.000007284069510
 Root      5 not converged, maximum delta is    0.000020005293401
 Excitation Energies [eV] at current iteration:
 Root      1 :     3.525161671842751   Change is   -0.000000000259647
 Root      2 :     4.233227220603800   Change is   -0.000000000436844
 Root      3 :     5.161770160491170   Change is   -0.000000006362097
 Root      4 :     5.297377380208967   Change is   -0.000000009906424
 Root      5 :     5.734784692166966   Change is   -0.000000096043758
 Iteration     9 Dimension    88 NMult    80 NNew      8
 CISAX will form     8 AO SS matrices at one time.
 NMat=     8 NSing=     8 JSym2X= 0.
 Root      1 has converged.
 Root      2 has converged.
 Root      3 not converged, maximum delta is    0.000001547755552
 Root      4 not converged, maximum delta is    0.000001871883596
 Root      5 not converged, maximum delta is    0.000007884078716
 Excitation Energies [eV] at current iteration:
 Root      1 :     3.525161671841142   Change is   -0.000000000001609
 Root      2 :     4.233227220577273   Change is   -0.000000000026527
 Root      3 :     5.161770159804017   Change is   -0.000000000687153
 Root      4 :     5.297377378806681   Change is   -0.000000001402286
 Root      5 :     5.734784674362185   Change is   -0.000000017804781
 Iteration    10 Dimension    94 NMult    88 NNew      6
 CISAX will form     6 AO SS matrices at one time.
 NMat=     6 NSing=     6 JSym2X= 0.
 Root      1 has converged.
 Root      2 has converged.
 Root      3 has converged.
 Root      4 has converged.
 Root      5 not converged, maximum delta is    0.000002425357921
 Excitation Energies [eV] at current iteration:
 Root      1 :     3.525161671840839   Change is   -0.000000000000303
 Root      2 :     4.233227220576613   Change is   -0.000000000000660
 Root      3 :     5.161770159715355   Change is   -0.000000000088662
 Root      4 :     5.297377378616997   Change is   -0.000000000189683
 Root      5 :     5.734784670940992   Change is   -0.000000003421193
 Iteration    11 Dimension    96 NMult    94 NNew      2
 CISAX will form     2 AO SS matrices at one time.
 NMat=     2 NSing=     2 JSym2X= 0.
 Root      1 has converged.
 Root      2 has converged.
 Root      3 has converged.
 Root      4 has converged.
 Root      5 has converged.
 Excitation Energies [eV] at current iteration:
 Root      1 :     3.525161671840699   Change is   -0.000000000000140
 Root      2 :     4.233227220576613   Change is    0.000000000000000
 Root      3 :     5.161770159714973   Change is   -0.000000000000382
 Root      4 :     5.297377378615244   Change is   -0.000000000001754
 Root      5 :     5.734784670478319   Change is   -0.000000000462673
 Convergence achieved on expansion vectors.
 ***********************************************************************
 Excited states from <AA,BB:AA,BB> singles matrix:
 ***********************************************************************
 
 1PDM for each excited state written to RWF  633
 Ground to excited state transition densities written to RWF  633
 Ground to excited state transition electric dipole moments (Au):
       state          X           Y           Z        Dip. S.      Osc.
         1         3.1732     -0.1304     -0.0729     10.0913      0.8715
         2         0.5293     -0.6338      0.0339      0.6830      0.0708
         3        -0.6472      1.3030     -0.0784      2.1227      0.2684
         4         0.2089     -0.8739     -0.0525      0.8101      0.1051
         5        -0.1208      0.0267     -0.0309      0.0163      0.0023
 Ground to excited state transition velocity dipole moments (Au):
       state          X           Y           Z        Dip. S.      Osc.
         1        -0.3996      0.0136      0.0100      0.1600      0.8232
         2        -0.0807      0.0959     -0.0053      0.0157      0.0675
         3         0.1129     -0.2432      0.0141      0.0721      0.2534
         4        -0.0439      0.1650      0.0107      0.0293      0.1002
         5         0.0251     -0.0058      0.0068      0.0007      0.0022
 Ground to excited state transition magnetic dipole moments (Au):
       state          X           Y           Z
         1         0.0153     -0.0108      0.4019
         2        -0.0003     -0.0535     -0.6740
         3        -0.0070      0.0281      0.1974
         4         0.0285     -0.0508      0.1497
         5         0.1380     -0.0135     -0.0112
 Ground to excited state transition velocity quadrupole moments (Au):
       state          XX          YY          ZZ          XY          XZ          YZ
         1         0.2290     -0.0851     -0.0213      0.2860      0.0506     -0.0135
         2         0.0750      0.0245     -0.0023      0.0098      0.0130     -0.0076
         3        -0.0526     -0.1443      0.0184      0.5927     -0.0592      0.0167
         4        -1.5374      0.0987      0.0074      0.7089      0.1315     -0.0735
         5        -0.0274     -0.0055      0.0025     -0.0355      0.0214      0.0367
 <0|del|b> * <b|rxdel|0> + <0|del|b> * <b|delr+rdel|0>
 Rotatory Strengths (R) in cgs (10**-40 erg-esu-cm/Gauss)
       state          XX          YY          ZZ    R(velocity)    E-M Angle
         1        16.4295      1.0995    -29.9438     -4.1383       90.81
         2        -6.5559      9.6231    -10.1615     -2.3648       91.05
         3       -18.7790     -8.3649      9.1033     -6.0135       95.18
         4       -37.9980     -7.2554     16.0485     -9.7350      107.02
         5        -0.1894      7.6197      4.1813      3.8705       20.78
 1/2[<0|r|b>*<b|rxdel|0> + (<0|rxdel|b>*<b|r|0>)*]
 Rotatory Strengths (R) in cgs (10**-40 erg-esu-cm/Gauss)
       state          XX          YY          ZZ     R(length)
         1       -34.4387     -0.9970     20.7107     -4.9083
         2         0.1221    -23.9715     16.1664     -2.5610
         3        -3.2020    -25.9117     10.9404     -6.0578
         4        -4.2096    -31.4174      5.5607    -10.0221
         5        11.7867      0.2542     -0.2452      3.9319
  1/2[<0|del|b>*<b|r|0> + (<0|r|b>*<b|del|0>)*] (Au)
       state          X           Y           Z        Dip. S.   Osc.(frdel)
         1        -1.2680     -0.0018     -0.0007      1.2705      0.8470
         2        -0.0427     -0.0608     -0.0002      0.1037      0.0691
         3        -0.0731     -0.3169     -0.0011      0.3911      0.2607
         4        -0.0092     -0.1442     -0.0006      0.1539      0.1026
         5        -0.0030     -0.0002     -0.0002      0.0034      0.0023

 Excitation energies and oscillator strengths:
 
 Excited State   1:      Singlet-A      3.5252 eV  351.71 nm  f=0.8715  <S**2>=0.000
      47 -> 48         0.70443
 This state for optimization and/or second-order correction.
 Total Energy, E(TD-HF/TD-DFT) =  -557.325787920    
 Copying the excited state density for this state as the 1-particle RhoCI density.
 
 Excited State   2:      Singlet-A      4.2332 eV  292.88 nm  f=0.0708  <S**2>=0.000
      46 -> 48         0.68452
      47 -> 49        -0.16915
 
 Excited State   3:      Singlet-A      5.1618 eV  240.20 nm  f=0.2684  <S**2>=0.000
      46 -> 48        -0.16718
      47 -> 49        -0.67436
 
 Excited State   4:      Singlet-A      5.2974 eV  234.05 nm  f=0.1051  <S**2>=0.000
      45 -> 48         0.69706
 
 Excited State   5:      Singlet-A      5.7348 eV  216.20 nm  f=0.0023  <S**2>=0.000
      41 -> 48         0.11828
      44 -> 48         0.69017
 SavETr:  write IOETrn=   770 NScale= 10 NData=  16 NLR=1 NState=    5 LETran=     100.
 The selected state is a singlet.
 CISGrd: IGrad=2 NXY=2 DFT=T
 CISAX will form     1 AO SS matrices at one time.
 NMat=     1 NSing=     1 JSym2X= 0.
 GePol: Maximum number of non-zero 1st derivatives   =     254
 Leave Link  914 at Wed Aug 12 14:23:54 2026, MaxMem=   104857600 cpu:            1021.5 elap:            1028.1
 (Enter /opt/packages/gaussian/g16RevC.01/g16/l1002.exe)
 Minotr:  Closed shell wavefunction.
          Computing CIS/TDA/TD derivatives.
          Using Z-Vector for PSCF gradient.
          Skipping F1 and S1 gradient terms here.
          IDoAtm=111111111111111111111111111
 NEqPCM:  Using equilibrium solvation (IEInf=0, Eps=  32.6130, EpsInf=   1.7657)
          Frozen-core window.
          Direct CPHF calculation.
          Differentiating once with respect to electric field.
                with respect to dipole field.
          Differentiating once with respect to nuclear coordinates.
          Requested convergence is 1.0D-10 RMS, and 1.0D-09 maximum.
          NewPWx=F KeepS1=T KeepF1=T KeepIn=T MapXYZ=F SortEE=F KeepMc=T.
 Two-electron integral symmetry used by symmetrizing perturbed Fock matrices.
          MDV=     104857600 using IRadAn=       5.
          Solving linear equations separately, MaxMat=     384.
          There are     1 degrees of freedom in the 1st order CPHF.  IDoFFX=0 NUNeed=     1.
 FoFJK:  IHMeth= 1 ICntrl=       0 DoSepK=F KAlg= 0 I1Cent=           0 FoldK=F
 IRaf= 900000000 NMat=       1 IRICut=       1 DoRegI=T DoRafI=F ISym2E=-1 IDoP0=0 IntGTp=1.
 FoFCou: FMM=F IPFlag=           0 FMFlag=      100000 FMFlg1=           0
         NFxFlg=           0 DoJE=F BraDBF=F KetDBF=F FulRan=T
         wScrn=  0.000000 ICntrl=         0 IOpCl=  0 I1Cent=           0 NGrid=           0
         NMat0=    1 NMatS0=      1 NMatT0=    0 NMatD0=    1 NMtDS0=    0 NMtDT0=    0
 Petite list used in FoFCou.
 LinEq1:  Iter=  0 NonCon=     1 RMS=9.49D-03 Max=6.43D-01 NDo=     1
 AX will form     1 AO Fock derivatives at one time.
 LinEq1:  Iter=  1 NonCon=     1 RMS=3.73D-03 Max=2.62D-01 NDo=     1
 LinEq1:  Iter=  2 NonCon=     1 RMS=2.85D-03 Max=1.36D-01 NDo=     1
 LinEq1:  Iter=  3 NonCon=     1 RMS=6.60D-04 Max=2.09D-02 NDo=     1
 LinEq1:  Iter=  4 NonCon=     1 RMS=4.31D-04 Max=1.37D-02 NDo=     1
 LinEq1:  Iter=  5 NonCon=     1 RMS=2.09D-04 Max=8.40D-03 NDo=     1
 LinEq1:  Iter=  6 NonCon=     1 RMS=9.59D-05 Max=2.54D-03 NDo=     1
 LinEq1:  Iter=  7 NonCon=     1 RMS=5.48D-05 Max=1.93D-03 NDo=     1
 LinEq1:  Iter=  8 NonCon=     1 RMS=3.34D-05 Max=9.49D-04 NDo=     1
 LinEq1:  Iter=  9 NonCon=     1 RMS=1.52D-05 Max=5.96D-04 NDo=     1
 LinEq1:  Iter= 10 NonCon=     1 RMS=1.06D-05 Max=3.54D-04 NDo=     1
 LinEq1:  Iter= 11 NonCon=     1 RMS=4.05D-06 Max=1.21D-04 NDo=     1
 LinEq1:  Iter= 12 NonCon=     1 RMS=1.88D-06 Max=4.16D-05 NDo=     1
 LinEq1:  Iter= 13 NonCon=     1 RMS=6.92D-07 Max=1.38D-05 NDo=     1
 LinEq1:  Iter= 14 NonCon=     1 RMS=4.04D-07 Max=1.02D-05 NDo=     1
 LinEq1:  Iter= 15 NonCon=     1 RMS=1.11D-07 Max=2.38D-06 NDo=     1
 LinEq1:  Iter= 16 NonCon=     1 RMS=5.95D-08 Max=2.14D-06 NDo=     1
 LinEq1:  Iter= 17 NonCon=     1 RMS=2.18D-08 Max=5.17D-07 NDo=     1
 LinEq1:  Iter= 18 NonCon=     1 RMS=1.24D-08 Max=5.01D-07 NDo=     1
 LinEq1:  Iter= 19 NonCon=     1 RMS=4.40D-09 Max=7.47D-08 NDo=     1
 LinEq1:  Iter= 20 NonCon=     1 RMS=2.61D-09 Max=9.99D-08 NDo=     1
 LinEq1:  Iter= 21 NonCon=     1 RMS=9.45D-10 Max=1.45D-08 NDo=     1
 LinEq1:  Iter= 22 NonCon=     1 RMS=2.44D-10 Max=6.01D-09 NDo=     1
 LinEq1:  Iter= 23 NonCon=     1 RMS=1.05D-10 Max=1.74D-09 NDo=     1
 LinEq1:  Iter= 24 NonCon=     1 RMS=3.75D-11 Max=1.07D-09 NDo=     1
 LinEq1:  Iter= 25 NonCon=     0 RMS=1.47D-11 Max=2.84D-10 NDo=     1
 Linear equations converged to 1.000D-10 1.000D-09 after    25 iterations.
 End of Minotr F.D. properties file   721 does not exist.
 End of Minotr F.D. properties file   722 does not exist.
 End of Minotr F.D. properties file   788 does not exist.
 Leave Link 1002 at Wed Aug 12 14:30:43 2026, MaxMem=   104857600 cpu:             407.5 elap:             408.6
 (Enter /opt/packages/gaussian/g16RevC.01/g16/l701.exe)
 ... and contract with generalized density number  6.
 Compute integral first derivatives.
 D1PCM: PCM CHGder 1st derivatives, ID1Alg=3 FixD1E=F DoIter=F DoCFld=F I1PDM=6.
 Leave Link  701 at Wed Aug 12 14:30:52 2026, MaxMem=   104857600 cpu:               9.0 elap:               9.1
 (Enter /opt/packages/gaussian/g16RevC.01/g16/l702.exe)
 L702 exits ... SP integral derivatives will be done elsewhere.
 Leave Link  702 at Wed Aug 12 14:30:52 2026, MaxMem=   104857600 cpu:               0.0 elap:               0.0
 (Enter /opt/packages/gaussian/g16RevC.01/g16/l703.exe)
 Integral derivatives from FoFJK, PRISM(SPDF).
 Compute integral first derivatives, UseDBF=F ICtDFT=           0.
 Calling FoFJK, ICntrl=  10005127 FMM=F ISym2X=0 I1Cent= 0 IOpClX= 0 NMat=1 NMatS=1 NMatT=0.
 FoFJK:  IHMeth= 1 ICntrl=10005127 DoSepK=F KAlg= 0 I1Cent=           0 FoldK=F
 IRaf=         0 NMat=       1 IRICut=       1 DoRegI=T DoRafI=F ISym2E= 0 IDoP0=0 IntGTp=1.
 FoFCou: FMM=F IPFlag=           0 FMFlag=      100000 FMFlg1=         800
         NFxFlg=           0 DoJE=F BraDBF=F KetDBF=F FulRan=T
         wScrn=  0.000000 ICntrl=  10005127 IOpCl=  0 I1Cent=           0 NGrid=           0
         NMat0=    1 NMatS0=      1 NMatT0=    0 NMatD0=    1 NMtDS0=    0 NMtDT0=    0
 Symmetry not used in FoFCou.
 Leave Link  703 at Wed Aug 12 14:31:39 2026, MaxMem=   104857600 cpu:              47.0 elap:              47.2
 (Enter /opt/packages/gaussian/g16RevC.01/g16/l716.exe)
 Dipole        = 5.00781214D-02-1.10710644D+00-2.13155723D-01
 ***** Axes restored to original set *****
 -------------------------------------------------------------------
 Center     Atomic                   Forces (Hartrees/Bohr)
 Number     Number              X              Y              Z
 -------------------------------------------------------------------
      1        6          -0.000023541    0.000145523    0.000074736
      2        6           0.000015935   -0.000039882   -0.000032634
      3        6          -0.000153037    0.000107310   -0.000009047
      4        6          -0.000362425   -0.000010546   -0.000111296
      5        6           0.000030436   -0.000073527    0.000056198
      6        6          -0.000093204   -0.000080545    0.000052832
      7        1           0.000002650    0.000003921   -0.000048615
      8        1          -0.000010425    0.000009267    0.000035023
      9        1           0.000270623   -0.000007945    0.000195160
     10        1          -0.000005411    0.000012610    0.000015087
     11        8           0.000063377   -0.000004653   -0.000029036
     12        6           0.000007300   -0.000017341   -0.000031248
     13        1          -0.000015238    0.000029185   -0.000000432
     14        1           0.000003793   -0.000011433    0.000014283
     15        1           0.000000352    0.000009376   -0.000017254
     16        6           0.000350391    0.000027583    0.000103610
     17        6          -0.000067650    0.000079325   -0.000080183
     18        7           0.000092125   -0.000057068    0.000236148
     19        6           0.000058555   -0.000048887    0.000009334
     20        6           0.000017612   -0.000005183   -0.000062948
     21        1           0.000060080   -0.000014699   -0.000041493
     22        1           0.000033005    0.000000553   -0.000022460
     23        1           0.000005502   -0.000002156    0.000035009
     24        1          -0.000003933    0.000007681    0.000030420
     25        1          -0.000020437    0.000022330    0.000012388
     26        1           0.000006206   -0.000006261    0.000005041
     27        1          -0.000262640   -0.000074539   -0.000388624
 -------------------------------------------------------------------
 Cartesian Forces:  Max     0.000388624 RMS     0.000100959
 Leave Link  716 at Wed Aug 12 14:31:39 2026, MaxMem=   104857600 cpu:               0.0 elap:               0.0
 (Enter /opt/packages/gaussian/g16RevC.01/g16/l103.exe)

 GradGradGradGradGradGradGradGradGradGradGradGradGradGradGradGradGradGrad
 Berny optimization.
 Using GEDIIS/GDIIS optimizer.
 FormGI is forming the generalized inverse of G from B-inverse, IUseBI=4.
 GSVD:  received Info=                   1 from GESDD.
 Internal  Forces:  Max     0.000431781 RMS     0.000097673
 Search for a local minimum.
 Step number   2 out of a maximum of  154
 All quantities printed in internal units (Hartrees-Bohrs-Radians)
 RMS Force = .97673D-04 SwitMx=.10000D-02 MixMth= 2
 Mixed Optimization -- En-DIIS/RFO-DIIS
 Swapping is turned off.
 Update second derivatives using D2CorX and points    1    2
 DE= -1.63D-04 DEPred=-1.56D-04 R= 1.05D+00
 TightC=F SS=  1.41D+00  RLast= 2.05D-01 DXNew= 5.0454D-02 6.1526D-01
 Trust test= 1.05D+00 RLast= 2.05D-01 DXMaxT set to 5.05D-02
 ITU=  1  0
     Eigenvalues ---    0.00203   0.00255   0.00494   0.00514   0.00565
     Eigenvalues ---    0.00653   0.00800   0.01357   0.01589   0.01718
     Eigenvalues ---    0.01811   0.01912   0.02295   0.02346   0.02533
     Eigenvalues ---    0.02615   0.02814   0.03114   0.04158   0.04428
     Eigenvalues ---    0.04537   0.05740   0.05930   0.06845   0.07189
     Eigenvalues ---    0.07685   0.08331   0.08498   0.09020   0.09543
     Eigenvalues ---    0.10902   0.11073   0.11787   0.11998   0.12796
     Eigenvalues ---    0.13280   0.15979   0.18028   0.18240   0.18743
     Eigenvalues ---    0.19240   0.19405   0.19908   0.20506   0.23320
     Eigenvalues ---    0.23528   0.23996   0.25086   0.27975   0.28378
     Eigenvalues ---    0.29923   0.30341   0.31966   0.32656   0.32779
     Eigenvalues ---    0.33702   0.33950   0.33969   0.34503   0.34738
     Eigenvalues ---    0.34967   0.35147   0.36034   0.36528   0.36597
     Eigenvalues ---    0.36877   0.37294   0.38105   0.38233   0.39251
     Eigenvalues ---    0.41844   0.45829   0.48326   0.50381   0.54160
 En-DIIS/RFO-DIIS/Sim-DIIS IScMMF=       -3 using points:     2    1
 RFO step:  Lambda=-5.94768272D-05.
 NNeg= 0 NGDIIS= 2 SimSw=  2.50D-03 Rises=F DC= -1.63D-04 SmlDif=  1.00D-05
 NRisDI= 0 DoIntr=F SqrtH=F CThrHd= 10.0 CDAdj=  3.0
 RMS Error=  0.1035696158D-01 NUsed= 2 OKEnD=T EnDIS=F
 InvSVX:  RCond= 1.00D-02 Info=           0 Equed=N FErr=  2.12D-15 BErr=  2.56D-17
 DidBck=F Rises=F RFO-DIIS coefs:    1.28982   -0.28982
 Iteration  1 RMS(Cart)=  0.02430319 RMS(Int)=  0.00027498
 Iteration  2 RMS(Cart)=  0.00034130 RMS(Int)=  0.00005110
 Iteration  3 RMS(Cart)=  0.00000011 RMS(Int)=  0.00005110
 ITry= 1 IFail=0 DXMaxC= 1.27D-01 DCOld= 1.00D+10 DXMaxT= 5.05D-02 DXLimC= 3.00D+00 Rises=F
 Variable       Old X    -DE/DX   Delta X   Delta X   Delta X     New X
                                 (Linear)    (Quad)   (Total)
    R1        2.67317   0.00005   0.00023   0.00016   0.00039   2.67356
    R2        2.71355  -0.00006  -0.00008  -0.00030  -0.00038   2.71317
    R3        2.52832  -0.00007   0.00004  -0.00030  -0.00026   2.52806
    R4        2.61087  -0.00002  -0.00001  -0.00008  -0.00009   2.61078
    R5        2.04907   0.00000  -0.00000  -0.00001  -0.00001   2.04906
    R6        2.74010  -0.00017  -0.00046  -0.00077  -0.00123   2.73887
    R7        2.04948   0.00014   0.00001   0.00025   0.00026   2.04974
    R8        2.69632  -0.00006   0.00006  -0.00106  -0.00100   2.69532
    R9        2.72293   0.00027  -0.00045   0.00148   0.00103   2.72395
   R10        2.60587   0.00007  -0.00015   0.00043   0.00028   2.60615
   R11        2.04975   0.00000   0.00005   0.00011   0.00016   2.04992
   R12        2.05176   0.00000   0.00001   0.00001   0.00002   2.05179
   R13        2.72199   0.00001   0.00005   0.00000   0.00005   2.72204
   R14        2.07000  -0.00002  -0.00003  -0.00004  -0.00007   2.06993
   R15        2.07044   0.00001   0.00002  -0.00003  -0.00001   2.07043
   R16        2.05883   0.00000   0.00000   0.00000   0.00000   2.05883
   R17        2.83521   0.00004  -0.00022  -0.00057  -0.00080   2.83441
   R18        2.56980  -0.00002  -0.00008   0.00111   0.00108   2.57088
   R19        2.92483   0.00008  -0.00014   0.00001  -0.00018   2.92465
   R20        2.07160  -0.00005   0.00008  -0.00025  -0.00017   2.07144
   R21        2.08454   0.00002   0.00017   0.00026   0.00043   2.08498
   R22        2.75855   0.00004   0.00009   0.00123   0.00137   2.75993
   R23        1.91935   0.00025   0.00002   0.00108   0.00110   1.92045
   R24        2.90526   0.00005   0.00007  -0.00025  -0.00022   2.90504
   R25        2.08443  -0.00003  -0.00004  -0.00025  -0.00029   2.08414
   R26        2.06938   0.00000   0.00004   0.00007   0.00011   2.06950
   R27        2.07040   0.00001   0.00000   0.00008   0.00008   2.07049
   R28        2.06496  -0.00000   0.00001   0.00000   0.00001   2.06497
    A1        2.09588   0.00000   0.00021   0.00021   0.00040   2.09628
    A2        2.18467  -0.00002  -0.00021  -0.00007  -0.00027   2.18440
    A3        2.00263   0.00001  -0.00000  -0.00014  -0.00013   2.00250
    A4        2.08465  -0.00006  -0.00006  -0.00059  -0.00066   2.08399
    A5        2.10769   0.00002  -0.00004   0.00019   0.00015   2.10784
    A6        2.09084   0.00004   0.00010   0.00041   0.00051   2.09135
    A7        2.11935   0.00005  -0.00032   0.00019  -0.00014   2.11921
    A8        2.06523   0.00022   0.00084   0.00213   0.00297   2.06821
    A9        2.09860  -0.00027  -0.00052  -0.00233  -0.00284   2.09575
   A10        2.05924   0.00005   0.00055   0.00069   0.00120   2.06045
   A11        2.13269  -0.00042  -0.00004  -0.00229  -0.00234   2.13035
   A12        2.09122   0.00037  -0.00050   0.00162   0.00111   2.09233
   A13        2.10736  -0.00005  -0.00023  -0.00053  -0.00077   2.10659
   A14        2.09290   0.00004  -0.00030   0.00015  -0.00015   2.09275
   A15        2.08292   0.00001   0.00053   0.00039   0.00093   2.08385
   A16        2.09977   0.00001  -0.00015   0.00010  -0.00007   2.09970
   A17        2.06531  -0.00000  -0.00002  -0.00007  -0.00008   2.06523
   A18        2.11810  -0.00001   0.00017  -0.00002   0.00015   2.11825
   A19        2.10278  -0.00001   0.00023   0.00008   0.00031   2.10310
   A20        1.91875   0.00000   0.00006  -0.00014  -0.00008   1.91867
   A21        1.91795   0.00001   0.00002   0.00022   0.00024   1.91820
   A22        1.83631  -0.00001  -0.00004  -0.00006  -0.00010   1.83621
   A23        1.92738  -0.00000  -0.00003   0.00005   0.00002   1.92740
   A24        1.93145   0.00000   0.00011  -0.00008   0.00003   1.93148
   A25        1.93009  -0.00001  -0.00013   0.00001  -0.00012   1.92997
   A26        2.22976   0.00036  -0.00044   0.00174   0.00118   2.23094
   A27        2.14326  -0.00043   0.00025  -0.00297  -0.00284   2.14041
   A28        1.91008   0.00008   0.00023   0.00134   0.00163   1.91170
   A29        1.79954  -0.00009  -0.00057  -0.00106  -0.00163   1.79792
   A30        1.96632   0.00005  -0.00044   0.00147   0.00104   1.96736
   A31        1.92547   0.00005   0.00017  -0.00046  -0.00030   1.92518
   A32        1.96864  -0.00003   0.00108   0.00038   0.00145   1.97009
   A33        1.94254   0.00003  -0.00031  -0.00065  -0.00094   1.94160
   A34        1.86287  -0.00001   0.00004   0.00027   0.00031   1.86318
   A35        1.96874  -0.00001  -0.00042  -0.00214  -0.00269   1.96605
   A36        2.16308  -0.00017   0.00010  -0.00565  -0.00592   2.15716
   A37        2.11449   0.00016   0.00027  -0.00359  -0.00371   2.11078
   A38        1.78939  -0.00002  -0.00018  -0.00008  -0.00019   1.78921
   A39        1.91245   0.00003   0.00015   0.00006   0.00020   1.91265
   A40        1.92887  -0.00001   0.00003  -0.00002  -0.00002   1.92884
   A41        1.95176  -0.00008  -0.00010   0.00019   0.00007   1.95183
   A42        1.99792   0.00007   0.00017  -0.00045  -0.00029   1.99763
   A43        1.88182   0.00001  -0.00007   0.00029   0.00023   1.88205
   A44        1.81256   0.00004  -0.00042  -0.00016  -0.00062   1.81194
   A45        1.91884  -0.00003   0.00015  -0.00053  -0.00036   1.91848
   A46        1.96870  -0.00001   0.00009   0.00036   0.00045   1.96915
   A47        1.91471   0.00002   0.00003   0.00031   0.00034   1.91505
   A48        1.95593  -0.00002  -0.00003   0.00006   0.00005   1.95597
   A49        1.89211   0.00001   0.00017  -0.00004   0.00012   1.89222
    D1        0.00870  -0.00006   0.00277  -0.00462  -0.00185   0.00685
    D2       -3.13019  -0.00004   0.00356  -0.00602  -0.00246  -3.13265
    D3       -3.13570  -0.00011   0.00210  -0.00471  -0.00261  -3.13831
    D4        0.00859  -0.00009   0.00289  -0.00611  -0.00322   0.00537
    D5        0.00340   0.00006  -0.00116   0.00596   0.00480   0.00819
    D6       -3.13815  -0.00000  -0.00106   0.00380   0.00274  -3.13541
    D7       -3.13567   0.00010  -0.00056   0.00604   0.00548  -3.13018
    D8        0.00597   0.00004  -0.00045   0.00388   0.00343   0.00940
    D9        0.01219  -0.00003   0.00330  -0.00117   0.00213   0.01433
   D10       -3.13208  -0.00007   0.00267  -0.00126   0.00141  -3.13067
   D11       -0.01042  -0.00002   0.00010  -0.00472  -0.00462  -0.01503
   D12        3.12848  -0.00004  -0.00089  -0.00748  -0.00837   3.12011
   D13        3.12850  -0.00004  -0.00068  -0.00334  -0.00402   3.12448
   D14       -0.01579  -0.00006  -0.00167  -0.00610  -0.00777  -0.02356
   D15        0.00031   0.00010  -0.00447   0.01256   0.00810   0.00841
   D16       -3.13307   0.00009   0.00133   0.01047   0.01180  -3.12127
   D17       -3.13853   0.00012  -0.00346   0.01536   0.01190  -3.12663
   D18        0.01127   0.00011   0.00234   0.01327   0.01560   0.02687
   D19        0.01194  -0.00010   0.00608  -0.01117  -0.00509   0.00685
   D20       -3.13299  -0.00004   0.00397  -0.00750  -0.00352  -3.13651
   D21       -3.13766  -0.00010   0.00042  -0.00914  -0.00872   3.13680
   D22        0.00059  -0.00003  -0.00168  -0.00547  -0.00715  -0.00656
   D23       -3.03201   0.00010   0.01632   0.01555   0.03188  -3.00013
   D24        0.12550   0.00016   0.02895   0.00557   0.03451   0.16002
   D25        0.11794   0.00009   0.02222   0.01342   0.03564   0.15358
   D26       -3.00773   0.00015   0.03485   0.00344   0.03828  -2.96945
   D27       -0.01377   0.00003  -0.00337   0.00222  -0.00115  -0.01492
   D28        3.12777   0.00009  -0.00348   0.00445   0.00097   3.12874
   D29        3.13114  -0.00004  -0.00128  -0.00143  -0.00271   3.12843
   D30       -0.01050   0.00002  -0.00139   0.00080  -0.00059  -0.01109
   D31        1.04320   0.00004  -0.00400   0.00530   0.00130   1.04450
   D32       -1.08163   0.00003  -0.00402   0.00518   0.00117  -1.08046
   D33        3.12339   0.00004  -0.00385   0.00509   0.00124   3.12462
   D34        2.91734  -0.00002   0.00830  -0.01011  -0.00183   2.91551
   D35        0.78996   0.00004   0.00759  -0.01068  -0.00310   0.78686
   D36       -1.28990  -0.00001   0.00771  -0.01167  -0.00397  -1.29387
   D37       -0.23844  -0.00007  -0.00295  -0.00125  -0.00422  -0.24266
   D38       -2.36582  -0.00001  -0.00367  -0.00182  -0.00549  -2.37131
   D39        1.83750  -0.00006  -0.00354  -0.00281  -0.00636   1.83114
   D40        3.04362   0.00005  -0.00874   0.00748  -0.00125   3.04237
   D41        0.18863   0.00009  -0.00862   0.05112   0.04244   0.23107
   D42       -0.08463   0.00009   0.00183  -0.00090   0.00095  -0.08368
   D43       -2.93962   0.00014   0.00195   0.04274   0.04464  -2.89497
   D44        0.44669   0.00003   0.00291   0.00293   0.00583   0.45252
   D45       -1.60086   0.00001   0.00303   0.00291   0.00594  -1.59492
   D46        2.56828   0.00002   0.00264   0.00310   0.00574   2.57402
   D47        2.57250   0.00002   0.00259   0.00424   0.00682   2.57932
   D48        0.52495  -0.00000   0.00272   0.00421   0.00693   0.53188
   D49       -1.58909   0.00001   0.00233   0.00440   0.00673  -1.58236
   D50       -1.61736   0.00001   0.00317   0.00438   0.00755  -1.60981
   D51        2.61828  -0.00002   0.00330   0.00436   0.00766   2.62594
   D52        0.50424   0.00000   0.00291   0.00455   0.00745   0.51169
   D53        0.37059  -0.00007   0.00014   0.00276   0.00289   0.37348
   D54       -1.70456   0.00002   0.00029   0.00256   0.00282  -1.70173
   D55        2.50733  -0.00001   0.00026   0.00218   0.00243   2.50976
   D56       -3.04862  -0.00017  -0.00000  -0.03991  -0.03991  -3.08853
   D57        1.15942  -0.00009   0.00014  -0.04011  -0.03998   1.11945
   D58       -0.91187  -0.00011   0.00011  -0.04049  -0.04037  -0.95224
   D59       -0.48991   0.00000  -0.00202  -0.00377  -0.00581  -0.49571
   D60        1.56051  -0.00000  -0.00206  -0.00433  -0.00640   1.55411
   D61       -2.62001   0.00000  -0.00185  -0.00413  -0.00599  -2.62599
   D62        1.55742  -0.00000  -0.00199  -0.00366  -0.00565   1.55176
   D63       -2.67535  -0.00001  -0.00203  -0.00422  -0.00624  -2.68160
   D64       -0.57268  -0.00001  -0.00182  -0.00402  -0.00583  -0.57851
   D65       -2.57918  -0.00001  -0.00203  -0.00346  -0.00551  -2.58469
   D66       -0.52876  -0.00001  -0.00207  -0.00402  -0.00610  -0.53486
   D67        1.57391  -0.00001  -0.00186  -0.00382  -0.00569   1.56822
         Item               Value     Threshold  Converged?
 Maximum Force            0.000432     0.000450     YES
 RMS     Force            0.000098     0.000300     YES
 Maximum Displacement     0.127439     0.001800     NO 
 RMS     Displacement     0.024314     0.001200     NO 
 Predicted change in Energy=-3.020026D-05
 Lowest energy point so far.  Saving SCF results.
 GradGradGradGradGradGradGradGradGradGradGradGradGradGradGradGradGradGrad

 Leave Link  103 at Wed Aug 12 14:31:39 2026, MaxMem=   104857600 cpu:               0.0 elap:               0.0
 (Enter /opt/packages/gaussian/g16RevC.01/g16/l202.exe)
                          Input orientation:                          
 ---------------------------------------------------------------------
 Center     Atomic      Atomic             Coordinates (Angstroms)
 Number     Number       Type             X           Y           Z
 ---------------------------------------------------------------------
      1          6           0       -2.492491    0.244469   -0.028844
      2          6           0       -1.868299   -1.019077    0.095492
      3          6           0       -0.488978   -1.095230    0.115318
      4          6           0        0.335083    0.090750   -0.007102
      5          6           0       -0.318963    1.351334   -0.139357
      6          6           0       -1.695631    1.433446   -0.141665
      7          1           0       -2.204683    2.388415   -0.229811
      8          1           0       -2.459588   -1.924667    0.173098
      9          1           0       -0.026031   -2.069235    0.231564
     10          1           0        0.268663    2.257827   -0.237791
     11          8           0       -3.813875    0.451479   -0.056819
     12          6           0       -4.729693   -0.654116    0.060714
     13          1           0       -4.571381   -1.170453    1.013681
     14          1           0       -4.588786   -1.345887   -0.777133
     15          1           0       -5.722821   -0.207513    0.025735
     16          6           0        1.775010    0.024694   -0.012840
     17          6           0        2.748280    1.164914    0.035770
     18          7           0        2.455256   -1.151110   -0.087534
     19          6           0        3.897841   -0.959354   -0.210852
     20          6           0        4.093214    0.462339    0.340370
     21          1           0        2.481218    1.917828    0.786344
     22          1           0        2.779514    1.683390   -0.937641
     23          1           0        4.191117   -1.031884   -1.271545
     24          1           0        4.436893   -1.737284    0.340109
     25          1           0        4.255499    0.420077    1.423114
     26          1           0        4.947921    0.966315   -0.117399
     27          1           0        2.022620   -2.036205   -0.336965
 ---------------------------------------------------------------------
                    Distance matrix (angstroms):
                    1          2          3          4          5
     1  C    0.000000
     2  C    1.414787   0.000000
     3  C    2.414465   1.381564   0.000000
     4  C    2.831832   2.469237   1.449349   0.000000
     5  C    2.441636   2.841556   2.465653   1.426303   0.000000
     6  C    1.435750   2.470005   2.813584   2.438183   1.379117
     7  H    2.172493   3.439473   3.898531   3.432095   2.153987
     8  H    2.178765   1.084315   2.138833   3.450299   3.925823
     9  H    3.391823   2.124924   1.084675   2.202930   3.453069
    10  H    3.423629   3.926293   3.455677   2.180333   1.084768
    11  O    1.337794   2.443563   3.671087   4.164907   3.609843
    12  C    2.412582   2.884785   4.263945   5.119705   4.849371
    13  H    2.722250   2.858782   4.180756   5.167786   5.076609
    14  H    2.735621   2.875644   4.203299   5.186652   5.090496
    15  H    3.262254   3.939650   5.309348   6.065331   5.626628
    16  C    4.273186   3.791424   2.529090   1.441453   2.482077
    17  C    5.321379   5.107464   3.948977   2.641815   3.077889
    18  N    5.141137   4.329441   2.951743   2.458419   3.736470
    19  C    6.505280   5.774581   4.401027   3.719877   4.808933
    20  C    6.599644   6.147699   4.844911   3.792409   4.526340
    21  H    5.310596   5.293485   4.283790   2.928082   3.003140
    22  H    5.539895   5.474747   4.417295   3.062295   3.216843
    23  H    6.916935   6.211721   4.881669   4.210478   5.225169
    24  H    7.216636   6.350678   4.972622   4.504122   5.691012
    25  H    6.904664   6.429203   5.149423   4.186125   4.922831
    26  H    7.475870   7.102673   5.819278   4.696494   5.280984
    27  H    5.067804   4.044851   2.719948   2.735055   4.122800
                    6          7          8          9         10
     6  C    0.000000
     7  H    1.085758   0.000000
     8  H    3.458270   4.339354   0.000000
     9  H    3.898159   4.982975   2.438549   0.000000
    10  H    2.132439   2.476804   5.010533   4.362408   0.000000
    11  O    2.336325   2.524113   2.744636   4.559049   4.467971
    12  C    3.688415   3.964477   2.603902   4.914895   5.792416
    13  H    4.047845   4.451188   2.394804   4.698906   6.061791
    14  H    4.061878   4.464137   2.402375   4.728576   6.072269
    15  H    4.351899   4.379662   3.690396   5.996815   6.484229
    16  C    3.747870   4.633812   4.665448   2.772728   2.703067
    17  C    4.455551   5.108750   6.056919   4.265543   2.723563
    18  N    4.890064   5.853505   4.982170   2.664876   4.052730
    19  C    6.084177   6.960512   6.441751   4.101749   4.849940
    20  C    5.889494   6.610475   6.976030   4.836206   4.264415
    21  H    4.306030   4.817851   6.289070   4.742441   2.461676
    22  H    4.552250   5.083336   6.457555   4.829112   2.669109
    23  H    6.481379   7.327340   6.864105   4.595625   5.222690
    24  H    6.920512   7.839435   6.901048   4.476568   5.802501
    25  H    6.236297   6.952731   7.221687   5.093915   4.693698
    26  H    6.659999   7.293473   7.956969   5.837511   4.855713
    27  H    5.089401   6.120362   4.512515   2.126332   4.639494
                   11         12         13         14         15
    11  O    0.000000
    12  C    1.440444   0.000000
    13  H    2.085773   1.095359   0.000000
    14  H    2.085632   1.095622   1.799470   0.000000
    15  H    2.021178   1.089486   1.796971   1.796253   0.000000
    16  C    5.605330   6.540440   6.539021   6.554428   7.501525
    17  C    6.601473   7.696075   7.745171   7.797273   8.581562
    18  N    6.470800   7.203644   7.112431   7.080396   8.233113
    19  C    7.841221   8.637203   8.559893   8.514278   9.652895
    20  C    7.917066   8.897661   8.842769   8.938435   9.843894
    21  H    6.518381   7.690167   7.702487   7.942370   8.508928
    22  H    6.765075   7.927726   8.123283   7.968320   8.763179
    23  H    8.231392   9.027650   9.056645   8.799416  10.032382
    24  H    8.545374   9.234588   9.051187   9.102983  10.279047
    25  H    8.204023   9.151159   8.978376   9.283377  10.095217
    26  H    8.777118   9.813956   9.821518   9.835156  10.736065
    27  H    6.350727   6.903771   6.786355   6.661904   7.966650
                   16         17         18         19         20
    16  C    0.000000
    17  C    1.499907   0.000000
    18  N    1.360452   2.337742   0.000000
    19  C    2.348185   2.427927   1.460489   0.000000
    20  C    2.385448   1.547657   2.338638   1.537280   0.000000
    21  H    2.172874   1.096158   3.191037   3.358482   2.217176
    22  H    2.148385   1.103323   2.976948   2.960233   2.202291
    23  H    2.922031   2.935434   2.104592   1.102878   2.200127
    24  H    3.211660   3.371467   2.110299   1.095130   2.226310
    25  H    2.893289   2.179729   2.826935   2.168086   1.095654
    26  H    3.311336   2.213893   3.270743   2.195360   1.092734
    27  H    2.100873   3.303434   1.016259   2.166095   3.314946
                   21         22         23         24         25
    21  H    0.000000
    22  H    1.765238   0.000000
    23  H    3.982393   3.078445   0.000000
    24  H    4.169368   4.010058   1.776352   0.000000
    25  H    2.407656   3.057394   3.061621   2.420745   0.000000
    26  H    2.794057   2.426722   2.428498   2.789249   1.775107
    27  H    4.136001   3.843057   2.566024   2.525173   3.757253
                   26         27
    26  H    0.000000
    27  H    4.197704   0.000000
 Stoichiometry    C11H14NO(1+)
 Framework group  C1[X(C11H14NO)]
 Deg. of freedom    75
 Full point group                 C1      NOp   1
 RotChk:  IX=0 Diff= 5.66D-03
 Largest Abelian subgroup         C1      NOp   1
 Largest concise Abelian subgroup C1      NOp   1
                         Standard orientation:                         
 ---------------------------------------------------------------------
 Center     Atomic      Atomic             Coordinates (Angstroms)
 Number     Number       Type             X           Y           Z
 ---------------------------------------------------------------------
      1          6           0       -2.492714    0.245724   -0.015024
      2          6           0       -1.868327   -1.019447    0.090357
      3          6           0       -0.488966   -1.095972    0.105327
      4          6           0        0.334891    0.091503   -0.003204
      5          6           0       -0.319372    1.353823   -0.116461
      6          6           0       -1.696032    1.436065   -0.113840
      7          1           0       -2.205215    2.392187   -0.187558
      8          1           0       -2.459504   -1.925965    0.157254
      9          1           0       -0.025811   -2.071506    0.207009
     10          1           0        0.268084    2.261526   -0.204162
     11          8           0       -3.814147    0.453199   -0.036519
     12          6           0       -4.729764   -0.653823    0.068474
     13          1           0       -4.568876   -1.183108    1.013876
     14          1           0       -4.591255   -1.334125   -0.779106
     15          1           0       -5.722933   -0.206708    0.042332
     16          6           0        1.774789    0.025418   -0.013827
     17          6           0        2.748322    1.164794    0.047620
     18          7           0        2.454690   -1.149312   -0.106416
     19          6           0        3.896951   -0.956007   -0.231102
     20          6           0        4.094012    0.458029    0.338896
     21          1           0        2.483424    1.907432    0.809119
     22          1           0        2.776923    1.696482   -0.918719
     23          1           0        4.187282   -1.014100   -1.293492
     24          1           0        4.437434   -1.741413    0.307716
     25          1           0        4.259287    0.401006    1.420511
     26          1           0        4.947508    0.968129   -0.114328
     27          1           0        2.021263   -2.030892   -0.366685
 ---------------------------------------------------------------------
 Rotational constants (GHZ):           2.8193291           0.3488492           0.3143398
 Leave Link  202 at Wed Aug 12 14:31:39 2026, MaxMem=   104857600 cpu:               0.0 elap:               0.0
 (Enter /opt/packages/gaussian/g16RevC.01/g16/l301.exe)
 Standard basis: 6-31+G(d) (6D, 7F)
 Ernie: Thresh=  0.10000D-02 Tol=  0.10000D-05 Strict=F.
 There are   275 symmetry adapted cartesian basis functions of A   symmetry.
 There are   275 symmetry adapted basis functions of A   symmetry.
   275 basis functions,   472 primitive gaussians,   275 cartesian basis functions
    47 alpha electrons       47 beta electrons
       nuclear repulsion energy       751.9709899889 Hartrees.
 IExCor=  402 DFT=T Ex+Corr=B3LYP ExCW=0 ScaHFX=  0.200000
 ScaDFX=  0.800000  0.720000  1.000000  0.810000 ScalE2=  1.000000  1.000000
 IRadAn=      5 IRanWt=     -1 IRanGd=            0 ICorTp=0 IEmpDi=  4
 NAtoms=   27 NActive=   27 NUniq=   27 SFac= 1.00D+00 NAtFMM=   60 NAOKFM=F Big=F
 Integral buffers will be    131072 words long.
 Regular integral format.
 Two-electron integral symmetry is turned on.
 ------------------------------------------------------------------------------
 Polarizable Continuum Model (PCM)
 =================================
 Model                : PCM.
 Atomic radii         : SMD-Coulomb.
 Polarization charges : Total charges.
 Charge compensation  : None.
 Solution method      : Matrix inversion.
 Cavity type          : VdW (van der Waals Surface) (Alpha=1.000).
 Cavity algorithm     : GePol (No added spheres)
                        Default sphere list used, NSphG=   27.
                        Lebedev-Laikov grids with approx.  5.0 points / Ang**2.
                        Smoothing algorithm: York/Karplus (Gamma=1.0000).
                        Polarization charges: spherical gaussians, with
                                              point-specific exponents (IZeta= 3).
                        Self-potential: point-specific (ISelfS= 7).
                        Self-field    : sphere-specific E.n sum rule (ISelfD= 2).
 1st derivatives      : Analytical E(r).r(x)/FMM algorithm (CHGder, D1EAlg=3).
                        Cavity 1st derivative terms included.
 Solvent              : Methanol, Eps=  32.613000 Eps(inf)=   1.765709
 ------------------------------------------------------------------------------
 GePol: Number of generator spheres                  =      27
 GePol: Total number of spheres                      =      27
 GePol: Number of exposed spheres                    =      27 (100.00%)
 GePol: Number of points                             =    1998
 GePol: Average weight of points                     =       0.11
 GePol: Minimum weight of points                     =   0.16D-08
 GePol: Maximum weight of points                     =    0.21991
 GePol: Number of points with low weight             =     106
 GePol: Fraction of low-weight points (<1% of avg)   =       5.31%
 GePol: Cavity surface area                          =    217.126 Ang**2
 GePol: Cavity volume                                =    192.623 Ang**3
 ------------------------------------------------------------------------------
 Atomic radii for non-electrostatic terms: SMD-CDS.
 ------------------------------------------------------------------------------
 PCM non-electrostatic energy =        -0.0004222855 Hartrees.
 Nuclear repulsion after PCM non-electrostatic terms =      751.9705677035 Hartrees.
 Leave Link  301 at Wed Aug 12 14:31:39 2026, MaxMem=   104857600 cpu:               0.1 elap:               0.1
 (Enter /opt/packages/gaussian/g16RevC.01/g16/l302.exe)
 NPDir=0 NMtPBC=     1 NCelOv=     1 NCel=       1 NClECP=     1 NCelD=      1
         NCelK=      1 NCelE2=     1 NClLst=     1 CellRange=     0.0.
 One-electron integrals computed using PRISM.
 One-electron integral symmetry used in STVInt
 NBasis=   275 RedAO= T EigKep=  1.14D-06  NBF=   275
 NBsUse=   274 1.00D-06 EigRej=  4.81D-07 NBFU=   274
 Precomputing XC quadrature grid using
 IXCGrd= 4 IRadAn=           5 IRanWt=          -1 IRanGd=           0 AccXCQ= 0.00D+00.
 Generated NRdTot=       0 NPtTot=           0 NUsed=           0 NTot=          32
 NSgBfM=   274   274   274   274   274 MxSgAt=    27 MxSgA2=    27.
 Leave Link  302 at Wed Aug 12 14:31:40 2026, MaxMem=   104857600 cpu:               0.6 elap:               0.6
 (Enter /opt/packages/gaussian/g16RevC.01/g16/l303.exe)
 DipDrv:  MaxL=1.
 Leave Link  303 at Wed Aug 12 14:31:40 2026, MaxMem=   104857600 cpu:               0.0 elap:               0.0
 (Enter /opt/packages/gaussian/g16RevC.01/g16/l308.exe)
 Leave Link  308 at Wed Aug 12 14:31:40 2026, MaxMem=   104857600 cpu:               0.0 elap:               0.0
 (Enter /opt/packages/gaussian/g16RevC.01/g16/l401.exe)
 Initial guess from the checkpoint file:  "mono_s1_planar_opt.chk"
 B after Tr=    -0.000000    0.000000   -0.000000
         Rot=    0.999999   -0.001057   -0.000017    0.000047 Ang=  -0.12 deg.
 Guess basis will be translated and rotated to current coordinates.
 JPrj=2 DoOrth=T DoCkMO=T.
 Generating alternative initial guess.
 ExpMin= 4.38D-02 ExpMax= 5.48D+03 ExpMxC= 8.25D+02 IAcc=3 IRadAn=         5 AccDes= 0.00D+00
 Harris functional with IExCor=  402 and IRadAn=       5 diagonalized for initial guess.
 HarFok:  IExCor=  402 AccDes= 0.00D+00 IRadAn=         5 IDoV= 1 UseB2=F ITyADJ=14
 ICtDFT=  3500011 ScaDFX=  1.000000  1.000000  1.000000  1.000000
 FoFCou: FMM=F IPFlag=           0 FMFlag=      100000 FMFlg1=           0
         NFxFlg=           0 DoJE=T BraDBF=F KetDBF=T FulRan=T
         wScrn=  0.000000 ICntrl=       500 IOpCl=  0 I1Cent=   200000004 NGrid=           0
         NMat0=    1 NMatS0=      1 NMatT0=    0 NMatD0=    1 NMtDS0=    0 NMtDT0=    0
 Petite list used in FoFCou.
 Harris En= -557.357554079075    
 Leave Link  401 at Wed Aug 12 14:31:46 2026, MaxMem=   104857600 cpu:               5.5 elap:               5.5
 (Enter /opt/packages/gaussian/g16RevC.01/g16/l502.exe)
 Integral symmetry usage will be decided dynamically.
 Closed shell SCF:
 Using DIIS extrapolation, IDIIS=  1040.
 NGot=   104857600 LenX=   104701058 LenY=   104624992
 Requested convergence on RMS density matrix=1.00D-08 within 128 cycles.
 Requested convergence on MAX density matrix=1.00D-06.
 Requested convergence on             energy=1.00D-06.
 No special actions if energy rises.
 Fock matrices will be formed incrementally for  20 cycles.

 Cycle   1  Pass 1  IDiag  1:
 FoFJK:  IHMeth= 1 ICntrl=       0 DoSepK=F KAlg= 0 I1Cent=           0 FoldK=F
 IRaf= 880000000 NMat=       1 IRICut=       1 DoRegI=T DoRafI=F ISym2E= 0 IDoP0=0 IntGTp=1.
 FoFCou: FMM=F IPFlag=           0 FMFlag=      100000 FMFlg1=           0
         NFxFlg=           0 DoJE=F BraDBF=F KetDBF=F FulRan=T
         wScrn=  0.000000 ICntrl=         0 IOpCl=  0 I1Cent=           0 NGrid=           0
         NMat0=    1 NMatS0=      1 NMatT0=    0 NMatD0=    1 NMtDS0=    0 NMtDT0=    0
 Symmetry not used in FoFCou.
 Inv3:  Mode=1 IEnd=    11976012.
 Iteration    1 A*A^-1 deviation from unit magnitude is 3.11D-15 for    376.
 Iteration    1 A*A^-1 deviation from orthogonality  is 3.24D-15 for   1606    379.
 Iteration    1 A^-1*A deviation from unit magnitude is 3.33D-15 for   1096.
 Iteration    1 A^-1*A deviation from orthogonality  is 6.55D-14 for    848    810.
 E= -557.452426945222    
 DIIS: error= 2.73D-03 at cycle   1 NSaved=   1.
 NSaved= 1 IEnMin= 1 EnMin= -557.452426945222     IErMin= 1 ErrMin= 2.73D-03
 ErrMax= 2.73D-03  0.00D+00 EMaxC= 1.00D-01 BMatC= 1.72D-03 BMatP= 1.72D-03
 IDIUse=3 WtCom= 9.73D-01 WtEn= 2.73D-02
 Coeff-Com:  0.100D+01
 Coeff-En:   0.100D+01
 Coeff:      0.100D+01
 Gap=     0.421 Goal=   None    Shift=    0.000
 GapD=    0.421 DampG=2.000 DampE=1.000 DampFc=2.0000 IDamp=-1.
 RMSDP=5.57D-03 MaxDP=6.25D-01              OVMax= 1.28D-02

 Cycle   2  Pass 1  IDiag  1:
 RMSU=  3.76D-03    CP:  9.31D-01
 E= -557.455011651446     Delta-E=       -0.002584706224 Rises=F Damp=F
 DIIS: error= 1.84D-04 at cycle   2 NSaved=   2.
 NSaved= 2 IEnMin= 2 EnMin= -557.455011651446     IErMin= 2 ErrMin= 1.84D-04
 ErrMax= 1.84D-04  0.00D+00 EMaxC= 1.00D-01 BMatC= 1.77D-05 BMatP= 1.72D-03
 IDIUse=3 WtCom= 9.98D-01 WtEn= 1.84D-03
 Coeff-Com: -0.274D-01 0.103D+01
 Coeff-En:   0.000D+00 0.100D+01
 Coeff:     -0.274D-01 0.103D+01
 Gap=     0.147 Goal=   None    Shift=    0.000
 RMSDP=1.98D-04 MaxDP=9.09D-03 DE=-2.58D-03 OVMax= 2.77D-03

 Cycle   3  Pass 1  IDiag  1:
 RMSU=  1.94D-04    CP:  9.31D-01  1.01D+00
 E= -557.455029082433     Delta-E=       -0.000017430987 Rises=F Damp=F
 DIIS: error= 1.62D-04 at cycle   3 NSaved=   3.
 NSaved= 3 IEnMin= 3 EnMin= -557.455029082433     IErMin= 3 ErrMin= 1.62D-04
 ErrMax= 1.62D-04  0.00D+00 EMaxC= 1.00D-01 BMatC= 1.38D-05 BMatP= 1.77D-05
 IDIUse=3 WtCom= 9.98D-01 WtEn= 1.62D-03
 Coeff-Com: -0.204D-01 0.490D+00 0.530D+00
 Coeff-En:   0.000D+00 0.104D+00 0.896D+00
 Coeff:     -0.203D-01 0.489D+00 0.531D+00
 Gap=     0.147 Goal=   None    Shift=    0.000
 RMSDP=1.35D-04 MaxDP=9.69D-03 DE=-1.74D-05 OVMax= 2.41D-03

 Cycle   4  Pass 1  IDiag  1:
 RMSU=  8.39D-05    CP:  9.30D-01  1.02D+00  6.71D-01
 E= -557.455041702121     Delta-E=       -0.000012619687 Rises=F Damp=F
 DIIS: error= 7.34D-05 at cycle   4 NSaved=   4.
 NSaved= 4 IEnMin= 4 EnMin= -557.455041702121     IErMin= 4 ErrMin= 7.34D-05
 ErrMax= 7.34D-05  0.00D+00 EMaxC= 1.00D-01 BMatC= 2.29D-06 BMatP= 1.38D-05
 IDIUse=1 WtCom= 1.00D+00 WtEn= 0.00D+00
 Coeff-Com: -0.695D-02 0.115D+00 0.302D+00 0.590D+00
 Coeff:     -0.695D-02 0.115D+00 0.302D+00 0.590D+00
 Gap=     0.147 Goal=   None    Shift=    0.000
 RMSDP=3.85D-05 MaxDP=3.17D-03 DE=-1.26D-05 OVMax= 8.21D-04

 Cycle   5  Pass 1  IDiag  1:
 RMSU=  2.26D-05    CP:  9.30D-01  1.02D+00  7.48D-01  8.06D-01
 E= -557.455044118042     Delta-E=       -0.000002415921 Rises=F Damp=F
 DIIS: error= 1.49D-05 at cycle   5 NSaved=   5.
 NSaved= 5 IEnMin= 5 EnMin= -557.455044118042     IErMin= 5 ErrMin= 1.49D-05
 ErrMax= 1.49D-05  0.00D+00 EMaxC= 1.00D-01 BMatC= 9.61D-08 BMatP= 2.29D-06
 IDIUse=1 WtCom= 1.00D+00 WtEn= 0.00D+00
 Coeff-Com: -0.122D-02 0.703D-02 0.796D-01 0.234D+00 0.681D+00
 Coeff:     -0.122D-02 0.703D-02 0.796D-01 0.234D+00 0.681D+00
 Gap=     0.147 Goal=   None    Shift=    0.000
 RMSDP=1.05D-05 MaxDP=4.59D-04 DE=-2.42D-06 OVMax= 1.86D-04

 Cycle   6  Pass 1  IDiag  1:
 RMSU=  8.83D-06    CP:  9.30D-01  1.02D+00  7.53D-01  8.45D-01  8.97D-01
 E= -557.455044181711     Delta-E=       -0.000000063669 Rises=F Damp=F
 DIIS: error= 9.13D-06 at cycle   6 NSaved=   6.
 NSaved= 6 IEnMin= 6 EnMin= -557.455044181711     IErMin= 6 ErrMin= 9.13D-06
 ErrMax= 9.13D-06  0.00D+00 EMaxC= 1.00D-01 BMatC= 4.03D-08 BMatP= 9.61D-08
 IDIUse=1 WtCom= 1.00D+00 WtEn= 0.00D+00
 Coeff-Com:  0.252D-03-0.127D-01 0.545D-02 0.598D-01 0.433D+00 0.514D+00
 Coeff:      0.252D-03-0.127D-01 0.545D-02 0.598D-01 0.433D+00 0.514D+00
 Gap=     0.147 Goal=   None    Shift=    0.000
 RMSDP=3.88D-06 MaxDP=2.49D-04 DE=-6.37D-08 OVMax= 6.86D-05

 Cycle   7  Pass 1  IDiag  1:
 RMSU=  1.79D-06    CP:  9.30D-01  1.02D+00  7.57D-01  8.55D-01  9.03D-01
                    CP:  6.99D-01
 E= -557.455044219329     Delta-E=       -0.000000037618 Rises=F Damp=F
 DIIS: error= 1.16D-06 at cycle   7 NSaved=   7.
 NSaved= 7 IEnMin= 7 EnMin= -557.455044219329     IErMin= 7 ErrMin= 1.16D-06
 ErrMax= 1.16D-06  0.00D+00 EMaxC= 1.00D-01 BMatC= 1.10D-09 BMatP= 4.03D-08
 IDIUse=1 WtCom= 1.00D+00 WtEn= 0.00D+00
 Coeff-Com:  0.178D-03-0.675D-02-0.959D-03 0.192D-01 0.188D+00 0.257D+00
 Coeff-Com:  0.544D+00
 Coeff:      0.178D-03-0.675D-02-0.959D-03 0.192D-01 0.188D+00 0.257D+00
 Coeff:      0.544D+00
 Gap=     0.147 Goal=   None    Shift=    0.000
 RMSDP=7.50D-07 MaxDP=4.35D-05 DE=-3.76D-08 OVMax= 8.37D-06

 Cycle   8  Pass 1  IDiag  1:
 RMSU=  6.01D-07    CP:  9.30D-01  1.02D+00  7.57D-01  8.53D-01  9.12D-01
                    CP:  6.87D-01  8.25D-01
 E= -557.455044220239     Delta-E=       -0.000000000911 Rises=F Damp=F
 DIIS: error= 4.44D-07 at cycle   8 NSaved=   8.
 NSaved= 8 IEnMin= 8 EnMin= -557.455044220239     IErMin= 8 ErrMin= 4.44D-07
 ErrMax= 4.44D-07  0.00D+00 EMaxC= 1.00D-01 BMatC= 1.16D-10 BMatP= 1.10D-09
 IDIUse=1 WtCom= 1.00D+00 WtEn= 0.00D+00
 Coeff-Com:  0.575D-04-0.176D-02-0.130D-02 0.162D-02 0.388D-01 0.631D-01
 Coeff-Com:  0.273D+00 0.626D+00
 Coeff:      0.575D-04-0.176D-02-0.130D-02 0.162D-02 0.388D-01 0.631D-01
 Coeff:      0.273D+00 0.626D+00
 Gap=     0.147 Goal=   None    Shift=    0.000
 RMSDP=2.22D-07 MaxDP=1.22D-05 DE=-9.11D-10 OVMax= 4.18D-06

 Cycle   9  Pass 1  IDiag  1:
 RMSU=  1.84D-07    CP:  9.30D-01  1.02D+00  7.58D-01  8.53D-01  9.13D-01
                    CP:  6.88D-01  8.04D-01  1.01D+00
 E= -557.455044220326     Delta-E=       -0.000000000087 Rises=F Damp=F
 DIIS: error= 1.80D-07 at cycle   9 NSaved=   9.
 NSaved= 9 IEnMin= 9 EnMin= -557.455044220326     IErMin= 9 ErrMin= 1.80D-07
 ErrMax= 1.80D-07  0.00D+00 EMaxC= 1.00D-01 BMatC= 1.67D-11 BMatP= 1.16D-10
 IDIUse=1 WtCom= 1.00D+00 WtEn= 0.00D+00
 Coeff-Com:  0.440D-05 0.560D-04-0.530D-03-0.197D-02-0.629D-02-0.350D-02
 Coeff-Com:  0.692D-01 0.331D+00 0.612D+00
 Coeff:      0.440D-05 0.560D-04-0.530D-03-0.197D-02-0.629D-02-0.350D-02
 Coeff:      0.692D-01 0.331D+00 0.612D+00
 Gap=     0.147 Goal=   None    Shift=    0.000
 RMSDP=1.19D-07 MaxDP=5.84D-06 DE=-8.65D-11 OVMax= 1.73D-06

 Cycle  10  Pass 1  IDiag  1:
 RMSU=  5.55D-08    CP:  9.30D-01  1.02D+00  7.57D-01  8.53D-01  9.13D-01
                    CP:  6.93D-01  8.34D-01  9.60D-01  7.13D-01
 E= -557.455044220340     Delta-E=       -0.000000000014 Rises=F Damp=F
 DIIS: error= 4.12D-08 at cycle  10 NSaved=  10.
 NSaved=10 IEnMin=10 EnMin= -557.455044220340     IErMin=10 ErrMin= 4.12D-08
 ErrMax= 4.12D-08  0.00D+00 EMaxC= 1.00D-01 BMatC= 1.23D-12 BMatP= 1.67D-11
 IDIUse=1 WtCom= 1.00D+00 WtEn= 0.00D+00
 Coeff-Com: -0.209D-05 0.163D-03-0.143D-03-0.107D-02-0.575D-02-0.645D-02
 Coeff-Com:  0.132D-01 0.112D+00 0.301D+00 0.587D+00
 Coeff:     -0.209D-05 0.163D-03-0.143D-03-0.107D-02-0.575D-02-0.645D-02
 Coeff:      0.132D-01 0.112D+00 0.301D+00 0.587D+00
 Gap=     0.147 Goal=   None    Shift=    0.000
 RMSDP=2.60D-08 MaxDP=1.04D-06 DE=-1.40D-11 OVMax= 3.67D-07

 Cycle  11  Pass 1  IDiag  1:
 RMSU=  1.68D-08    CP:  9.30D-01  1.02D+00  7.57D-01  8.53D-01  9.13D-01
                    CP:  6.94D-01  8.38D-01  9.63D-01  7.21D-01  7.12D-01
 E= -557.455044220345     Delta-E=       -0.000000000006 Rises=F Damp=F
 DIIS: error= 1.79D-08 at cycle  11 NSaved=  11.
 NSaved=11 IEnMin=11 EnMin= -557.455044220345     IErMin=11 ErrMin= 1.79D-08
 ErrMax= 1.79D-08  0.00D+00 EMaxC= 1.00D-01 BMatC= 1.77D-13 BMatP= 1.23D-12
 IDIUse=1 WtCom= 1.00D+00 WtEn= 0.00D+00
 Coeff-Com: -0.162D-05 0.941D-04-0.438D-04-0.498D-03-0.299D-02-0.366D-02
 Coeff-Com:  0.285D-02 0.413D-01 0.134D+00 0.348D+00 0.481D+00
 Coeff:     -0.162D-05 0.941D-04-0.438D-04-0.498D-03-0.299D-02-0.366D-02
 Coeff:      0.285D-02 0.413D-01 0.134D+00 0.348D+00 0.481D+00
 Gap=     0.147 Goal=   None    Shift=    0.000
 RMSDP=1.07D-08 MaxDP=5.44D-07 DE=-5.57D-12 OVMax= 1.30D-07

 Cycle  12  Pass 1  IDiag  1:
 RMSU=  5.98D-09    CP:  9.30D-01  1.02D+00  7.57D-01  8.53D-01  9.13D-01
                    CP:  6.93D-01  8.37D-01  9.69D-01  7.23D-01  7.03D-01
                    CP:  7.70D-01
 E= -557.455044220345     Delta-E=        0.000000000001 Rises=F Damp=F
 DIIS: error= 3.83D-09 at cycle  12 NSaved=  12.
 NSaved=12 IEnMin=11 EnMin= -557.455044220345     IErMin=12 ErrMin= 3.83D-09
 ErrMax= 3.83D-09  0.00D+00 EMaxC= 1.00D-01 BMatC= 8.40D-15 BMatP= 1.77D-13
 IDIUse=1 WtCom= 1.00D+00 WtEn= 0.00D+00
 Coeff-Com: -0.447D-06 0.220D-04-0.132D-05-0.993D-04-0.628D-03-0.888D-03
 Coeff-Com: -0.203D-03 0.498D-02 0.251D-01 0.847D-01 0.209D+00 0.678D+00
 Coeff:     -0.447D-06 0.220D-04-0.132D-05-0.993D-04-0.628D-03-0.888D-03
 Coeff:     -0.203D-03 0.498D-02 0.251D-01 0.847D-01 0.209D+00 0.678D+00
 Gap=     0.147 Goal=   None    Shift=    0.000
 RMSDP=2.43D-09 MaxDP=1.29D-07 DE= 5.68D-13 OVMax= 4.05D-08

 Error on total polarization charges =  0.05313
 SCF Done:  E(RB3LYP) =  -557.455044220     A.U. after   12 cycles
            NFock= 12  Conv=0.24D-08     -V/T= 2.0104
 KE= 5.517346408180D+02 PE=-2.781711542900D+03 EE= 9.205512901581D+02
 SMD-CDS (non-electrostatic) energy       (kcal/mol) =      -0.26
 (included in total energy above)
 Leave Link  502 at Wed Aug 12 14:34:27 2026, MaxMem=   104857600 cpu:             161.2 elap:             161.7
 (Enter /opt/packages/gaussian/g16RevC.01/g16/l801.exe)
 DoSCS=F DFT=T ScalE2(SS,OS)=  1.000000  1.000000
 ExpMin= 4.38D-02 ExpMax= 5.48D+03 ExpMxC= 8.25D+02 IAcc=3 IRadAn=         5 AccDes= 0.00D+00
 HarFok:  IExCor=  205 AccDes= 0.00D+00 IRadAn=         5 IDoV=-2 UseB2=F ITyADJ=14
 ICtDFT= 12500011 ScaDFX=  1.000000  1.000000  1.000000  1.000000
 Largest valence mixing into a core orbital is  5.49D-05
 Largest core mixing into a valence orbital is  1.18D-05
 Range of M.O.s used for correlation:    14   274
 NBasis=   275 NAE=    47 NBE=    47 NFC=    13 NFV=     0
 NROrb=    261 NOA=    34 NOB=    34 NVA=   227 NVB=   227

 **** Warning!!: The largest alpha MO coefficient is  0.22526690D+03

 Leave Link  801 at Wed Aug 12 14:34:28 2026, MaxMem=   104857600 cpu:               0.6 elap:               0.6
 (Enter /opt/packages/gaussian/g16RevC.01/g16/l914.exe)
 RHF ground state
 Two-electron integrals replicated using symmetry.
 MDV=   104857600 DFT=T DoStab=F Mixed=T DoRPA=T DoScal=F NonHer=T
 NEqPCM:  Using equilibrium solvation (IEInf=0, Eps=  32.6130, EpsInf=   1.7657)
 Making orbital integer symmetry assigments:
 Orbital symmetries:
       Occupied  (A) (A) (A) (A) (A) (A) (A) (A) (A) (A) (A) (A)
                 (A) (A) (A) (A) (A) (A) (A) (A) (A) (A) (A) (A)
                 (A) (A) (A) (A) (A) (A) (A) (A) (A) (A) (A) (A)
                 (A) (A) (A) (A) (A) (A) (A) (A) (A) (A) (A)
       Virtual   (A) (A) (A) (A) (A) (A) (A) (A) (A) (A) (A) (A)
                 (A) (A) (A) (A) (A) (A) (A) (A) (A) (A) (A) (A)
                 (A) (A) (A) (A) (A) (A) (A) (A) (A) (A) (A) (A)
                 (A) (A) (A) (A) (A) (A) (A) (A) (A) (A) (A) (A)
                 (A) (A) (A) (A) (A) (A) (A) (A) (A) (A) (A) (A)
                 (A) (A) (A) (A) (A) (A) (A) (A) (A) (A) (A) (A)
                 (A) (A) (A) (A) (A) (A) (A) (A) (A) (A) (A) (A)
                 (A) (A) (A) (A) (A) (A) (A) (A) (A) (A) (A) (A)
                 (A) (A) (A) (A) (A) (A) (A) (A) (A) (A) (A) (A)
                 (A) (A) (A) (A) (A) (A) (A) (A) (A) (A) (A) (A)
                 (A) (A) (A) (A) (A) (A) (A) (A) (A) (A) (A) (A)
                 (A) (A) (A) (A) (A) (A) (A) (A) (A) (A) (A) (A)
                 (A) (A) (A) (A) (A) (A) (A) (A) (A) (A) (A) (A)
                 (A) (A) (A) (A) (A) (A) (A) (A) (A) (A) (A) (A)
                 (A) (A) (A) (A) (A) (A) (A) (A) (A) (A) (A) (A)
                 (A) (A) (A) (A) (A) (A) (A) (A) (A) (A) (A) (A)
                 (A) (A) (A) (A) (A) (A) (A) (A) (A) (A) (A) (A)
                 (A) (A) (A) (A) (A) (A) (A) (A) (A) (A) (A) (A)
                 (A) (A) (A) (A) (A) (A) (A) (A) (A) (A) (A)
 Generating guess from densities on rwf.
 Convergence on wavefunction:    0.000001000000000
 Davidson Disk Diagonalization:  ConvIn= 1.00D-06 SkipCon=T Conv= 1.00D-06.
 Max sub-space:  2000 roots to seek:     5 dimension of matrix:        15436
 Iteration     1 Dimension    10 NMult     0 NNew     10
 CISAX will form    10 AO SS matrices at one time.
 NMat=    10 NSing=    10 JSym2X= 0.
 FoFJK:  IHMeth= 1 ICntrl=       0 DoSepK=F KAlg= 0 I1Cent=           0 FoldK=F
 IRaf= 880000000 NMat=      20 IRICut=      25 DoRegI=T DoRafI=T ISym2E= 0 IDoP0=0 IntGTp=1.
 FoFCou: FMM=F IPFlag=           0 FMFlag=      100000 FMFlg1=           0
         NFxFlg=           0 DoJE=F BraDBF=F KetDBF=F FulRan=T
         wScrn=  0.000000 ICntrl=         0 IOpCl=  0 I1Cent=           0 NGrid=           0
         NMat0=   20 NMatS0=     10 NMatT0=    0 NMatD0=   20 NMtDS0=    0 NMtDT0=    0
 Symmetry not used in FoFCou.
 Raff kept on since  87.67% of shell-pairs survive, threshold=   0.20 IRatSp=88.
 Excitation Energies [eV] at current iteration:
 Root      1 :     3.523665991969220
 Root      2 :     4.231199921101658
 Root      3 :     5.162016010233612
 Root      4 :     5.302892790385862
 Root      5 :     5.735490545013986
 Iteration     2 Dimension    20 NMult    10 NNew     10
 CISAX will form    10 AO SS matrices at one time.
 NMat=    10 NSing=    10 JSym2X= 0.
 Root      1 not converged, maximum delta is    0.006091362541338
 Root      2 not converged, maximum delta is    0.007015067592621
 Root      3 not converged, maximum delta is    0.006679927459239
 Root      4 not converged, maximum delta is    0.006781608866742
 Root      5 not converged, maximum delta is    0.002577848510329
 Excitation Energies [eV] at current iteration:
 Root      1 :     3.516718447791131   Change is   -0.006947544178089
 Root      2 :     4.225932089411482   Change is   -0.005267831690176
 Root      3 :     5.156620890625254   Change is   -0.005395119608357
 Root      4 :     5.297027843574818   Change is   -0.005864946811045
 Root      5 :     5.732952542787450   Change is   -0.002538002226536
 Iteration     3 Dimension    30 NMult    20 NNew     10
 CISAX will form    10 AO SS matrices at one time.
 NMat=    10 NSing=    10 JSym2X= 0.
 Root      1 not converged, maximum delta is    0.000961792930883
 Root      2 not converged, maximum delta is    0.000697935679115
 Root      3 not converged, maximum delta is    0.000697519787518
 Root      4 not converged, maximum delta is    0.002953644818895
 Root      5 not converged, maximum delta is    0.002236812117173
 Excitation Energies [eV] at current iteration:
 Root      1 :     3.516623568917517   Change is   -0.000094878873614
 Root      2 :     4.225883427809323   Change is   -0.000048661602159
 Root      3 :     5.156537563458278   Change is   -0.000083327166975
 Root      4 :     5.296878187097815   Change is   -0.000149656477003
 Root      5 :     5.732902251597053   Change is   -0.000050291190397
 Iteration     4 Dimension    40 NMult    30 NNew     10
 CISAX will form    10 AO SS matrices at one time.
 NMat=    10 NSing=    10 JSym2X= 0.
 Root      1 not converged, maximum delta is    0.000247436748965
 Root      2 not converged, maximum delta is    0.000151254120154
 Root      3 not converged, maximum delta is    0.000529616526688
 Root      4 not converged, maximum delta is    0.001338686282179
 Root      5 not converged, maximum delta is    0.000920966652990
 Excitation Energies [eV] at current iteration:
 Root      1 :     3.516615912498825   Change is   -0.000007656418692
 Root      2 :     4.225878350230614   Change is   -0.000005077578709
 Root      3 :     5.156526104137080   Change is   -0.000011459321198
 Root      4 :     5.296860514243283   Change is   -0.000017672854532
 Root      5 :     5.732894533446856   Change is   -0.000007718150197
 Iteration     5 Dimension    50 NMult    40 NNew     10
 CISAX will form    10 AO SS matrices at one time.
 NMat=    10 NSing=    10 JSym2X= 0.
 Root      1 not converged, maximum delta is    0.000054432729977
 Root      2 not converged, maximum delta is    0.000039103988832
 Root      3 not converged, maximum delta is    0.000179454655624
 Root      4 not converged, maximum delta is    0.000299602898764
 Root      5 not converged, maximum delta is    0.000725703355981
 Excitation Energies [eV] at current iteration:
 Root      1 :     3.516615394708959   Change is   -0.000000517789867
 Root      2 :     4.225877903116738   Change is   -0.000000447113876
 Root      3 :     5.156524665764717   Change is   -0.000001438372363
 Root      4 :     5.296858759339618   Change is   -0.000001754903665
 Root      5 :     5.732892854479238   Change is   -0.000001678967618
 Iteration     6 Dimension    60 NMult    50 NNew     10
 CISAX will form    10 AO SS matrices at one time.
 NMat=    10 NSing=    10 JSym2X= 0.
 Root      1 not converged, maximum delta is    0.000008630402447
 Root      2 not converged, maximum delta is    0.000016815145632
 Root      3 not converged, maximum delta is    0.000076018547951
 Root      4 not converged, maximum delta is    0.000087926249262
 Root      5 not converged, maximum delta is    0.000246285746652
 Excitation Energies [eV] at current iteration:
 Root      1 :     3.516615370829750   Change is   -0.000000023879208
 Root      2 :     4.225877870593252   Change is   -0.000000032523486
 Root      3 :     5.156524514727744   Change is   -0.000000151036973
 Root      4 :     5.296858529777749   Change is   -0.000000229561869
 Root      5 :     5.732892534148810   Change is   -0.000000320330427
 Iteration     7 Dimension    70 NMult    60 NNew     10
 CISAX will form    10 AO SS matrices at one time.
 NMat=    10 NSing=    10 JSym2X= 0.
 Root      1 not converged, maximum delta is    0.000002850800379
 Root      2 not converged, maximum delta is    0.000003118701141
 Root      3 not converged, maximum delta is    0.000013924171897
 Root      4 not converged, maximum delta is    0.000013324594027
 Root      5 not converged, maximum delta is    0.000046082049073
 Excitation Energies [eV] at current iteration:
 Root      1 :     3.516615369485743   Change is   -0.000000001344007
 Root      2 :     4.225877868224262   Change is   -0.000000002368991
 Root      3 :     5.156524498194362   Change is   -0.000000016533381
 Root      4 :     5.296858506897392   Change is   -0.000000022880358
 Root      5 :     5.732892483677411   Change is   -0.000000050471400
 Iteration     8 Dimension    80 NMult    70 NNew     10
 CISAX will form    10 AO SS matrices at one time.
 NMat=    10 NSing=    10 JSym2X= 0.
 Root      1 has converged.
 Root      2 has converged.
 Root      3 not converged, maximum delta is    0.000003200083129
 Root      4 not converged, maximum delta is    0.000004558363694
 Root      5 not converged, maximum delta is    0.000011438601978
 Excitation Energies [eV] at current iteration:
 Root      1 :     3.516615369428446   Change is   -0.000000000057297
 Root      2 :     4.225877868072836   Change is   -0.000000000151425
 Root      3 :     5.156524496576955   Change is   -0.000000001617407
 Root      4 :     5.296858504351622   Change is   -0.000000002545769
 Root      5 :     5.732892478282658   Change is   -0.000000005394752
 Iteration     9 Dimension    86 NMult    80 NNew      6
 CISAX will form     6 AO SS matrices at one time.
 NMat=     6 NSing=     6 JSym2X= 0.
 Root      1 has converged.
 Root      2 has converged.
 Root      3 has converged.
 Root      4 has converged.
 Root      5 not converged, maximum delta is    0.000002398019974
 Excitation Energies [eV] at current iteration:
 Root      1 :     3.516615369428119   Change is   -0.000000000000327
 Root      2 :     4.225877868072058   Change is   -0.000000000000778
 Root      3 :     5.156524496404985   Change is   -0.000000000171971
 Root      4 :     5.296858503920692   Change is   -0.000000000430930
 Root      5 :     5.732892477388683   Change is   -0.000000000893976
 Iteration    10 Dimension    88 NMult    86 NNew      2
 CISAX will form     2 AO SS matrices at one time.
 NMat=     2 NSing=     2 JSym2X= 0.
 Root      1 has converged.
 Root      2 has converged.
 Root      3 has converged.
 Root      4 has converged.
 Root      5 has converged.
 Excitation Energies [eV] at current iteration:
 Root      1 :     3.516615369427979   Change is   -0.000000000000140
 Root      2 :     4.225877868071845   Change is   -0.000000000000214
 Root      3 :     5.156524496404092   Change is   -0.000000000000893
 Root      4 :     5.296858503920320   Change is   -0.000000000000372
 Root      5 :     5.732892477230933   Change is   -0.000000000157750
 Convergence achieved on expansion vectors.
 ***********************************************************************
 Excited states from <AA,BB:AA,BB> singles matrix:
 ***********************************************************************
 
 1PDM for each excited state written to RWF  633
 Ground to excited state transition densities written to RWF  633
 Ground to excited state transition electric dipole moments (Au):
       state          X           Y           Z        Dip. S.      Osc.
         1         3.1631     -0.1318     -0.0793     10.0290      0.8641
         2         0.5222     -0.6304      0.0406      0.6717      0.0695
         3        -0.6318      1.2967     -0.0960      2.0897      0.2640
         4         0.2075     -0.8722     -0.0689      0.8086      0.1049
         5        -0.1551      0.0341     -0.0302      0.0261      0.0037
 Ground to excited state transition velocity dipole moments (Au):
       state          X           Y           Z        Dip. S.      Osc.
         1        -0.3973      0.0139      0.0109      0.1581      0.8157
         2        -0.0795      0.0953     -0.0063      0.0154      0.0662
         3         0.1101     -0.2418      0.0173      0.0709      0.2494
         4        -0.0435      0.1648      0.0139      0.0292      0.1001
         5         0.0320     -0.0074      0.0066      0.0011      0.0036
 Ground to excited state transition magnetic dipole moments (Au):
       state          X           Y           Z
         1         0.0209     -0.0220      0.3998
         2         0.0021     -0.0648     -0.6698
         3        -0.0034      0.0293      0.1931
         4         0.0350     -0.0575      0.1522
         5         0.1384     -0.0110     -0.0065
 Ground to excited state transition velocity quadrupole moments (Au):
       state          XX          YY          ZZ          XY          XZ          YZ
         1         0.2291     -0.0861     -0.0210      0.2808      0.0557     -0.0168
         2         0.0726      0.0253     -0.0023      0.0104      0.0148     -0.0061
         3        -0.0447     -0.1457      0.0189      0.5905     -0.0662      0.0155
         4        -1.5209      0.0970      0.0061      0.7108      0.1451     -0.0756
         5        -0.0503     -0.0068      0.0048     -0.0365      0.0203      0.0368
 <0|del|b> * <b|rxdel|0> + <0|del|b> * <b|delr+rdel|0>
 Rotatory Strengths (R) in cgs (10**-40 erg-esu-cm/Gauss)
       state          XX          YY          ZZ    R(velocity)    E-M Angle
         1        17.3642     -0.9877    -39.7014     -7.7750       91.53
         2        -7.8222     10.4640    -12.3313     -3.2298       91.46
         3       -17.7467    -10.3795     12.7730     -5.1178       94.54
         4       -38.8993    -10.8670     17.4820    -10.7614      108.19
         5        -0.0870      9.7493      5.3491      5.0038       16.36
 1/2[<0|r|b>*<b|rxdel|0> + (<0|rxdel|b>*<b|r|0>)*]
 Rotatory Strengths (R) in cgs (10**-40 erg-esu-cm/Gauss)
       state          XX          YY          ZZ     R(length)
         1       -46.8425     -2.0533     22.4232     -8.8242
         2        -0.7668    -28.8795     19.2510     -3.4651
         3        -1.5336    -26.8672     13.1165     -5.0948
         4        -5.1369    -35.4724      7.4125    -11.0656
         5        15.1725      0.2644     -0.1380      5.0997
  1/2[<0|del|b>*<b|r|0> + (<0|r|b>*<b|del|0>)*] (Au)
       state          X           Y           Z        Dip. S.   Osc.(frdel)
         1        -1.2566     -0.0018     -0.0009      1.2593      0.8395
         2        -0.0415     -0.0600     -0.0003      0.1018      0.0679
         3        -0.0696     -0.3136     -0.0017      0.3848      0.2565
         4        -0.0090     -0.1437     -0.0010      0.1537      0.1025
         5        -0.0050     -0.0003     -0.0002      0.0054      0.0036

 Excitation energies and oscillator strengths:
 
 Excited State   1:      Singlet-A      3.5166 eV  352.57 nm  f=0.8641  <S**2>=0.000
      47 -> 48         0.70440
 This state for optimization and/or second-order correction.
 Total Energy, E(TD-HF/TD-DFT) =  -557.325810983    
 Copying the excited state density for this state as the 1-particle RhoCI density.
 
 Excited State   2:      Singlet-A      4.2259 eV  293.39 nm  f=0.0695  <S**2>=0.000
      46 -> 48         0.68505
      47 -> 49        -0.16712
 
 Excited State   3:      Singlet-A      5.1565 eV  240.44 nm  f=0.2640  <S**2>=0.000
      46 -> 48        -0.16513
      47 -> 49        -0.67478
 
 Excited State   4:      Singlet-A      5.2969 eV  234.07 nm  f=0.1049  <S**2>=0.000
      45 -> 48         0.69708
 
 Excited State   5:      Singlet-A      5.7329 eV  216.27 nm  f=0.0037  <S**2>=0.000
      41 -> 48         0.11845
      44 -> 48         0.68921
 SavETr:  write IOETrn=   770 NScale= 10 NData=  16 NLR=1 NState=    5 LETran=     100.
 The selected state is a singlet.
 CISGrd: IGrad=2 NXY=2 DFT=T
 CISAX will form     1 AO SS matrices at one time.
 NMat=     1 NSing=     1 JSym2X= 0.
 GePol: Maximum number of non-zero 1st derivatives   =     252
 Leave Link  914 at Wed Aug 12 14:50:05 2026, MaxMem=   104857600 cpu:             930.6 elap:             936.4
 (Enter /opt/packages/gaussian/g16RevC.01/g16/l1002.exe)
 Minotr:  Closed shell wavefunction.
          Computing CIS/TDA/TD derivatives.
          Using Z-Vector for PSCF gradient.
          Skipping F1 and S1 gradient terms here.
          IDoAtm=111111111111111111111111111
 NEqPCM:  Using equilibrium solvation (IEInf=0, Eps=  32.6130, EpsInf=   1.7657)
          Frozen-core window.
          Direct CPHF calculation.
          Differentiating once with respect to electric field.
                with respect to dipole field.
          Differentiating once with respect to nuclear coordinates.
          Requested convergence is 1.0D-10 RMS, and 1.0D-09 maximum.
          NewPWx=F KeepS1=T KeepF1=T KeepIn=T MapXYZ=F SortEE=F KeepMc=T.
 Two-electron integral symmetry used by symmetrizing perturbed Fock matrices.
          MDV=     104857600 using IRadAn=       5.
          Solving linear equations separately, MaxMat=     384.
          There are     1 degrees of freedom in the 1st order CPHF.  IDoFFX=0 NUNeed=     1.
 FoFJK:  IHMeth= 1 ICntrl=       0 DoSepK=F KAlg= 0 I1Cent=           0 FoldK=F
 IRaf= 900000000 NMat=       1 IRICut=       1 DoRegI=T DoRafI=F ISym2E=-1 IDoP0=0 IntGTp=1.
 FoFCou: FMM=F IPFlag=           0 FMFlag=      100000 FMFlg1=           0
         NFxFlg=           0 DoJE=F BraDBF=F KetDBF=F FulRan=T
         wScrn=  0.000000 ICntrl=         0 IOpCl=  0 I1Cent=           0 NGrid=           0
         NMat0=    1 NMatS0=      1 NMatT0=    0 NMatD0=    1 NMtDS0=    0 NMtDT0=    0
 Petite list used in FoFCou.
 LinEq1:  Iter=  0 NonCon=     1 RMS=9.62D-03 Max=6.59D-01 NDo=     1
 AX will form     1 AO Fock derivatives at one time.
 LinEq1:  Iter=  1 NonCon=     1 RMS=3.76D-03 Max=2.63D-01 NDo=     1
 LinEq1:  Iter=  2 NonCon=     1 RMS=2.87D-03 Max=1.38D-01 NDo=     1
 LinEq1:  Iter=  3 NonCon=     1 RMS=6.73D-04 Max=2.14D-02 NDo=     1
 LinEq1:  Iter=  4 NonCon=     1 RMS=4.37D-04 Max=1.39D-02 NDo=     1
 LinEq1:  Iter=  5 NonCon=     1 RMS=2.14D-04 Max=8.61D-03 NDo=     1
 LinEq1:  Iter=  6 NonCon=     1 RMS=9.71D-05 Max=2.59D-03 NDo=     1
 LinEq1:  Iter=  7 NonCon=     1 RMS=5.50D-05 Max=1.92D-03 NDo=     1
 LinEq1:  Iter=  8 NonCon=     1 RMS=3.34D-05 Max=9.40D-04 NDo=     1
 LinEq1:  Iter=  9 NonCon=     1 RMS=1.52D-05 Max=5.77D-04 NDo=     1
 LinEq1:  Iter= 10 NonCon=     1 RMS=1.06D-05 Max=3.48D-04 NDo=     1
 LinEq1:  Iter= 11 NonCon=     1 RMS=4.17D-06 Max=1.27D-04 NDo=     1
 LinEq1:  Iter= 12 NonCon=     1 RMS=1.92D-06 Max=4.33D-05 NDo=     1
 LinEq1:  Iter= 13 NonCon=     1 RMS=7.05D-07 Max=1.64D-05 NDo=     1
 LinEq1:  Iter= 14 NonCon=     1 RMS=4.09D-07 Max=8.86D-06 NDo=     1
 LinEq1:  Iter= 15 NonCon=     1 RMS=1.12D-07 Max=2.53D-06 NDo=     1
 LinEq1:  Iter= 16 NonCon=     1 RMS=5.45D-08 Max=1.37D-06 NDo=     1
 LinEq1:  Iter= 17 NonCon=     1 RMS=2.07D-08 Max=5.01D-07 NDo=     1
 LinEq1:  Iter= 18 NonCon=     1 RMS=8.67D-09 Max=1.55D-07 NDo=     1
 LinEq1:  Iter= 19 NonCon=     1 RMS=3.60D-09 Max=5.13D-08 NDo=     1
 LinEq1:  Iter= 20 NonCon=     1 RMS=1.08D-09 Max=4.67D-08 NDo=     1
 LinEq1:  Iter= 21 NonCon=     1 RMS=6.85D-10 Max=2.83D-08 NDo=     1
 LinEq1:  Iter= 22 NonCon=     1 RMS=2.50D-10 Max=8.90D-09 NDo=     1
 LinEq1:  Iter= 23 NonCon=     1 RMS=1.07D-10 Max=2.65D-09 NDo=     1
 LinEq1:  Iter= 24 NonCon=     1 RMS=4.05D-11 Max=1.12D-09 NDo=     1
 LinEq1:  Iter= 25 NonCon=     0 RMS=1.46D-11 Max=2.44D-10 NDo=     1
 Linear equations converged to 1.000D-10 1.000D-09 after    25 iterations.
 End of Minotr F.D. properties file   721 does not exist.
 End of Minotr F.D. properties file   722 does not exist.
 End of Minotr F.D. properties file   788 does not exist.
 Leave Link 1002 at Wed Aug 12 14:56:53 2026, MaxMem=   104857600 cpu:             407.7 elap:             408.6
 (Enter /opt/packages/gaussian/g16RevC.01/g16/l701.exe)
 ... and contract with generalized density number  6.
 Compute integral first derivatives.
 D1PCM: PCM CHGder 1st derivatives, ID1Alg=3 FixD1E=F DoIter=F DoCFld=F I1PDM=6.
 Leave Link  701 at Wed Aug 12 14:57:02 2026, MaxMem=   104857600 cpu:               8.9 elap:               9.0
 (Enter /opt/packages/gaussian/g16RevC.01/g16/l702.exe)
 L702 exits ... SP integral derivatives will be done elsewhere.
 Leave Link  702 at Wed Aug 12 14:57:02 2026, MaxMem=   104857600 cpu:               0.0 elap:               0.0
 (Enter /opt/packages/gaussian/g16RevC.01/g16/l703.exe)
 Integral derivatives from FoFJK, PRISM(SPDF).
 Compute integral first derivatives, UseDBF=F ICtDFT=           0.
 Calling FoFJK, ICntrl=  10005127 FMM=F ISym2X=0 I1Cent= 0 IOpClX= 0 NMat=1 NMatS=1 NMatT=0.
 FoFJK:  IHMeth= 1 ICntrl=10005127 DoSepK=F KAlg= 0 I1Cent=           0 FoldK=F
 IRaf=         0 NMat=       1 IRICut=       1 DoRegI=T DoRafI=F ISym2E= 0 IDoP0=0 IntGTp=1.
 FoFCou: FMM=F IPFlag=           0 FMFlag=      100000 FMFlg1=         800
         NFxFlg=           0 DoJE=F BraDBF=F KetDBF=F FulRan=T
         wScrn=  0.000000 ICntrl=  10005127 IOpCl=  0 I1Cent=           0 NGrid=           0
         NMat0=    1 NMatS0=      1 NMatT0=    0 NMatD0=    1 NMtDS0=    0 NMtDT0=    0
 Symmetry not used in FoFCou.
 Leave Link  703 at Wed Aug 12 14:57:49 2026, MaxMem=   104857600 cpu:              46.9 elap:              47.1
 (Enter /opt/packages/gaussian/g16RevC.01/g16/l716.exe)
 Dipole        = 3.06154428D-02-1.08738710D+00-2.46298308D-01
 ***** Axes restored to original set *****
 -------------------------------------------------------------------
 Center     Atomic                   Forces (Hartrees/Bohr)
 Number     Number              X              Y              Z
 -------------------------------------------------------------------
      1        6          -0.000020038    0.000104278    0.000039002
      2        6          -0.000001942   -0.000029471   -0.000028734
      3        6          -0.000144397    0.000034033   -0.000064092
      4        6          -0.000220342   -0.000034740   -0.000232086
      5        6          -0.000067032   -0.000003858    0.000184949
      6        6          -0.000029252   -0.000040728    0.000026718
      7        1           0.000003485    0.000003348   -0.000019582
      8        1           0.000003208    0.000003158    0.000039198
      9        1           0.000209369   -0.000168496   -0.000017266
     10        1          -0.000006147    0.000011350   -0.000002054
     11        8           0.000040225   -0.000005475   -0.000000377
     12        6          -0.000015247   -0.000002814   -0.000002729
     13        1          -0.000011148    0.000021332    0.000004817
     14        1           0.000009032   -0.000000462    0.000015148
     15        1           0.000000919    0.000003393   -0.000002764
     16        6           0.000204241   -0.000026065   -0.000154781
     17        6          -0.000001684    0.000028970    0.000043935
     18        7           0.000362155    0.000121083    0.000340359
     19        6           0.000021508   -0.000014771   -0.000029353
     20        6           0.000022212    0.000001643   -0.000053844
     21        1           0.000059893   -0.000010313   -0.000016423
     22        1           0.000002293    0.000001352   -0.000025591
     23        1           0.000001615   -0.000007523    0.000018830
     24        1          -0.000005413    0.000016607    0.000011481
     25        1          -0.000005655    0.000004594    0.000003075
     26        1           0.000006896   -0.000000589   -0.000003032
     27        1          -0.000418753   -0.000009835   -0.000074802
 -------------------------------------------------------------------
 Cartesian Forces:  Max     0.000418753 RMS     0.000098509
 Leave Link  716 at Wed Aug 12 14:57:50 2026, MaxMem=   104857600 cpu:               0.0 elap:               0.1
 (Enter /opt/packages/gaussian/g16RevC.01/g16/l103.exe)

 GradGradGradGradGradGradGradGradGradGradGradGradGradGradGradGradGradGrad
 Berny optimization.
 Using GEDIIS/GDIIS optimizer.
 FormGI is forming the generalized inverse of G from B-inverse, IUseBI=4.
 GSVD:  received Info=                   1 from GESDD.
 Internal  Forces:  Max     0.000391234 RMS     0.000085068
 Search for a local minimum.
 Step number   3 out of a maximum of  154
 All quantities printed in internal units (Hartrees-Bohrs-Radians)
 RMS Force = .85068D-04 SwitMx=.10000D-02 MixMth= 2
 Mixed Optimization -- En-DIIS/RFO-DIIS
 Swapping is turned off.
 Update second derivatives using D2CorX and points    1    2    3
 DE= -2.31D-05 DEPred=-3.02D-05 R= 7.64D-01
 TightC=F SS=  1.41D+00  RLast= 1.25D-01 DXNew= 8.4853D-02 3.7451D-01
 Trust test= 7.64D-01 RLast= 1.25D-01 DXMaxT set to 8.49D-02
 ITU=  1  1  0
     Eigenvalues ---    0.00207   0.00254   0.00487   0.00525   0.00591
     Eigenvalues ---    0.00758   0.00936   0.01360   0.01584   0.01711
     Eigenvalues ---    0.01818   0.01909   0.02293   0.02345   0.02535
     Eigenvalues ---    0.02613   0.02820   0.03138   0.04157   0.04428
     Eigenvalues ---    0.04538   0.05741   0.05931   0.06844   0.07192
     Eigenvalues ---    0.07689   0.08331   0.08499   0.09031   0.09546
     Eigenvalues ---    0.11007   0.11079   0.11787   0.11988   0.12796
     Eigenvalues ---    0.13265   0.15994   0.18033   0.18240   0.18739
     Eigenvalues ---    0.19240   0.19404   0.19914   0.20486   0.23319
     Eigenvalues ---    0.23483   0.23991   0.25058   0.27976   0.28321
     Eigenvalues ---    0.29920   0.30339   0.31965   0.32646   0.32777
     Eigenvalues ---    0.33702   0.33943   0.33963   0.34442   0.34675
     Eigenvalues ---    0.34966   0.35097   0.36025   0.36522   0.36599
     Eigenvalues ---    0.36900   0.37296   0.37989   0.38224   0.39282
     Eigenvalues ---    0.41808   0.45784   0.48208   0.50374   0.54169
 En-DIIS/RFO-DIIS/Sim-DIIS IScMMF=       -3 using points:     3    2    1
 RFO step:  Lambda=-1.28470530D-05.
 NNeg= 0 NGDIIS= 3 SimSw=  2.50D-03 Rises=F DC= -2.31D-05 SmlDif=  1.00D-05
 NRisDI= 0 DoIntr=F SqrtH=F CThrHd= 10.0 CDAdj=  3.0
 RMS Error=  0.2791184800D-02 NUsed= 3 OKEnD=T EnDIS=F
 InvSVX:  RCond= 1.35D-03 Info=           0 Equed=N FErr=  1.50D-15 BErr=  6.21D-17
 DidBck=F Rises=F RFO-DIIS coefs:    0.92403   -0.08825    0.16423
 Iteration  1 RMS(Cart)=  0.01184885 RMS(Int)=  0.00004545
 Iteration  2 RMS(Cart)=  0.00006557 RMS(Int)=  0.00000813
 Iteration  3 RMS(Cart)=  0.00000000 RMS(Int)=  0.00000813
 ITry= 1 IFail=0 DXMaxC= 4.79D-02 DCOld= 1.00D+10 DXMaxT= 8.49D-02 DXLimC= 3.00D+00 Rises=F
 Variable       Old X    -DE/DX   Delta X   Delta X   Delta X     New X
                                 (Linear)    (Quad)   (Total)
    R1        2.67356   0.00009  -0.00016   0.00013  -0.00003   2.67353
    R2        2.71317  -0.00005   0.00007  -0.00012  -0.00005   2.71313
    R3        2.52806  -0.00002  -0.00000  -0.00009  -0.00010   2.52797
    R4        2.61078   0.00004   0.00001   0.00004   0.00005   2.61083
    R5        2.04906  -0.00000   0.00000  -0.00000   0.00000   2.04906
    R6        2.73887   0.00004   0.00035   0.00026   0.00061   2.73948
    R7        2.04974   0.00024  -0.00003   0.00048   0.00045   2.05019
    R8        2.69532   0.00001   0.00004  -0.00012  -0.00008   2.69524
    R9        2.72395   0.00024   0.00018   0.00076   0.00094   2.72489
   R10        2.60615  -0.00001   0.00006  -0.00001   0.00006   2.60621
   R11        2.04992   0.00001  -0.00004   0.00004  -0.00000   2.04991
   R12        2.05179   0.00000  -0.00001   0.00001  -0.00000   2.05178
   R13        2.72204  -0.00000  -0.00003  -0.00000  -0.00004   2.72201
   R14        2.06993  -0.00001   0.00002   0.00002   0.00004   2.06997
   R15        2.07043  -0.00001  -0.00001  -0.00006  -0.00007   2.07036
   R16        2.05883   0.00000  -0.00000  -0.00000  -0.00000   2.05883
   R17        2.83441   0.00006   0.00018  -0.00006   0.00012   2.83454
   R18        2.57088  -0.00018  -0.00003  -0.00009  -0.00014   2.57074
   R19        2.92465   0.00006   0.00009   0.00019   0.00029   2.92493
   R20        2.07144  -0.00003  -0.00003  -0.00005  -0.00008   2.07136
   R21        2.08498   0.00002  -0.00013   0.00007  -0.00006   2.08492
   R22        2.75993  -0.00000  -0.00016  -0.00006  -0.00022   2.75970
   R23        1.92045   0.00020  -0.00009   0.00036   0.00026   1.92071
   R24        2.90504   0.00003  -0.00002   0.00017   0.00016   2.90519
   R25        2.08414  -0.00002   0.00004  -0.00011  -0.00006   2.08407
   R26        2.06950  -0.00001  -0.00003  -0.00000  -0.00004   2.06946
   R27        2.07049   0.00001  -0.00001  -0.00000  -0.00001   2.07047
   R28        2.06497   0.00000  -0.00001   0.00000  -0.00000   2.06496
    A1        2.09628   0.00001  -0.00015   0.00003  -0.00011   2.09617
    A2        2.18440   0.00004   0.00014   0.00007   0.00020   2.18460
    A3        2.00250  -0.00005   0.00001  -0.00010  -0.00009   2.00241
    A4        2.08399  -0.00002   0.00008   0.00001   0.00009   2.08409
    A5        2.10784   0.00001   0.00001  -0.00000   0.00001   2.10785
    A6        2.09135   0.00001  -0.00010  -0.00001  -0.00010   2.09125
    A7        2.11921  -0.00003   0.00019  -0.00010   0.00009   2.11930
    A8        2.06821   0.00013  -0.00070   0.00024  -0.00045   2.06775
    A9        2.09575  -0.00011   0.00051  -0.00015   0.00037   2.09612
   A10        2.06045   0.00002  -0.00040   0.00002  -0.00038   2.06007
   A11        2.13035  -0.00025   0.00020  -0.00009   0.00013   2.13048
   A12        2.09233   0.00022   0.00020   0.00007   0.00028   2.09261
   A13        2.10659  -0.00001   0.00019   0.00006   0.00025   2.10684
   A14        2.09275   0.00002   0.00018  -0.00009   0.00009   2.09284
   A15        2.08385  -0.00001  -0.00037   0.00003  -0.00034   2.08351
   A16        2.09970   0.00002   0.00009  -0.00000   0.00009   2.09980
   A17        2.06523  -0.00000   0.00002   0.00004   0.00005   2.06528
   A18        2.11825  -0.00001  -0.00011  -0.00003  -0.00014   2.11811
   A19        2.10310   0.00006  -0.00016   0.00015  -0.00000   2.10309
   A20        1.91867  -0.00001  -0.00003  -0.00022  -0.00025   1.91843
   A21        1.91820   0.00000  -0.00003   0.00016   0.00013   1.91833
   A22        1.83621  -0.00000   0.00003  -0.00002   0.00001   1.83622
   A23        1.92740   0.00001   0.00002   0.00002   0.00004   1.92744
   A24        1.93148  -0.00000  -0.00007  -0.00004  -0.00011   1.93137
   A25        1.92997   0.00001   0.00008   0.00008   0.00017   1.93014
   A26        2.23094   0.00038   0.00016   0.00085   0.00106   2.23200
   A27        2.14041  -0.00039   0.00007  -0.00109  -0.00097   2.13945
   A28        1.91170   0.00001  -0.00026   0.00018  -0.00006   1.91165
   A29        1.79792  -0.00005   0.00044   0.00002   0.00046   1.79838
   A30        1.96736   0.00006   0.00017   0.00054   0.00071   1.96807
   A31        1.92518  -0.00000  -0.00007  -0.00029  -0.00037   1.92481
   A32        1.97009  -0.00002  -0.00072  -0.00028  -0.00100   1.96909
   A33        1.94160   0.00001   0.00025   0.00005   0.00030   1.94190
   A34        1.86318  -0.00000  -0.00004  -0.00004  -0.00008   1.86309
   A35        1.96605   0.00009   0.00044   0.00033   0.00078   1.96683
   A36        2.15716  -0.00037   0.00039  -0.00299  -0.00256   2.15460
   A37        2.11078   0.00028   0.00013   0.00144   0.00160   2.11238
   A38        1.78921  -0.00006   0.00012  -0.00002   0.00010   1.78930
   A39        1.91265   0.00002  -0.00010   0.00003  -0.00007   1.91257
   A40        1.92884   0.00002  -0.00002   0.00009   0.00007   1.92891
   A41        1.95183  -0.00000   0.00005   0.00031   0.00037   1.95219
   A42        1.99763   0.00002  -0.00008  -0.00045  -0.00053   1.99710
   A43        1.88205  -0.00001   0.00002   0.00005   0.00007   1.88212
   A44        1.81194   0.00002   0.00029   0.00053   0.00082   1.81276
   A45        1.91848  -0.00002  -0.00006  -0.00017  -0.00023   1.91825
   A46        1.96915   0.00001  -0.00009  -0.00008  -0.00017   1.96898
   A47        1.91505  -0.00000  -0.00004  -0.00005  -0.00009   1.91496
   A48        1.95597  -0.00000   0.00002  -0.00009  -0.00007   1.95590
   A49        1.89222   0.00000  -0.00011  -0.00013  -0.00023   1.89199
    D1        0.00685  -0.00000  -0.00143   0.00049  -0.00093   0.00592
    D2       -3.13265  -0.00001  -0.00183   0.00030  -0.00153  -3.13418
    D3       -3.13831  -0.00002  -0.00099  -0.00052  -0.00152  -3.13983
    D4        0.00537  -0.00003  -0.00139  -0.00072  -0.00211   0.00326
    D5        0.00819  -0.00001   0.00029  -0.00122  -0.00093   0.00727
    D6       -3.13541  -0.00001   0.00039  -0.00135  -0.00097  -3.13638
    D7       -3.13018   0.00001  -0.00010  -0.00030  -0.00041  -3.13059
    D8        0.00940   0.00001  -0.00000  -0.00044  -0.00044   0.00896
    D9        0.01433   0.00003  -0.00203   0.00065  -0.00139   0.01294
   D10       -3.13067   0.00001  -0.00162  -0.00032  -0.00194  -3.13261
   D11       -0.01503   0.00001   0.00029   0.00164   0.00194  -0.01310
   D12        3.12011   0.00000   0.00114   0.00134   0.00248   3.12259
   D13        3.12448   0.00001   0.00069   0.00184   0.00253   3.12701
   D14       -0.02356   0.00001   0.00154   0.00153   0.00307  -0.02049
   D15        0.00841   0.00000   0.00192  -0.00302  -0.00111   0.00730
   D16       -3.12127  -0.00006  -0.00165  -0.00287  -0.00452  -3.12579
   D17       -3.12663   0.00000   0.00105  -0.00271  -0.00166  -3.12829
   D18        0.02687  -0.00006  -0.00251  -0.00256  -0.00507   0.02180
   D19        0.00685  -0.00002  -0.00306   0.00227  -0.00078   0.00607
   D20       -3.13651  -0.00001  -0.00198   0.00136  -0.00063  -3.13714
   D21        3.13680   0.00004   0.00042   0.00212   0.00255   3.13935
   D22       -0.00656   0.00004   0.00150   0.00121   0.00270  -0.00386
   D23       -3.00013  -0.00008  -0.01167  -0.00524  -0.01692  -3.01705
   D24        0.16002  -0.00014  -0.01902  -0.00072  -0.01974   0.14027
   D25        0.15358  -0.00014  -0.01530  -0.00508  -0.02039   0.13320
   D26       -2.96945  -0.00021  -0.02266  -0.00056  -0.02321  -2.99266
   D27       -0.01492   0.00002   0.00200  -0.00023   0.00177  -0.01315
   D28        3.12874   0.00002   0.00190  -0.00009   0.00181   3.13055
   D29        3.12843   0.00002   0.00093   0.00069   0.00162   3.13005
   D30       -0.01109   0.00002   0.00083   0.00083   0.00166  -0.00943
   D31        1.04450   0.00003   0.00217   0.00299   0.00516   1.04966
   D32       -1.08046   0.00003   0.00219   0.00300   0.00518  -1.07528
   D33        3.12462   0.00002   0.00209   0.00282   0.00491   3.12953
   D34        2.91551  -0.00002  -0.00457   0.00523   0.00066   2.91616
   D35        0.78686  -0.00000  -0.00407   0.00526   0.00120   0.78806
   D36       -1.29387  -0.00004  -0.00407   0.00516   0.00108  -1.29278
   D37       -0.24266   0.00003   0.00199   0.00117   0.00317  -0.23949
   D38       -2.37131   0.00005   0.00249   0.00121   0.00371  -2.36760
   D39        1.83114   0.00002   0.00249   0.00111   0.00360   1.83474
   D40        3.04237   0.00003   0.00505  -0.00388   0.00116   3.04353
   D41        0.23107  -0.00003   0.00166  -0.00028   0.00139   0.23246
   D42       -0.08368  -0.00003  -0.00111  -0.00010  -0.00122  -0.08489
   D43       -2.89497  -0.00008  -0.00450   0.00350  -0.00099  -2.89596
   D44        0.45252  -0.00002  -0.00209  -0.00170  -0.00379   0.44873
   D45       -1.59492  -0.00002  -0.00217  -0.00185  -0.00402  -1.59894
   D46        2.57402  -0.00001  -0.00193  -0.00151  -0.00344   2.57058
   D47        2.57932   0.00000  -0.00199  -0.00119  -0.00317   2.57615
   D48        0.53188   0.00001  -0.00207  -0.00134  -0.00340   0.52848
   D49       -1.58236   0.00001  -0.00183  -0.00100  -0.00283  -1.58519
   D50       -1.60981  -0.00000  -0.00237  -0.00139  -0.00376  -1.61357
   D51        2.62594   0.00000  -0.00245  -0.00154  -0.00399   2.62195
   D52        0.51169   0.00001  -0.00222  -0.00120  -0.00342   0.50827
   D53        0.37348   0.00001  -0.00030  -0.00105  -0.00135   0.37213
   D54       -1.70173   0.00003  -0.00038  -0.00142  -0.00179  -1.70353
   D55        2.50976   0.00001  -0.00033  -0.00155  -0.00188   2.50788
   D56       -3.08853  -0.00007   0.00303  -0.00549  -0.00246  -3.09098
   D57        1.11945  -0.00005   0.00296  -0.00585  -0.00290   1.11655
   D58       -0.95224  -0.00007   0.00300  -0.00599  -0.00299  -0.95523
   D59       -0.49571   0.00002   0.00159   0.00168   0.00326  -0.49245
   D60        1.55411   0.00000   0.00165   0.00174   0.00339   1.55750
   D61       -2.62599   0.00000   0.00150   0.00149   0.00299  -2.62300
   D62        1.55176   0.00001   0.00156   0.00184   0.00340   1.55517
   D63       -2.68160  -0.00001   0.00162   0.00191   0.00353  -2.67806
   D64       -0.57851  -0.00001   0.00147   0.00165   0.00313  -0.57539
   D65       -2.58469   0.00002   0.00157   0.00182   0.00339  -2.58130
   D66       -0.53486   0.00000   0.00164   0.00188   0.00352  -0.53134
   D67        1.56822   0.00000   0.00149   0.00163   0.00311   1.57133
         Item               Value     Threshold  Converged?
 Maximum Force            0.000391     0.000450     YES
 RMS     Force            0.000085     0.000300     YES
 Maximum Displacement     0.047875     0.001800     NO 
 RMS     Displacement     0.011850     0.001200     NO 
 Predicted change in Energy=-5.472635D-06
 Lowest energy point so far.  Saving SCF results.
 GradGradGradGradGradGradGradGradGradGradGradGradGradGradGradGradGradGrad

 Leave Link  103 at Wed Aug 12 14:57:50 2026, MaxMem=   104857600 cpu:               0.0 elap:               0.1
 (Enter /opt/packages/gaussian/g16RevC.01/g16/l202.exe)
                          Input orientation:                          
 ---------------------------------------------------------------------
 Center     Atomic      Atomic             Coordinates (Angstroms)
 Number     Number       Type             X           Y           Z
 ---------------------------------------------------------------------
      1          6           0       -2.493070    0.244742   -0.024234
      2          6           0       -1.868470   -1.019791    0.087167
      3          6           0       -0.489074   -1.096160    0.102206
      4          6           0        0.334965    0.091248   -0.009923
      5          6           0       -0.319760    1.352823   -0.128180
      6          6           0       -1.696475    1.434701   -0.127866
      7          1           0       -2.205674    2.390372   -0.207084
      8          1           0       -2.459488   -1.926022    0.159169
      9          1           0       -0.026169   -2.071833    0.206229
     10          1           0        0.267274    2.260584   -0.218080
     11          8           0       -3.814440    0.452025   -0.048112
     12          6           0       -4.730085   -0.654769    0.058771
     13          1           0       -4.573791   -1.178024    1.008318
     14          1           0       -4.586847   -1.340247   -0.783793
     15          1           0       -5.723308   -0.208299    0.024870
     16          6           0        1.775417    0.025761   -0.015022
     17          6           0        2.749425    1.165820    0.023581
     18          7           0        2.455019   -1.151114   -0.076158
     19          6           0        3.897849   -0.962677   -0.200334
     20          6           0        4.094562    0.465581    0.333393
     21          1           0        2.484112    1.925256    0.768115
     22          1           0        2.779880    1.676125   -0.954127
     23          1           0        4.192104   -1.049196   -1.259670
     24          1           0        4.435430   -1.733994    0.361219
     25          1           0        4.259157    0.436198    1.416209
     26          1           0        4.948594    0.963704   -0.131971
     27          1           0        2.019773   -2.037553   -0.316683
 ---------------------------------------------------------------------
                    Distance matrix (angstroms):
                    1          2          3          4          5
     1  C    0.000000
     2  C    1.414772   0.000000
     3  C    2.414540   1.381590   0.000000
     4  C    2.832233   2.469607   1.449673   0.000000
     5  C    2.441705   2.841509   2.465615   1.426260   0.000000
     6  C    1.435724   2.469888   2.813539   2.438344   1.379148
     7  H    2.172500   3.439404   3.898497   3.432155   2.153928
     8  H    2.178757   1.084317   2.138796   3.450643   3.925790
     9  H    3.391937   2.124863   1.084915   2.203646   3.453446
    10  H    3.423550   3.926249   3.455774   2.180350   1.084768
    11  O    1.337743   2.443633   3.671176   4.165235   3.609798
    12  C    2.412519   2.884942   4.264140   5.120155   4.849366
    13  H    2.723936   2.862223   4.184812   5.171436   5.078739
    14  H    2.733683   2.872427   4.199561   5.183848   5.088269
    15  H    3.262222   3.939819   5.309565   6.065773   5.626620
    16  C    4.274111   3.792299   2.529895   1.441950   2.482673
    17  C    5.323009   5.109393   3.951027   2.643000   3.078619
    18  N    5.141468   4.328565   2.950003   2.458146   3.737887
    19  C    6.506360   5.773765   4.399369   3.720371   4.811961
    20  C    6.601027   6.150179   4.847907   3.793753   4.526199
    21  H    5.312653   5.299241   4.290947   2.930488   2.998786
    22  H    5.542342   5.473519   4.414461   3.062836   3.224047
    23  H    6.920414   6.208494   4.875484   4.211889   5.235158
    24  H    7.215822   6.350146   4.972391   4.503674   5.690324
    25  H    6.906816   6.436930   5.159499   4.189526   4.918518
    26  H    7.477090   7.103143   5.819460   4.696983   5.282706
    27  H    5.065585   4.039476   2.712195   2.732119   4.123541
                    6          7          8          9         10
     6  C    0.000000
     7  H    1.085756   0.000000
     8  H    3.458184   4.339334   0.000000
     9  H    3.898374   4.983206   2.438138   0.000000
    10  H    2.132260   2.476376   5.010511   4.363024   0.000000
    11  O    2.336192   2.524003   2.744808   4.559117   4.467680
    12  C    3.688294   3.964368   2.604184   4.914941   5.792196
    13  H    4.049221   4.451812   2.398090   4.703521   6.063331
    14  H    4.060151   4.463193   2.399576   4.723891   6.070297
    15  H    4.351800   4.379571   3.690681   5.996919   6.483940
    16  C    3.748584   4.634367   4.666286   2.773907   2.703731
    17  C    4.456597   5.109378   6.058931   4.268451   2.723597
    18  N    4.891218   5.855026   4.980787   2.661533   4.055373
    19  C    6.086800   6.963906   6.439954   4.097980   4.854977
    20  C    5.889657   6.609834   6.978946   4.840977   4.263131
    21  H    4.303571   4.812633   6.296216   4.753309   2.449365
    22  H    4.558371   5.091558   6.454910   4.823642   2.682637
    23  H    6.490461   7.339627   6.857522   4.581318   5.238687
    24  H    6.919544   7.838216   6.900551   4.477055   5.802221
    25  H    6.233035   6.946072   7.231903   5.110605   4.683419
    26  H    6.661741   7.295517   7.957070   5.837562   4.858402
    27  H    5.089469   6.121514   4.505846   2.111987   4.642731
                   11         12         13         14         15
    11  O    0.000000
    12  C    1.440424   0.000000
    13  H    2.085597   1.095382   0.000000
    14  H    2.085683   1.095587   1.799485   0.000000
    15  H    2.021170   1.089484   1.796920   1.796326   0.000000
    16  C    5.606184   6.541416   6.542841   6.552510   7.502483
    17  C    6.602952   7.697978   7.751955   7.794428   8.583438
    18  N    6.471241   7.203491   7.112031   7.079858   8.233112
    19  C    7.842446   8.637314   8.560135   8.513111   9.653314
    20  C    7.918209   8.899719   8.848576   8.937336   9.845804
    21  H    6.519846   7.694435   7.713756   7.941686   8.512708
    22  H    6.767890   7.928342   8.128581   7.962171   8.764342
    23  H    8.235672   9.027698   9.055456   8.796655  10.033571
    24  H    8.544390   9.233790   9.049526   9.103163  10.278173
    25  H    8.205332   9.156382   8.988497   9.286956  10.099545
    26  H    8.778361   9.814921   9.826652   9.831465  10.737210
    27  H    6.348872   6.900264   6.780082   6.659719   7.963550
                   16         17         18         19         20
    16  C    0.000000
    17  C    1.499972   0.000000
    18  N    1.360379   2.337692   0.000000
    19  C    2.348631   2.428892   1.460372   0.000000
    20  C    2.386056   1.547808   2.338704   1.537362   0.000000
    21  H    2.173392   1.096114   3.190250   3.358081   2.216570
    22  H    2.148154   1.103291   2.978195   2.963332   2.202616
    23  H    2.923193   2.938427   2.104413   1.102844   2.200436
    24  H    3.211536   3.371281   2.110232   1.095110   2.226005
    25  H    2.895832   2.179691   2.828716   2.168088   1.095648
    26  H    3.310962   2.213908   3.270090   2.195378   1.092732
    27  H    2.099517   3.302994   1.016398   2.167041   3.315573
                   21         22         23         24         25
    21  H    0.000000
    22  H    1.765124   0.000000
    23  H    3.984535   3.084658   0.000000
    24  H    4.166932   4.012468   1.776356   0.000000
    25  H    2.405849   3.056824   3.061245   2.419465   0.000000
    26  H    2.794353   2.426274   2.428117   2.790009   1.774950
    27  H    4.134761   3.843891   2.566144   2.527271   3.759946
                   26         27
    26  H    0.000000
    27  H    4.197577   0.000000
 Stoichiometry    C11H14NO(1+)
 Framework group  C1[X(C11H14NO)]
 Deg. of freedom    75
 Full point group                 C1      NOp   1
 RotChk:  IX=0 Diff= 3.23D-03
 Largest Abelian subgroup         C1      NOp   1
 Largest concise Abelian subgroup C1      NOp   1
                         Standard orientation:                         
 ---------------------------------------------------------------------
 Center     Atomic      Atomic             Coordinates (Angstroms)
 Number     Number       Type             X           Y           Z
 ---------------------------------------------------------------------
      1          6           0       -2.493204    0.245867   -0.012624
      2          6           0       -1.868547   -1.019940    0.082847
      3          6           0       -0.489131   -1.096674    0.093580
      4          6           0        0.334831    0.091812   -0.007104
      5          6           0       -0.319968    1.354743   -0.109389
      6          6           0       -1.696664    1.436811   -0.104714
      7          1           0       -2.205894    2.393394   -0.171801
      8          1           0       -2.459540   -1.926846    0.146021
      9          1           0       -0.026136   -2.073533    0.185359
     10          1           0        0.266997    2.263383   -0.190433
     11          8           0       -3.814594    0.453598   -0.030853
     12          6           0       -4.730161   -0.654207    0.065730
     13          1           0       -4.571593   -1.188238    1.008879
     14          1           0       -4.589139   -1.330088   -0.784921
     15          1           0       -5.723387   -0.207237    0.039379
     16          6           0        1.775255    0.026180   -0.016536
     17          6           0        2.749553    1.165586    0.032589
     18          7           0        2.454500   -1.150023   -0.092732
     19          6           0        3.897049   -0.960396   -0.218354
     20          6           0        4.095336    0.461678    0.331074
     21          1           0        2.486225    1.916553    0.786362
     22          1           0        2.777661    1.686962   -0.939331
     23          1           0        4.188650   -1.034916   -1.279335
     24          1           0        4.435893   -1.738120    0.333059
     25          1           0        4.262622    0.419971    1.413072
     26          1           0        4.948293    0.964934   -0.130728
     27          1           0        2.018503   -2.033609   -0.342226
 ---------------------------------------------------------------------
 Rotational constants (GHZ):           2.8191666           0.3488267           0.3141794
 Leave Link  202 at Wed Aug 12 14:57:50 2026, MaxMem=   104857600 cpu:               0.0 elap:               0.1
 (Enter /opt/packages/gaussian/g16RevC.01/g16/l301.exe)
 Standard basis: 6-31+G(d) (6D, 7F)
 Ernie: Thresh=  0.10000D-02 Tol=  0.10000D-05 Strict=F.
 There are   275 symmetry adapted cartesian basis functions of A   symmetry.
 There are   275 symmetry adapted basis functions of A   symmetry.
   275 basis functions,   472 primitive gaussians,   275 cartesian basis functions
    47 alpha electrons       47 beta electrons
       nuclear repulsion energy       751.9180095427 Hartrees.
 IExCor=  402 DFT=T Ex+Corr=B3LYP ExCW=0 ScaHFX=  0.200000
 ScaDFX=  0.800000  0.720000  1.000000  0.810000 ScalE2=  1.000000  1.000000
 IRadAn=      5 IRanWt=     -1 IRanGd=            0 ICorTp=0 IEmpDi=  4
 NAtoms=   27 NActive=   27 NUniq=   27 SFac= 1.00D+00 NAtFMM=   60 NAOKFM=F Big=F
 Integral buffers will be    131072 words long.
 Regular integral format.
 Two-electron integral symmetry is turned on.
 ------------------------------------------------------------------------------
 Polarizable Continuum Model (PCM)
 =================================
 Model                : PCM.
 Atomic radii         : SMD-Coulomb.
 Polarization charges : Total charges.
 Charge compensation  : None.
 Solution method      : Matrix inversion.
 Cavity type          : VdW (van der Waals Surface) (Alpha=1.000).
 Cavity algorithm     : GePol (No added spheres)
                        Default sphere list used, NSphG=   27.
                        Lebedev-Laikov grids with approx.  5.0 points / Ang**2.
                        Smoothing algorithm: York/Karplus (Gamma=1.0000).
                        Polarization charges: spherical gaussians, with
                                              point-specific exponents (IZeta= 3).
                        Self-potential: point-specific (ISelfS= 7).
                        Self-field    : sphere-specific E.n sum rule (ISelfD= 2).
 1st derivatives      : Analytical E(r).r(x)/FMM algorithm (CHGder, D1EAlg=3).
                        Cavity 1st derivative terms included.
 Solvent              : Methanol, Eps=  32.613000 Eps(inf)=   1.765709
 ------------------------------------------------------------------------------
 GePol: Number of generator spheres                  =      27
 GePol: Total number of spheres                      =      27
 GePol: Number of exposed spheres                    =      27 (100.00%)
 GePol: Number of points                             =    2004
 GePol: Average weight of points                     =       0.11
 GePol: Minimum weight of points                     =   0.17D-11
 GePol: Maximum weight of points                     =    0.21991
 GePol: Number of points with low weight             =     109
 GePol: Fraction of low-weight points (<1% of avg)   =       5.44%
 GePol: Cavity surface area                          =    217.061 Ang**2
 GePol: Cavity volume                                =    192.665 Ang**3
 ------------------------------------------------------------------------------
 Atomic radii for non-electrostatic terms: SMD-CDS.
 ------------------------------------------------------------------------------
 PCM non-electrostatic energy =        -0.0004206230 Hartrees.
 Nuclear repulsion after PCM non-electrostatic terms =      751.9175889198 Hartrees.
 Leave Link  301 at Wed Aug 12 14:57:50 2026, MaxMem=   104857600 cpu:               0.0 elap:               0.1
 (Enter /opt/packages/gaussian/g16RevC.01/g16/l302.exe)
 NPDir=0 NMtPBC=     1 NCelOv=     1 NCel=       1 NClECP=     1 NCelD=      1
         NCelK=      1 NCelE2=     1 NClLst=     1 CellRange=     0.0.
 One-electron integrals computed using PRISM.
 One-electron integral symmetry used in STVInt
 NBasis=   275 RedAO= T EigKep=  1.11D-06  NBF=   275
 NBsUse=   274 1.00D-06 EigRej=  4.66D-07 NBFU=   274
 Precomputing XC quadrature grid using
 IXCGrd= 4 IRadAn=           5 IRanWt=          -1 IRanGd=           0 AccXCQ= 0.00D+00.
 Generated NRdTot=       0 NPtTot=           0 NUsed=           0 NTot=          32
 NSgBfM=   274   274   274   274   274 MxSgAt=    27 MxSgA2=    27.
 Leave Link  302 at Wed Aug 12 14:57:51 2026, MaxMem=   104857600 cpu:               0.6 elap:               0.7
 (Enter /opt/packages/gaussian/g16RevC.01/g16/l303.exe)
 DipDrv:  MaxL=1.
 Leave Link  303 at Wed Aug 12 14:57:51 2026, MaxMem=   104857600 cpu:               0.0 elap:               0.0
 (Enter /opt/packages/gaussian/g16RevC.01/g16/l308.exe)
 Leave Link  308 at Wed Aug 12 14:57:51 2026, MaxMem=   104857600 cpu:               0.0 elap:               0.0
 (Enter /opt/packages/gaussian/g16RevC.01/g16/l401.exe)
 Initial guess from the checkpoint file:  "mono_s1_planar_opt.chk"
 B after Tr=     0.000000   -0.000000   -0.000000
         Rot=    1.000000    0.000665   -0.000005    0.000019 Ang=   0.08 deg.
 Guess basis will be translated and rotated to current coordinates.
 JPrj=2 DoOrth=T DoCkMO=T.
 Generating alternative initial guess.
 ExpMin= 4.38D-02 ExpMax= 5.48D+03 ExpMxC= 8.25D+02 IAcc=3 IRadAn=         5 AccDes= 0.00D+00
 Harris functional with IExCor=  402 and IRadAn=       5 diagonalized for initial guess.
 HarFok:  IExCor=  402 AccDes= 0.00D+00 IRadAn=         5 IDoV= 1 UseB2=F ITyADJ=14
 ICtDFT=  3500011 ScaDFX=  1.000000  1.000000  1.000000  1.000000
 FoFCou: FMM=F IPFlag=           0 FMFlag=      100000 FMFlg1=           0
         NFxFlg=           0 DoJE=T BraDBF=F KetDBF=T FulRan=T
         wScrn=  0.000000 ICntrl=       500 IOpCl=  0 I1Cent=   200000004 NGrid=           0
         NMat0=    1 NMatS0=      1 NMatT0=    0 NMatD0=    1 NMtDS0=    0 NMtDT0=    0
 Petite list used in FoFCou.
 Harris En= -557.357528274331    
 Leave Link  401 at Wed Aug 12 14:57:57 2026, MaxMem=   104857600 cpu:               5.4 elap:               5.5
 (Enter /opt/packages/gaussian/g16RevC.01/g16/l502.exe)
 Integral symmetry usage will be decided dynamically.
 Closed shell SCF:
 Using DIIS extrapolation, IDIIS=  1040.
 NGot=   104857600 LenX=   104701058 LenY=   104624992
 Requested convergence on RMS density matrix=1.00D-08 within 128 cycles.
 Requested convergence on MAX density matrix=1.00D-06.
 Requested convergence on             energy=1.00D-06.
 No special actions if energy rises.
 Fock matrices will be formed incrementally for  20 cycles.

 Cycle   1  Pass 1  IDiag  1:
 FoFJK:  IHMeth= 1 ICntrl=       0 DoSepK=F KAlg= 0 I1Cent=           0 FoldK=F
 IRaf= 880000000 NMat=       1 IRICut=       1 DoRegI=T DoRafI=F ISym2E= 0 IDoP0=0 IntGTp=1.
 FoFCou: FMM=F IPFlag=           0 FMFlag=      100000 FMFlg1=           0
         NFxFlg=           0 DoJE=F BraDBF=F KetDBF=F FulRan=T
         wScrn=  0.000000 ICntrl=         0 IOpCl=  0 I1Cent=           0 NGrid=           0
         NMat0=    1 NMatS0=      1 NMatT0=    0 NMatD0=    1 NMtDS0=    0 NMtDT0=    0
 Symmetry not used in FoFCou.
 Inv3:  Mode=1 IEnd=    12048048.
 Iteration    1 A*A^-1 deviation from unit magnitude is 3.22D-15 for   1100.
 Iteration    1 A*A^-1 deviation from orthogonality  is 2.11D-15 for   1852   1789.
 Iteration    1 A^-1*A deviation from unit magnitude is 3.22D-15 for   1100.
 Iteration    1 A^-1*A deviation from orthogonality  is 1.38D-14 for    812    810.
 E= -557.454399337778    
 DIIS: error= 1.47D-03 at cycle   1 NSaved=   1.
 NSaved= 1 IEnMin= 1 EnMin= -557.454399337778     IErMin= 1 ErrMin= 1.47D-03
 ErrMax= 1.47D-03  0.00D+00 EMaxC= 1.00D-01 BMatC= 4.52D-04 BMatP= 4.52D-04
 IDIUse=3 WtCom= 9.85D-01 WtEn= 1.47D-02
 Coeff-Com:  0.100D+01
 Coeff-En:   0.100D+01
 Coeff:      0.100D+01
 Gap=     0.421 Goal=   None    Shift=    0.000
 GapD=    0.421 DampG=2.000 DampE=1.000 DampFc=2.0000 IDamp=-1.
 RMSDP=2.26D-03 MaxDP=2.38D-01              OVMax= 7.03D-03

 Cycle   2  Pass 1  IDiag  1:
 RMSU=  1.72D-03    CP:  1.03D+00
 E= -557.455069735888     Delta-E=       -0.000670398110 Rises=F Damp=F
 DIIS: error= 8.16D-05 at cycle   2 NSaved=   2.
 NSaved= 2 IEnMin= 2 EnMin= -557.455069735888     IErMin= 2 ErrMin= 8.16D-05
 ErrMax= 8.16D-05  0.00D+00 EMaxC= 1.00D-01 BMatC= 3.89D-06 BMatP= 4.52D-04
 IDIUse=1 WtCom= 1.00D+00 WtEn= 0.00D+00
 Coeff-Com: -0.314D-01 0.103D+01
 Coeff:     -0.314D-01 0.103D+01
 Gap=     0.147 Goal=   None    Shift=    0.000
 RMSDP=9.39D-05 MaxDP=5.07D-03 DE=-6.70D-04 OVMax= 1.04D-03

 Cycle   3  Pass 1  IDiag  1:
 RMSU=  9.04D-05    CP:  1.03D+00  1.01D+00
 E= -557.455074190219     Delta-E=       -0.000004454331 Rises=F Damp=F
 DIIS: error= 6.64D-05 at cycle   3 NSaved=   3.
 NSaved= 3 IEnMin= 3 EnMin= -557.455074190219     IErMin= 3 ErrMin= 6.64D-05
 ErrMax= 6.64D-05  0.00D+00 EMaxC= 1.00D-01 BMatC= 2.58D-06 BMatP= 3.89D-06
 IDIUse=1 WtCom= 1.00D+00 WtEn= 0.00D+00
 Coeff-Com: -0.194D-01 0.472D+00 0.548D+00
 Coeff:     -0.194D-01 0.472D+00 0.548D+00
 Gap=     0.147 Goal=   None    Shift=    0.000
 RMSDP=5.65D-05 MaxDP=3.90D-03 DE=-4.45D-06 OVMax= 9.76D-04

 Cycle   4  Pass 1  IDiag  1:
 RMSU=  3.75D-05    CP:  1.03D+00  1.02D+00  6.89D-01
 E= -557.455076530656     Delta-E=       -0.000002340437 Rises=F Damp=F
 DIIS: error= 3.33D-05 at cycle   4 NSaved=   4.
 NSaved= 4 IEnMin= 4 EnMin= -557.455076530656     IErMin= 4 ErrMin= 3.33D-05
 ErrMax= 3.33D-05  0.00D+00 EMaxC= 1.00D-01 BMatC= 4.86D-07 BMatP= 2.58D-06
 IDIUse=1 WtCom= 1.00D+00 WtEn= 0.00D+00
 Coeff-Com: -0.549D-02 0.956D-01 0.310D+00 0.600D+00
 Coeff:     -0.549D-02 0.956D-01 0.310D+00 0.600D+00
 Gap=     0.147 Goal=   None    Shift=    0.000
 RMSDP=1.75D-05 MaxDP=1.48D-03 DE=-2.34D-06 OVMax= 3.56D-04

 Cycle   5  Pass 1  IDiag  1:
 RMSU=  1.02D-05    CP:  1.03D+00  1.02D+00  7.70D-01  7.65D-01
 E= -557.455077061961     Delta-E=       -0.000000531305 Rises=F Damp=F
 DIIS: error= 7.93D-06 at cycle   5 NSaved=   5.
 NSaved= 5 IEnMin= 5 EnMin= -557.455077061961     IErMin= 5 ErrMin= 7.93D-06
 ErrMax= 7.93D-06  0.00D+00 EMaxC= 1.00D-01 BMatC= 2.23D-08 BMatP= 4.86D-07
 IDIUse=1 WtCom= 1.00D+00 WtEn= 0.00D+00
 Coeff-Com: -0.778D-03 0.117D-02 0.863D-01 0.250D+00 0.663D+00
 Coeff:     -0.778D-03 0.117D-02 0.863D-01 0.250D+00 0.663D+00
 Gap=     0.147 Goal=   None    Shift=    0.000
 RMSDP=5.00D-06 MaxDP=1.85D-04 DE=-5.31D-07 OVMax= 9.69D-05

 Cycle   6  Pass 1  IDiag  1:
 RMSU=  3.95D-06    CP:  1.03D+00  1.02D+00  7.73D-01  8.21D-01  8.06D-01
 E= -557.455077081186     Delta-E=       -0.000000019225 Rises=F Damp=F
 DIIS: error= 3.60D-06 at cycle   6 NSaved=   6.
 NSaved= 6 IEnMin= 6 EnMin= -557.455077081186     IErMin= 6 ErrMin= 3.60D-06
 ErrMax= 3.60D-06  0.00D+00 EMaxC= 1.00D-01 BMatC= 6.86D-09 BMatP= 2.23D-08
 IDIUse=1 WtCom= 1.00D+00 WtEn= 0.00D+00
 Coeff-Com:  0.222D-03-0.121D-01 0.123D-01 0.735D-01 0.403D+00 0.523D+00
 Coeff:      0.222D-03-0.121D-01 0.123D-01 0.735D-01 0.403D+00 0.523D+00
 Gap=     0.147 Goal=   None    Shift=    0.000
 RMSDP=1.73D-06 MaxDP=9.29D-05 DE=-1.92D-08 OVMax= 3.38D-05

 Cycle   7  Pass 1  IDiag  1:
 RMSU=  8.64D-07    CP:  1.03D+00  1.02D+00  7.79D-01  8.21D-01  8.26D-01
                    CP:  6.82D-01
 E= -557.455077088126     Delta-E=       -0.000000006941 Rises=F Damp=F
 DIIS: error= 8.28D-07 at cycle   7 NSaved=   7.
 NSaved= 7 IEnMin= 7 EnMin= -557.455077088126     IErMin= 7 ErrMin= 8.28D-07
 ErrMax= 8.28D-07  0.00D+00 EMaxC= 1.00D-01 BMatC= 3.34D-10 BMatP= 6.86D-09
 IDIUse=1 WtCom= 1.00D+00 WtEn= 0.00D+00
 Coeff-Com:  0.165D-03-0.661D-02 0.110D-02 0.231D-01 0.178D+00 0.276D+00
 Coeff-Com:  0.528D+00
 Coeff:      0.165D-03-0.661D-02 0.110D-02 0.231D-01 0.178D+00 0.276D+00
 Coeff:      0.528D+00
 Gap=     0.147 Goal=   None    Shift=    0.000
 RMSDP=4.45D-07 MaxDP=2.12D-05 DE=-6.94D-09 OVMax= 4.44D-06

 Cycle   8  Pass 1  IDiag  1:
 RMSU=  2.94D-07    CP:  1.03D+00  1.02D+00  7.79D-01  8.20D-01  8.37D-01
                    CP:  6.52D-01  6.83D-01
 E= -557.455077088413     Delta-E=       -0.000000000287 Rises=F Damp=F
 DIIS: error= 1.66D-07 at cycle   8 NSaved=   8.
 NSaved= 8 IEnMin= 8 EnMin= -557.455077088413     IErMin= 8 ErrMin= 1.66D-07
 ErrMax= 1.66D-07  0.00D+00 EMaxC= 1.00D-01 BMatC= 1.99D-11 BMatP= 3.34D-10
 IDIUse=1 WtCom= 1.00D+00 WtEn= 0.00D+00
 Coeff-Com:  0.465D-04-0.149D-02-0.894D-03 0.157D-02 0.329D-01 0.629D-01
 Coeff-Com:  0.228D+00 0.677D+00
 Coeff:      0.465D-04-0.149D-02-0.894D-03 0.157D-02 0.329D-01 0.629D-01
 Coeff:      0.228D+00 0.677D+00
 Gap=     0.147 Goal=   None    Shift=    0.000
 RMSDP=9.66D-08 MaxDP=4.41D-06 DE=-2.87D-10 OVMax= 1.28D-06

 Cycle   9  Pass 1  IDiag  1:
 RMSU=  8.56D-08    CP:  1.03D+00  1.02D+00  7.79D-01  8.19D-01  8.40D-01
                    CP:  6.52D-01  6.85D-01  1.01D+00
 E= -557.455077088429     Delta-E=       -0.000000000016 Rises=F Damp=F
 DIIS: error= 7.99D-08 at cycle   9 NSaved=   9.
 NSaved= 9 IEnMin= 9 EnMin= -557.455077088429     IErMin= 9 ErrMin= 7.99D-08
 ErrMax= 7.99D-08  0.00D+00 EMaxC= 1.00D-01 BMatC= 5.18D-12 BMatP= 1.99D-11
 IDIUse=1 WtCom= 1.00D+00 WtEn= 0.00D+00
 Coeff-Com:  0.211D-05 0.149D-03-0.706D-03-0.273D-02-0.756D-02-0.550D-02
 Coeff-Com:  0.519D-01 0.393D+00 0.571D+00
 Coeff:      0.211D-05 0.149D-03-0.706D-03-0.273D-02-0.756D-02-0.550D-02
 Coeff:      0.519D-01 0.393D+00 0.571D+00
 Gap=     0.147 Goal=   None    Shift=    0.000
 RMSDP=5.69D-08 MaxDP=2.95D-06 DE=-1.60D-11 OVMax= 6.38D-07

 Cycle  10  Pass 1  IDiag  1:
 RMSU=  2.54D-08    CP:  1.03D+00  1.02D+00  7.79D-01  8.19D-01  8.39D-01
                    CP:  6.59D-01  7.08D-01  9.75D-01  6.32D-01
 E= -557.455077088429     Delta-E=        0.000000000000 Rises=F Damp=F
 DIIS: error= 1.63D-08 at cycle  10 NSaved=  10.
 NSaved=10 IEnMin= 9 EnMin= -557.455077088429     IErMin=10 ErrMin= 1.63D-08
 ErrMax= 1.63D-08  0.00D+00 EMaxC= 1.00D-01 BMatC= 1.92D-13 BMatP= 5.18D-12
 IDIUse=1 WtCom= 1.00D+00 WtEn= 0.00D+00
 Coeff-Com: -0.192D-05 0.158D-03-0.239D-03-0.128D-02-0.516D-02-0.616D-02
 Coeff-Com:  0.978D-02 0.132D+00 0.254D+00 0.617D+00
 Coeff:     -0.192D-05 0.158D-03-0.239D-03-0.128D-02-0.516D-02-0.616D-02
 Coeff:      0.978D-02 0.132D+00 0.254D+00 0.617D+00
 Gap=     0.147 Goal=   None    Shift=    0.000
 RMSDP=1.03D-08 MaxDP=4.84D-07 DE= 0.00D+00 OVMax= 1.76D-07

 Cycle  11  Pass 1  IDiag  1:
 RMSU=  6.26D-09    CP:  1.03D+00  1.02D+00  7.79D-01  8.19D-01  8.39D-01
                    CP:  6.59D-01  7.11D-01  9.86D-01  6.39D-01  7.65D-01
 E= -557.455077088427     Delta-E=        0.000000000003 Rises=F Damp=F
 DIIS: error= 7.85D-09 at cycle  11 NSaved=  11.
 NSaved=11 IEnMin= 9 EnMin= -557.455077088429     IErMin=11 ErrMin= 7.85D-09
 ErrMax= 7.85D-09  0.00D+00 EMaxC= 1.00D-01 BMatC= 3.35D-14 BMatP= 1.92D-13
 IDIUse=1 WtCom= 1.00D+00 WtEn= 0.00D+00
 Coeff-Com: -0.135D-05 0.813D-04-0.789D-04-0.527D-03-0.240D-02-0.324D-02
 Coeff-Com:  0.978D-03 0.417D-01 0.977D-01 0.354D+00 0.511D+00
 Coeff:     -0.135D-05 0.813D-04-0.789D-04-0.527D-03-0.240D-02-0.324D-02
 Coeff:      0.978D-03 0.417D-01 0.977D-01 0.354D+00 0.511D+00
 Gap=     0.147 Goal=   None    Shift=    0.000
 RMSDP=4.38D-09 MaxDP=2.62D-07 DE= 2.73D-12 OVMax= 4.91D-08

 Error on total polarization charges =  0.05315
 SCF Done:  E(RB3LYP) =  -557.455077088     A.U. after   11 cycles
            NFock= 11  Conv=0.44D-08     -V/T= 2.0104
 KE= 5.517331000106D+02 PE=-2.781603515890D+03 EE= 9.204977498708D+02
 SMD-CDS (non-electrostatic) energy       (kcal/mol) =      -0.26
 (included in total energy above)
 Leave Link  502 at Wed Aug 12 15:00:26 2026, MaxMem=   104857600 cpu:             148.3 elap:             148.7
 (Enter /opt/packages/gaussian/g16RevC.01/g16/l801.exe)
 DoSCS=F DFT=T ScalE2(SS,OS)=  1.000000  1.000000
 ExpMin= 4.38D-02 ExpMax= 5.48D+03 ExpMxC= 8.25D+02 IAcc=3 IRadAn=         5 AccDes= 0.00D+00
 HarFok:  IExCor=  205 AccDes= 0.00D+00 IRadAn=         5 IDoV=-2 UseB2=F ITyADJ=14
 ICtDFT= 12500011 ScaDFX=  1.000000  1.000000  1.000000  1.000000
 Largest valence mixing into a core orbital is  5.49D-05
 Largest core mixing into a valence orbital is  1.18D-05
 Range of M.O.s used for correlation:    14   274
 NBasis=   275 NAE=    47 NBE=    47 NFC=    13 NFV=     0
 NROrb=    261 NOA=    34 NOB=    34 NVA=   227 NVB=   227

 **** Warning!!: The largest alpha MO coefficient is  0.21584428D+03

 Leave Link  801 at Wed Aug 12 15:00:26 2026, MaxMem=   104857600 cpu:               0.6 elap:               0.6
 (Enter /opt/packages/gaussian/g16RevC.01/g16/l914.exe)
 RHF ground state
 Two-electron integrals replicated using symmetry.
 MDV=   104857600 DFT=T DoStab=F Mixed=T DoRPA=T DoScal=F NonHer=T
 NEqPCM:  Using equilibrium solvation (IEInf=0, Eps=  32.6130, EpsInf=   1.7657)
 Making orbital integer symmetry assigments:
 Orbital symmetries:
       Occupied  (A) (A) (A) (A) (A) (A) (A) (A) (A) (A) (A) (A)
                 (A) (A) (A) (A) (A) (A) (A) (A) (A) (A) (A) (A)
                 (A) (A) (A) (A) (A) (A) (A) (A) (A) (A) (A) (A)
                 (A) (A) (A) (A) (A) (A) (A) (A) (A) (A) (A)
       Virtual   (A) (A) (A) (A) (A) (A) (A) (A) (A) (A) (A) (A)
                 (A) (A) (A) (A) (A) (A) (A) (A) (A) (A) (A) (A)
                 (A) (A) (A) (A) (A) (A) (A) (A) (A) (A) (A) (A)
                 (A) (A) (A) (A) (A) (A) (A) (A) (A) (A) (A) (A)
                 (A) (A) (A) (A) (A) (A) (A) (A) (A) (A) (A) (A)
                 (A) (A) (A) (A) (A) (A) (A) (A) (A) (A) (A) (A)
                 (A) (A) (A) (A) (A) (A) (A) (A) (A) (A) (A) (A)
                 (A) (A) (A) (A) (A) (A) (A) (A) (A) (A) (A) (A)
                 (A) (A) (A) (A) (A) (A) (A) (A) (A) (A) (A) (A)
                 (A) (A) (A) (A) (A) (A) (A) (A) (A) (A) (A) (A)
                 (A) (A) (A) (A) (A) (A) (A) (A) (A) (A) (A) (A)
                 (A) (A) (A) (A) (A) (A) (A) (A) (A) (A) (A) (A)
                 (A) (A) (A) (A) (A) (A) (A) (A) (A) (A) (A) (A)
                 (A) (A) (A) (A) (A) (A) (A) (A) (A) (A) (A) (A)
                 (A) (A) (A) (A) (A) (A) (A) (A) (A) (A) (A) (A)
                 (A) (A) (A) (A) (A) (A) (A) (A) (A) (A) (A) (A)
                 (A) (A) (A) (A) (A) (A) (A) (A) (A) (A) (A) (A)
                 (A) (A) (A) (A) (A) (A) (A) (A) (A) (A) (A) (A)
                 (A) (A) (A) (A) (A) (A) (A) (A) (A) (A) (A)
 Generating guess from densities on rwf.
 Convergence on wavefunction:    0.000001000000000
 Davidson Disk Diagonalization:  ConvIn= 1.00D-06 SkipCon=T Conv= 1.00D-06.
 Max sub-space:  2000 roots to seek:     5 dimension of matrix:        15436
 Iteration     1 Dimension    10 NMult     0 NNew     10
 CISAX will form    10 AO SS matrices at one time.
 NMat=    10 NSing=    10 JSym2X= 0.
 FoFJK:  IHMeth= 1 ICntrl=       0 DoSepK=F KAlg= 0 I1Cent=           0 FoldK=F
 IRaf= 880000000 NMat=      20 IRICut=      25 DoRegI=T DoRafI=T ISym2E= 0 IDoP0=0 IntGTp=1.
 FoFCou: FMM=F IPFlag=           0 FMFlag=      100000 FMFlg1=           0
         NFxFlg=           0 DoJE=F BraDBF=F KetDBF=F FulRan=T
         wScrn=  0.000000 ICntrl=         0 IOpCl=  0 I1Cent=           0 NGrid=           0
         NMat0=   20 NMatS0=     10 NMatT0=    0 NMatD0=   20 NMtDS0=    0 NMtDT0=    0
 Symmetry not used in FoFCou.
 Raff kept on since  87.67% of shell-pairs survive, threshold=   0.20 IRatSp=88.
 Excitation Energies [eV] at current iteration:
 Root      1 :     3.518654458251240
 Root      2 :     4.227027719818079
 Root      3 :     5.159921750616389
 Root      4 :     5.295221984669485
 Root      5 :     5.730888204363769
 Iteration     2 Dimension    20 NMult    10 NNew     10
 CISAX will form    10 AO SS matrices at one time.
 NMat=    10 NSing=    10 JSym2X= 0.
 Root      1 not converged, maximum delta is    0.002680042677696
 Root      2 not converged, maximum delta is    0.003413133381081
 Root      3 not converged, maximum delta is    0.002952185701247
 Root      4 not converged, maximum delta is    0.002595709846369
 Root      5 not converged, maximum delta is    0.001695549421239
 Excitation Energies [eV] at current iteration:
 Root      1 :     3.517336347933897   Change is   -0.001318110317343
 Root      2 :     4.225958066529929   Change is   -0.001069653288149
 Root      3 :     5.158759016210841   Change is   -0.001162734405549
 Root      4 :     5.294299356588176   Change is   -0.000922628081309
 Root      5 :     5.730448545135569   Change is   -0.000439659228200
 Iteration     3 Dimension    30 NMult    20 NNew     10
 CISAX will form    10 AO SS matrices at one time.
 NMat=    10 NSing=    10 JSym2X= 0.
 Root      1 not converged, maximum delta is    0.000260913674587
 Root      2 not converged, maximum delta is    0.000386560261784
 Root      3 not converged, maximum delta is    0.000583740203945
 Root      4 not converged, maximum delta is    0.000954022972988
 Root      5 not converged, maximum delta is    0.001207800072079
 Excitation Energies [eV] at current iteration:
 Root      1 :     3.517317192514354   Change is   -0.000019155419544
 Root      2 :     4.225945158575727   Change is   -0.000012907954202
 Root      3 :     5.158732258819684   Change is   -0.000026757391156
 Root      4 :     5.294276264345753   Change is   -0.000023092242422
 Root      5 :     5.730435192584609   Change is   -0.000013352550960
 Iteration     4 Dimension    40 NMult    30 NNew     10
 CISAX will form    10 AO SS matrices at one time.
 NMat=    10 NSing=    10 JSym2X= 0.
 Root      1 not converged, maximum delta is    0.000092654877634
 Root      2 not converged, maximum delta is    0.000082069749994
 Root      3 not converged, maximum delta is    0.000371177431126
 Root      4 not converged, maximum delta is    0.000372585533270
 Root      5 not converged, maximum delta is    0.000457358451394
 Excitation Energies [eV] at current iteration:
 Root      1 :     3.517315512108619   Change is   -0.000001680405735
 Root      2 :     4.225943718599483   Change is   -0.000001439976245
 Root      3 :     5.158728887028201   Change is   -0.000003371791484
 Root      4 :     5.294273692198870   Change is   -0.000002572146883
 Root      5 :     5.730433439492732   Change is   -0.000001753091877
 Iteration     5 Dimension    50 NMult    40 NNew     10
 CISAX will form    10 AO SS matrices at one time.
 NMat=    10 NSing=    10 JSym2X= 0.
 Root      1 not converged, maximum delta is    0.000025002320967
 Root      2 not converged, maximum delta is    0.000026272652448
 Root      3 not converged, maximum delta is    0.000171381264219
 Root      4 not converged, maximum delta is    0.000128812805533
 Root      5 not converged, maximum delta is    0.000381706510288
 Excitation Energies [eV] at current iteration:
 Root      1 :     3.517315445185690   Change is   -0.000000066922929
 Root      2 :     4.225943590314889   Change is   -0.000000128284594
 Root      3 :     5.158728399427275   Change is   -0.000000487600926
 Root      4 :     5.294273412808129   Change is   -0.000000279390741
 Root      5 :     5.730433020407562   Change is   -0.000000419085170
 Iteration     6 Dimension    60 NMult    50 NNew     10
 CISAX will form    10 AO SS matrices at one time.
 NMat=    10 NSing=    10 JSym2X= 0.
 Root      1 not converged, maximum delta is    0.000002819845776
 Root      2 not converged, maximum delta is    0.000005577060343
 Root      3 not converged, maximum delta is    0.000038144393832
 Root      4 not converged, maximum delta is    0.000015572672761
 Root      5 not converged, maximum delta is    0.000131945405347
 Excitation Energies [eV] at current iteration:
 Root      1 :     3.517315442912647   Change is   -0.000000002273043
 Root      2 :     4.225943582183978   Change is   -0.000000008130910
 Root      3 :     5.158728355599964   Change is   -0.000000043827311
 Root      4 :     5.294273385496907   Change is   -0.000000027311222
 Root      5 :     5.730432938946628   Change is   -0.000000081460934
 Iteration     7 Dimension    70 NMult    60 NNew     10
 CISAX will form    10 AO SS matrices at one time.
 NMat=    10 NSing=    10 JSym2X= 0.
 Root      1 has converged.
 Root      2 not converged, maximum delta is    0.000001527513779
 Root      3 not converged, maximum delta is    0.000010138264517
 Root      4 not converged, maximum delta is    0.000005159580570
 Root      5 not converged, maximum delta is    0.000021281658147
 Excitation Energies [eV] at current iteration:
 Root      1 :     3.517315442798380   Change is   -0.000000000114267
 Root      2 :     4.225943581534305   Change is   -0.000000000649674
 Root      3 :     5.158728350807104   Change is   -0.000000004792860
 Root      4 :     5.294273381076890   Change is   -0.000000004420017
 Root      5 :     5.730432927715477   Change is   -0.000000011231151
 Iteration     8 Dimension    78 NMult    70 NNew      8
 CISAX will form     8 AO SS matrices at one time.
 NMat=     8 NSing=     8 JSym2X= 0.
 Root      1 has converged.
 Root      2 has converged.
 Root      3 not converged, maximum delta is    0.000001366036365
 Root      4 not converged, maximum delta is    0.000002162177033
 Root      5 not converged, maximum delta is    0.000004188218429
 Excitation Energies [eV] at current iteration:
 Root      1 :     3.517315442797912   Change is   -0.000000000000468
 Root      2 :     4.225943581502285   Change is   -0.000000000032020
 Root      3 :     5.158728350203145   Change is   -0.000000000603960
 Root      4 :     5.294273380539618   Change is   -0.000000000537272
 Root      5 :     5.730432926048096   Change is   -0.000000001667381
 Iteration     9 Dimension    84 NMult    78 NNew      6
 CISAX will form     6 AO SS matrices at one time.
 NMat=     6 NSing=     6 JSym2X= 0.
 Root      1 has converged.
 Root      2 has converged.
 Root      3 has converged.
 Root      4 has converged.
 Root      5 not converged, maximum delta is    0.000001019062276
 Excitation Energies [eV] at current iteration:
 Root      1 :     3.517315442797468   Change is   -0.000000000000444
 Root      2 :     4.225943581502130   Change is   -0.000000000000156
 Root      3 :     5.158728350133027   Change is   -0.000000000070117
 Root      4 :     5.294273380450226   Change is   -0.000000000089392
 Root      5 :     5.730432925698791   Change is   -0.000000000349305
 Iteration    10 Dimension    86 NMult    84 NNew      2
 CISAX will form     2 AO SS matrices at one time.
 NMat=     2 NSing=     2 JSym2X= 0.
 Root      1 has converged.
 Root      2 has converged.
 Root      3 has converged.
 Root      4 has converged.
 Root      5 has converged.
 Excitation Energies [eV] at current iteration:
 Root      1 :     3.517315442797188   Change is   -0.000000000000280
 Root      2 :     4.225943581502149   Change is    0.000000000000019
 Root      3 :     5.158728350132088   Change is   -0.000000000000940
 Root      4 :     5.294273380449884   Change is   -0.000000000000342
 Root      5 :     5.730432925646543   Change is   -0.000000000052248
 Convergence achieved on expansion vectors.
 ***********************************************************************
 Excited states from <AA,BB:AA,BB> singles matrix:
 ***********************************************************************
 
 1PDM for each excited state written to RWF  633
 Ground to excited state transition densities written to RWF  633
 Ground to excited state transition electric dipole moments (Au):
       state          X           Y           Z        Dip. S.      Osc.
         1         3.1657     -0.1305     -0.0755     10.0444      0.8656
         2         0.5297     -0.6325      0.0370      0.6821      0.0706
         3        -0.6427      1.2964     -0.0857      2.1012      0.2656
         4         0.2038     -0.8771     -0.0587      0.8142      0.1056
         5        -0.1390      0.0364     -0.0304      0.0216      0.0030
 Ground to excited state transition velocity dipole moments (Au):
       state          X           Y           Z        Dip. S.      Osc.
         1        -0.3977      0.0137      0.0104      0.1584      0.8172
         2        -0.0806      0.0956     -0.0057      0.0157      0.0672
         3         0.1121     -0.2419      0.0155      0.0713      0.2507
         4        -0.0428      0.1655      0.0119      0.0294      0.1007
         5         0.0288     -0.0079      0.0066      0.0009      0.0030
 Ground to excited state transition magnetic dipole moments (Au):
       state          X           Y           Z
         1         0.0189     -0.0186      0.4056
         2         0.0011     -0.0597     -0.6710
         3        -0.0041      0.0295      0.1929
         4         0.0351     -0.0549      0.1542
         5         0.1380     -0.0116     -0.0053
 Ground to excited state transition velocity quadrupole moments (Au):
       state          XX          YY          ZZ          XY          XZ          YZ
         1         0.2302     -0.0863     -0.0209      0.2833      0.0526     -0.0145
         2         0.0741      0.0255     -0.0025      0.0103      0.0138     -0.0059
         3        -0.0521     -0.1457      0.0190      0.5922     -0.0624      0.0148
         4        -1.5206      0.0963      0.0073      0.7103      0.1355     -0.0733
         5        -0.0320     -0.0069      0.0037     -0.0394      0.0198      0.0371
 <0|del|b> * <b|rxdel|0> + <0|del|b> * <b|delr+rdel|0>
 Rotatory Strengths (R) in cgs (10**-40 erg-esu-cm/Gauss)
       state          XX          YY          ZZ    R(velocity)    E-M Angle
         1        16.8976     -1.3588    -35.0701     -6.5105       91.26
         2        -7.3916      9.7510    -11.2802     -2.9736       91.33
         3       -18.7885     -9.2988     10.8635     -5.7412       95.08
         4       -38.5072     -9.1046     15.8214    -10.5968      107.75
         5        -0.0800      8.8396      4.7628      4.5075       18.06
 1/2[<0|r|b>*<b|rxdel|0> + (<0|rxdel|b>*<b|r|0>)*]
 Rotatory Strengths (R) in cgs (10**-40 erg-esu-cm/Gauss)
       state          XX          YY          ZZ     R(length)
         1       -42.3759     -1.7134     21.6707     -7.4729
         2        -0.4260    -26.7127     17.5542     -3.1948
         3        -1.8822    -27.0627     11.6945     -5.7501
         4        -5.0609    -34.0353      6.4042    -10.8974
         5        13.5671      0.2982     -0.1139      4.5838
  1/2[<0|del|b>*<b|r|0> + (<0|r|b>*<b|del|0>)*] (Au)
       state          X           Y           Z        Dip. S.   Osc.(frdel)
         1        -1.2589     -0.0018     -0.0008      1.2615      0.8410
         2        -0.0427     -0.0604     -0.0002      0.1034      0.0689
         3        -0.0721     -0.3135     -0.0013      0.3869      0.2580
         4        -0.0087     -0.1452     -0.0007      0.1546      0.1031
         5        -0.0040     -0.0003     -0.0002      0.0045      0.0030

 Excitation energies and oscillator strengths:
 
 Excited State   1:      Singlet-A      3.5173 eV  352.50 nm  f=0.8656  <S**2>=0.000
      47 -> 48         0.70442
 This state for optimization and/or second-order correction.
 Total Energy, E(TD-HF/TD-DFT) =  -557.325818124    
 Copying the excited state density for this state as the 1-particle RhoCI density.
 
 Excited State   2:      Singlet-A      4.2259 eV  293.39 nm  f=0.0706  <S**2>=0.000
      46 -> 48         0.68502
      47 -> 49        -0.16716
 
 Excited State   3:      Singlet-A      5.1587 eV  240.34 nm  f=0.2656  <S**2>=0.000
      46 -> 48        -0.16517
      47 -> 49        -0.67473
 
 Excited State   4:      Singlet-A      5.2943 eV  234.19 nm  f=0.1056  <S**2>=0.000
      45 -> 48         0.69703
 
 Excited State   5:      Singlet-A      5.7304 eV  216.36 nm  f=0.0030  <S**2>=0.000
      41 -> 48         0.11827
      44 -> 48         0.68978
 SavETr:  write IOETrn=   770 NScale= 10 NData=  16 NLR=1 NState=    5 LETran=     100.
 The selected state is a singlet.
 CISGrd: IGrad=2 NXY=2 DFT=T
 CISAX will form     1 AO SS matrices at one time.
 NMat=     1 NSing=     1 JSym2X= 0.
 GePol: Maximum number of non-zero 1st derivatives   =     254
 Leave Link  914 at Wed Aug 12 15:16:02 2026, MaxMem=   104857600 cpu:             930.9 elap:             935.4
 (Enter /opt/packages/gaussian/g16RevC.01/g16/l1002.exe)
 Minotr:  Closed shell wavefunction.
          Computing CIS/TDA/TD derivatives.
          Using Z-Vector for PSCF gradient.
          Skipping F1 and S1 gradient terms here.
          IDoAtm=111111111111111111111111111
 NEqPCM:  Using equilibrium solvation (IEInf=0, Eps=  32.6130, EpsInf=   1.7657)
          Frozen-core window.
          Direct CPHF calculation.
          Differentiating once with respect to electric field.
                with respect to dipole field.
          Differentiating once with respect to nuclear coordinates.
          Requested convergence is 1.0D-10 RMS, and 1.0D-09 maximum.
          NewPWx=F KeepS1=T KeepF1=T KeepIn=T MapXYZ=F SortEE=F KeepMc=T.
 Two-electron integral symmetry used by symmetrizing perturbed Fock matrices.
          MDV=     104857600 using IRadAn=       5.
          Solving linear equations separately, MaxMat=     384.
          There are     1 degrees of freedom in the 1st order CPHF.  IDoFFX=0 NUNeed=     1.
 FoFJK:  IHMeth= 1 ICntrl=       0 DoSepK=F KAlg= 0 I1Cent=           0 FoldK=F
 IRaf= 900000000 NMat=       1 IRICut=       1 DoRegI=T DoRafI=F ISym2E=-1 IDoP0=0 IntGTp=1.
 FoFCou: FMM=F IPFlag=           0 FMFlag=      100000 FMFlg1=           0
         NFxFlg=           0 DoJE=F BraDBF=F KetDBF=F FulRan=T
         wScrn=  0.000000 ICntrl=         0 IOpCl=  0 I1Cent=           0 NGrid=           0
         NMat0=    1 NMatS0=      1 NMatT0=    0 NMatD0=    1 NMtDS0=    0 NMtDT0=    0
 Petite list used in FoFCou.
 LinEq1:  Iter=  0 NonCon=     1 RMS=9.59D-03 Max=6.54D-01 NDo=     1
 AX will form     1 AO Fock derivatives at one time.
 LinEq1:  Iter=  1 NonCon=     1 RMS=3.75D-03 Max=2.62D-01 NDo=     1
 LinEq1:  Iter=  2 NonCon=     1 RMS=2.86D-03 Max=1.37D-01 NDo=     1
 LinEq1:  Iter=  3 NonCon=     1 RMS=6.70D-04 Max=2.14D-02 NDo=     1
 LinEq1:  Iter=  4 NonCon=     1 RMS=4.36D-04 Max=1.38D-02 NDo=     1
 LinEq1:  Iter=  5 NonCon=     1 RMS=2.12D-04 Max=8.54D-03 NDo=     1
 LinEq1:  Iter=  6 NonCon=     1 RMS=9.64D-05 Max=2.57D-03 NDo=     1
 LinEq1:  Iter=  7 NonCon=     1 RMS=5.48D-05 Max=1.92D-03 NDo=     1
 LinEq1:  Iter=  8 NonCon=     1 RMS=3.33D-05 Max=9.38D-04 NDo=     1
 LinEq1:  Iter=  9 NonCon=     1 RMS=1.51D-05 Max=5.75D-04 NDo=     1
 LinEq1:  Iter= 10 NonCon=     1 RMS=1.06D-05 Max=3.49D-04 NDo=     1
 LinEq1:  Iter= 11 NonCon=     1 RMS=4.15D-06 Max=1.25D-04 NDo=     1
 LinEq1:  Iter= 12 NonCon=     1 RMS=1.92D-06 Max=4.30D-05 NDo=     1
 LinEq1:  Iter= 13 NonCon=     1 RMS=7.05D-07 Max=1.58D-05 NDo=     1
 LinEq1:  Iter= 14 NonCon=     1 RMS=4.09D-07 Max=9.03D-06 NDo=     1
 LinEq1:  Iter= 15 NonCon=     1 RMS=1.11D-07 Max=2.50D-06 NDo=     1
 LinEq1:  Iter= 16 NonCon=     1 RMS=5.53D-08 Max=1.58D-06 NDo=     1
 LinEq1:  Iter= 17 NonCon=     1 RMS=2.07D-08 Max=4.89D-07 NDo=     1
 LinEq1:  Iter= 18 NonCon=     1 RMS=9.31D-09 Max=2.26D-07 NDo=     1
 LinEq1:  Iter= 19 NonCon=     1 RMS=3.75D-09 Max=5.00D-08 NDo=     1
 LinEq1:  Iter= 20 NonCon=     1 RMS=1.77D-09 Max=8.57D-08 NDo=     1
 LinEq1:  Iter= 21 NonCon=     1 RMS=9.10D-10 Max=2.41D-08 NDo=     1
 LinEq1:  Iter= 22 NonCon=     1 RMS=2.53D-10 Max=7.33D-09 NDo=     1
 LinEq1:  Iter= 23 NonCon=     1 RMS=1.07D-10 Max=2.12D-09 NDo=     1
 LinEq1:  Iter= 24 NonCon=     1 RMS=4.18D-11 Max=1.14D-09 NDo=     1
 LinEq1:  Iter= 25 NonCon=     0 RMS=1.51D-11 Max=2.69D-10 NDo=     1
 Linear equations converged to 1.000D-10 1.000D-09 after    25 iterations.
 End of Minotr F.D. properties file   721 does not exist.
 End of Minotr F.D. properties file   722 does not exist.
 End of Minotr F.D. properties file   788 does not exist.
 Leave Link 1002 at Wed Aug 12 15:22:51 2026, MaxMem=   104857600 cpu:             408.1 elap:             409.1
 (Enter /opt/packages/gaussian/g16RevC.01/g16/l701.exe)
 ... and contract with generalized density number  6.
 Compute integral first derivatives.
 D1PCM: PCM CHGder 1st derivatives, ID1Alg=3 FixD1E=F DoIter=F DoCFld=F I1PDM=6.
 Leave Link  701 at Wed Aug 12 15:23:00 2026, MaxMem=   104857600 cpu:               9.0 elap:               9.0
 (Enter /opt/packages/gaussian/g16RevC.01/g16/l702.exe)
 L702 exits ... SP integral derivatives will be done elsewhere.
 Leave Link  702 at Wed Aug 12 15:23:00 2026, MaxMem=   104857600 cpu:               0.0 elap:               0.0
 (Enter /opt/packages/gaussian/g16RevC.01/g16/l703.exe)
 Integral derivatives from FoFJK, PRISM(SPDF).
 Compute integral first derivatives, UseDBF=F ICtDFT=           0.
 Calling FoFJK, ICntrl=  10005127 FMM=F ISym2X=0 I1Cent= 0 IOpClX= 0 NMat=1 NMatS=1 NMatT=0.
 FoFJK:  IHMeth= 1 ICntrl=10005127 DoSepK=F KAlg= 0 I1Cent=           0 FoldK=F
 IRaf=         0 NMat=       1 IRICut=       1 DoRegI=T DoRafI=F ISym2E= 0 IDoP0=0 IntGTp=1.
 FoFCou: FMM=F IPFlag=           0 FMFlag=      100000 FMFlg1=         800
         NFxFlg=           0 DoJE=F BraDBF=F KetDBF=F FulRan=T
         wScrn=  0.000000 ICntrl=  10005127 IOpCl=  0 I1Cent=           0 NGrid=           0
         NMat0=    1 NMatS0=      1 NMatT0=    0 NMatD0=    1 NMtDS0=    0 NMtDT0=    0
 Symmetry not used in FoFCou.
 Leave Link  703 at Wed Aug 12 15:23:47 2026, MaxMem=   104857600 cpu:              47.1 elap:              47.2
 (Enter /opt/packages/gaussian/g16RevC.01/g16/l716.exe)
 Dipole        = 3.34578527D-02-1.08870312D+00-2.43081520D-01
 ***** Axes restored to original set *****
 -------------------------------------------------------------------
 Center     Atomic                   Forces (Hartrees/Bohr)
 Number     Number              X              Y              Z
 -------------------------------------------------------------------
      1        6           0.000013256   -0.000033522   -0.000010444
      2        6          -0.000004606    0.000015949    0.000011595
      3        6           0.000007088   -0.000038582    0.000006878
      4        6           0.000084093    0.000001164   -0.000029231
      5        6           0.000027968    0.000015641    0.000025219
      6        6           0.000012955    0.000015966   -0.000009334
      7        1           0.000002405    0.000000326    0.000001995
      8        1           0.000000668    0.000000228    0.000001586
      9        1           0.000009023    0.000060610    0.000058140
     10        1          -0.000008272   -0.000002705   -0.000009952
     11        8          -0.000018778    0.000006781    0.000002151
     12        6          -0.000000672    0.000013126    0.000006545
     13        1           0.000001753    0.000002209    0.000005658
     14        1          -0.000001739   -0.000000823    0.000006048
     15        1          -0.000000356    0.000002929    0.000004451
     16        6          -0.000096231    0.000015260   -0.000028998
     17        6           0.000006255   -0.000008580   -0.000025568
     18        7          -0.000025453    0.000002857    0.000025461
     19        6          -0.000005359   -0.000000798    0.000013435
     20        6          -0.000004001    0.000001467    0.000021547
     21        1          -0.000008534    0.000003399   -0.000001347
     22        1          -0.000002668   -0.000003550    0.000001071
     23        1          -0.000004852   -0.000005722   -0.000006826
     24        1           0.000002107   -0.000009432   -0.000004970
     25        1           0.000003139    0.000001651   -0.000005999
     26        1          -0.000000719   -0.000004423   -0.000005656
     27        1           0.000011528   -0.000051425   -0.000053455
 -------------------------------------------------------------------
 Cartesian Forces:  Max     0.000096231 RMS     0.000022420
 Leave Link  716 at Wed Aug 12 15:23:47 2026, MaxMem=   104857600 cpu:               0.0 elap:               0.0
 (Enter /opt/packages/gaussian/g16RevC.01/g16/l103.exe)

 GradGradGradGradGradGradGradGradGradGradGradGradGradGradGradGradGradGrad
 Berny optimization.
 Using GEDIIS/GDIIS optimizer.
 FormGI is forming the generalized inverse of G from B-inverse, IUseBI=4.
 GSVD:  received Info=                   1 from GESDD.
 Internal  Forces:  Max     0.000123471 RMS     0.000018500
 Search for a local minimum.
 Step number   4 out of a maximum of  154
 All quantities printed in internal units (Hartrees-Bohrs-Radians)
 RMS Force = .18500D-04 SwitMx=.10000D-02 MixMth= 2
 Mixed Optimization -- En-DIIS/RFO-DIIS
 Swapping is turned off.
 Update second derivatives using D2CorX and points    1    2    3    4
 DE= -7.14D-06 DEPred=-5.47D-06 R= 1.30D+00
 TightC=F SS=  1.41D+00  RLast= 4.62D-02 DXNew= 1.4270D-01 1.3864D-01
 Trust test= 1.30D+00 RLast= 4.62D-02 DXMaxT set to 1.39D-01
 ITU=  1  1  1  0
     Eigenvalues ---    0.00208   0.00242   0.00482   0.00525   0.00624
     Eigenvalues ---    0.00744   0.00918   0.01344   0.01594   0.01702
     Eigenvalues ---    0.01815   0.01908   0.02259   0.02349   0.02534
     Eigenvalues ---    0.02625   0.02819   0.03137   0.04157   0.04428
     Eigenvalues ---    0.04538   0.05744   0.05931   0.06844   0.07213
     Eigenvalues ---    0.07692   0.08331   0.08499   0.09023   0.09546
     Eigenvalues ---    0.11009   0.11086   0.11785   0.11926   0.12797
     Eigenvalues ---    0.13197   0.16013   0.18021   0.18240   0.18746
     Eigenvalues ---    0.19240   0.19405   0.19906   0.20502   0.23285
     Eigenvalues ---    0.23484   0.23964   0.25114   0.27970   0.28435
     Eigenvalues ---    0.29937   0.30328   0.31958   0.32603   0.32755
     Eigenvalues ---    0.33702   0.33931   0.33960   0.34300   0.34624
     Eigenvalues ---    0.34968   0.35062   0.36047   0.36528   0.36615
     Eigenvalues ---    0.36946   0.37295   0.37819   0.38253   0.39459
     Eigenvalues ---    0.41807   0.45673   0.47672   0.50395   0.54158
 En-DIIS/RFO-DIIS/Sim-DIIS IScMMF=       -3 using points:     4    3    2    1
 RFO step:  Lambda=-2.08758209D-06.
 NNeg= 0 NGDIIS= 4 SimSw=  2.50D-01 Rises=F DC= -7.14D-06 SmlDif=  1.00D-05
 NRisDI= 0 DoIntr=F SqrtH=F CThrHd= 10.0 CDAdj=  3.0
 RMS Error=  0.1739433332D-02 NUsed= 4 OKEnD=F EnDIS=F
 InvSVX:  RCond= 5.22D-04 Info=           0 Equed=N FErr=  6.66D-15 BErr=  9.04D-17
 DidBck=T Rises=F RFO-DIIS coefs:    0.79575    0.31902   -0.16761    0.05285
 Iteration  1 RMS(Cart)=  0.00287240 RMS(Int)=  0.00000784
 Iteration  2 RMS(Cart)=  0.00000478 RMS(Int)=  0.00000682
 Iteration  3 RMS(Cart)=  0.00000000 RMS(Int)=  0.00000682
 ITry= 1 IFail=0 DXMaxC= 1.60D-02 DCOld= 1.00D+10 DXMaxT= 1.39D-01 DXLimC= 3.00D+00 Rises=F
 Variable       Old X    -DE/DX   Delta X   Delta X   Delta X     New X
                                 (Linear)    (Quad)   (Total)
    R1        2.67353  -0.00001   0.00001  -0.00001   0.00000   2.67353
    R2        2.71313   0.00003  -0.00002   0.00004   0.00003   2.71315
    R3        2.52797   0.00002  -0.00002   0.00004   0.00003   2.52799
    R4        2.61083  -0.00001  -0.00002   0.00001  -0.00001   2.61082
    R5        2.04906   0.00000  -0.00000   0.00000   0.00000   2.04906
    R6        2.73948  -0.00003  -0.00018   0.00011  -0.00007   2.73941
    R7        2.05019  -0.00004  -0.00006   0.00003  -0.00003   2.05016
    R8        2.69524  -0.00001  -0.00011   0.00002  -0.00009   2.69515
    R9        2.72489  -0.00012   0.00001  -0.00019  -0.00018   2.72471
   R10        2.60621   0.00000   0.00005  -0.00003   0.00001   2.60623
   R11        2.04991  -0.00001   0.00001  -0.00001   0.00000   2.04991
   R12        2.05178  -0.00000   0.00000  -0.00000  -0.00000   2.05178
   R13        2.72201  -0.00000   0.00000  -0.00001  -0.00000   2.72201
   R14        2.06997   0.00000  -0.00001   0.00001  -0.00000   2.06997
   R15        2.07036   0.00000   0.00001  -0.00000   0.00000   2.07036
   R16        2.05883  -0.00000   0.00000  -0.00000  -0.00000   2.05883
   R17        2.83454  -0.00002  -0.00008   0.00002  -0.00006   2.83448
   R18        2.57074   0.00003   0.00017  -0.00001   0.00017   2.57091
   R19        2.92493   0.00000  -0.00005   0.00004  -0.00002   2.92491
   R20        2.07136   0.00001  -0.00002   0.00004   0.00002   2.07137
   R21        2.08492  -0.00001   0.00003  -0.00002   0.00001   2.08493
   R22        2.75970  -0.00000   0.00019  -0.00006   0.00013   2.75984
   R23        1.92071   0.00005   0.00007   0.00015   0.00021   1.92093
   R24        2.90519   0.00001  -0.00007   0.00002  -0.00005   2.90515
   R25        2.08407   0.00000  -0.00001   0.00002   0.00001   2.08408
   R26        2.06946   0.00000   0.00001  -0.00001  -0.00000   2.06946
   R27        2.07047  -0.00000   0.00001  -0.00001   0.00000   2.07048
   R28        2.06496  -0.00000   0.00000   0.00000   0.00000   2.06497
    A1        2.09617   0.00000   0.00003   0.00003   0.00007   2.09624
    A2        2.18460  -0.00000  -0.00004   0.00003  -0.00001   2.18459
    A3        2.00241   0.00000   0.00000  -0.00006  -0.00006   2.00235
    A4        2.08409  -0.00001  -0.00008  -0.00000  -0.00009   2.08400
    A5        2.10785   0.00001   0.00002   0.00003   0.00005   2.10790
    A6        2.09125   0.00000   0.00006  -0.00002   0.00004   2.09129
    A7        2.11930   0.00001   0.00002  -0.00005  -0.00003   2.11927
    A8        2.06775   0.00003   0.00028   0.00016   0.00044   2.06819
    A9        2.09612  -0.00004  -0.00031  -0.00011  -0.00042   2.09570
   A10        2.06007   0.00002   0.00012   0.00005   0.00016   2.06023
   A11        2.13048  -0.00005  -0.00029  -0.00008  -0.00036   2.13011
   A12        2.09261   0.00003   0.00016   0.00004   0.00020   2.09281
   A13        2.10684  -0.00002  -0.00010  -0.00004  -0.00013   2.10670
   A14        2.09284   0.00002   0.00002   0.00004   0.00006   2.09290
   A15        2.08351   0.00000   0.00008  -0.00000   0.00008   2.08359
   A16        2.09980   0.00000   0.00000   0.00001   0.00001   2.09981
   A17        2.06528  -0.00000  -0.00002  -0.00001  -0.00003   2.06525
   A18        2.11811   0.00000   0.00002   0.00000   0.00002   2.11813
   A19        2.10309  -0.00001  -0.00001   0.00004   0.00003   2.10313
   A20        1.91843   0.00000   0.00003  -0.00003  -0.00000   1.91843
   A21        1.91833  -0.00000  -0.00000   0.00003   0.00002   1.91835
   A22        1.83622   0.00000  -0.00001   0.00002   0.00001   1.83623
   A23        1.92744  -0.00000  -0.00000  -0.00004  -0.00004   1.92740
   A24        1.93137   0.00000   0.00000   0.00001   0.00001   1.93138
   A25        1.93014  -0.00000  -0.00002   0.00001  -0.00001   1.93013
   A26        2.23200  -0.00002  -0.00000   0.00012   0.00013   2.23213
   A27        2.13945   0.00000  -0.00018  -0.00011  -0.00028   2.13917
   A28        1.91165   0.00001   0.00016   0.00000   0.00018   1.91183
   A29        1.79838  -0.00000  -0.00018   0.00004  -0.00014   1.79824
   A30        1.96807  -0.00001   0.00005  -0.00009  -0.00003   1.96804
   A31        1.92481   0.00000   0.00001   0.00003   0.00004   1.92485
   A32        1.96909  -0.00000   0.00017  -0.00002   0.00015   1.96924
   A33        1.94190   0.00001  -0.00011   0.00008  -0.00003   1.94187
   A34        1.86309  -0.00000   0.00005  -0.00004   0.00001   1.86310
   A35        1.96683  -0.00002  -0.00039  -0.00003  -0.00044   1.96639
   A36        2.15460   0.00004  -0.00017  -0.00055  -0.00077   2.15383
   A37        2.11238  -0.00002  -0.00080   0.00032  -0.00053   2.11185
   A38        1.78930   0.00001  -0.00001  -0.00007  -0.00007   1.78924
   A39        1.91257  -0.00000   0.00001  -0.00003  -0.00003   1.91255
   A40        1.92891  -0.00001  -0.00002   0.00005   0.00002   1.92893
   A41        1.95219  -0.00001  -0.00005  -0.00001  -0.00006   1.95213
   A42        1.99710   0.00001   0.00004   0.00006   0.00010   1.99720
   A43        1.88212  -0.00000   0.00002  -0.00000   0.00002   1.88215
   A44        1.81276  -0.00000  -0.00016   0.00000  -0.00016   1.81260
   A45        1.91825   0.00001  -0.00002   0.00005   0.00003   1.91828
   A46        1.96898  -0.00000   0.00007  -0.00002   0.00005   1.96903
   A47        1.91496   0.00000   0.00005  -0.00000   0.00005   1.91501
   A48        1.95590   0.00000   0.00003  -0.00003  -0.00000   1.95590
   A49        1.89199  -0.00000   0.00003   0.00000   0.00003   1.89202
    D1        0.00592  -0.00001  -0.00053   0.00015  -0.00038   0.00554
    D2       -3.13418  -0.00001  -0.00062   0.00002  -0.00060  -3.13478
    D3       -3.13983  -0.00000  -0.00037   0.00030  -0.00008  -3.13991
    D4        0.00326  -0.00000  -0.00046   0.00017  -0.00029   0.00297
    D5        0.00727   0.00001   0.00095  -0.00032   0.00063   0.00790
    D6       -3.13638   0.00001   0.00070  -0.00005   0.00066  -3.13572
    D7       -3.13059   0.00000   0.00081  -0.00046   0.00036  -3.13023
    D8        0.00896   0.00000   0.00057  -0.00018   0.00038   0.00934
    D9        0.01294  -0.00001  -0.00007   0.00033   0.00026   0.01320
   D10       -3.13261  -0.00000   0.00007   0.00047   0.00055  -3.13207
   D11       -0.01310  -0.00001  -0.00094   0.00030  -0.00064  -0.01374
   D12        3.12259  -0.00002  -0.00131  -0.00019  -0.00150   3.12109
   D13        3.12701  -0.00000  -0.00085   0.00042  -0.00043   3.12658
   D14       -0.02049  -0.00002  -0.00121  -0.00007  -0.00128  -0.02177
   D15        0.00730   0.00002   0.00197  -0.00057   0.00140   0.00871
   D16       -3.12579   0.00001   0.00203  -0.00112   0.00091  -3.12488
   D17       -3.12829   0.00004   0.00233  -0.00007   0.00227  -3.12602
   D18        0.02180   0.00002   0.00240  -0.00062   0.00178   0.02358
   D19        0.00607  -0.00002  -0.00153   0.00039  -0.00115   0.00492
   D20       -3.13714  -0.00001  -0.00100   0.00040  -0.00060  -3.13774
   D21        3.13935  -0.00001  -0.00160   0.00093  -0.00067   3.13868
   D22       -0.00386   0.00001  -0.00107   0.00094  -0.00012  -0.00398
   D23       -3.01705   0.00005   0.00414   0.00121   0.00534  -3.01171
   D24        0.14027   0.00005   0.00271   0.00022   0.00293   0.14321
   D25        0.13320   0.00004   0.00420   0.00064   0.00484   0.13804
   D26       -2.99266   0.00003   0.00278  -0.00035   0.00244  -2.99023
   D27       -0.01315   0.00001   0.00012   0.00005   0.00017  -0.01299
   D28        3.13055   0.00001   0.00038  -0.00024   0.00014   3.13069
   D29        3.13005  -0.00001  -0.00041   0.00003  -0.00038   3.12967
   D30       -0.00943  -0.00001  -0.00015  -0.00025  -0.00041  -0.00984
   D31        1.04966  -0.00000  -0.00018   0.00012  -0.00005   1.04961
   D32       -1.07528  -0.00000  -0.00019   0.00017  -0.00002  -1.07530
   D33        3.12953  -0.00000  -0.00016   0.00013  -0.00003   3.12950
   D34        2.91616  -0.00001  -0.00186  -0.00009  -0.00195   2.91422
   D35        0.78806  -0.00001  -0.00198  -0.00004  -0.00202   0.78604
   D36       -1.29278  -0.00000  -0.00208   0.00005  -0.00204  -1.29482
   D37       -0.23949  -0.00001  -0.00059   0.00080   0.00020  -0.23929
   D38       -2.36760  -0.00000  -0.00072   0.00085   0.00013  -2.36747
   D39        1.83474   0.00000  -0.00082   0.00093   0.00011   1.83485
   D40        3.04353   0.00001   0.00121  -0.00019   0.00103   3.04456
   D41        0.23246   0.00003   0.00616   0.00054   0.00668   0.23914
   D42       -0.08489   0.00001   0.00002  -0.00102  -0.00099  -0.08588
   D43       -2.89596   0.00003   0.00497  -0.00029   0.00467  -2.89130
   D44        0.44873   0.00001   0.00091  -0.00032   0.00059   0.44932
   D45       -1.59894   0.00000   0.00095  -0.00034   0.00061  -1.59833
   D46        2.57058   0.00000   0.00088  -0.00037   0.00051   2.57109
   D47        2.57615  -0.00000   0.00096  -0.00042   0.00054   2.57669
   D48        0.52848  -0.00001   0.00099  -0.00044   0.00055   0.52903
   D49       -1.58519  -0.00001   0.00092  -0.00046   0.00046  -1.58473
   D50       -1.61357   0.00000   0.00106  -0.00042   0.00064  -1.61293
   D51        2.62195  -0.00000   0.00109  -0.00044   0.00065   2.62260
   D52        0.50827  -0.00000   0.00102  -0.00046   0.00056   0.50883
   D53        0.37213  -0.00000   0.00058   0.00076   0.00134   0.37347
   D54       -1.70353   0.00000   0.00064   0.00083   0.00146  -1.70206
   D55        2.50788   0.00001   0.00062   0.00082   0.00144   2.50932
   D56       -3.09098  -0.00001  -0.00408  -0.00013  -0.00421  -3.09519
   D57        1.11655  -0.00001  -0.00402  -0.00006  -0.00409   1.11246
   D58       -0.95523   0.00000  -0.00404  -0.00007  -0.00411  -0.95934
   D59       -0.49245  -0.00001  -0.00096  -0.00021  -0.00118  -0.49363
   D60        1.55750  -0.00000  -0.00105  -0.00015  -0.00121   1.55630
   D61       -2.62300  -0.00000  -0.00096  -0.00017  -0.00113  -2.62414
   D62        1.55517  -0.00001  -0.00098  -0.00030  -0.00128   1.55389
   D63       -2.67806  -0.00000  -0.00107  -0.00024  -0.00130  -2.67937
   D64       -0.57539  -0.00000  -0.00098  -0.00025  -0.00123  -0.57662
   D65       -2.58130  -0.00001  -0.00095  -0.00026  -0.00122  -2.58251
   D66       -0.53134  -0.00000  -0.00104  -0.00020  -0.00124  -0.53259
   D67        1.57133  -0.00000  -0.00095  -0.00022  -0.00117   1.57017
         Item               Value     Threshold  Converged?
 Maximum Force            0.000123     0.000450     YES
 RMS     Force            0.000019     0.000300     YES
 Maximum Displacement     0.016028     0.001800     NO 
 RMS     Displacement     0.002873     0.001200     NO 
 Predicted change in Energy=-9.677203D-07
 Lowest energy point so far.  Saving SCF results.
 GradGradGradGradGradGradGradGradGradGradGradGradGradGradGradGradGradGrad

 Leave Link  103 at Wed Aug 12 15:23:48 2026, MaxMem=   104857600 cpu:               0.0 elap:               0.0
 (Enter /opt/packages/gaussian/g16RevC.01/g16/l202.exe)
                          Input orientation:                          
 ---------------------------------------------------------------------
 Center     Atomic      Atomic             Coordinates (Angstroms)
 Number     Number       Type             X           Y           Z
 ---------------------------------------------------------------------
      1          6           0       -2.492909    0.244624   -0.025051
      2          6           0       -1.868080   -1.019549    0.089133
      3          6           0       -0.488672   -1.095488    0.104621
      4          6           0        0.335002    0.091830   -0.010612
      5          6           0       -0.319857    1.353111   -0.130679
      6          6           0       -1.696601    1.434629   -0.130535
      7          1           0       -2.206067    2.390032   -0.211248
      8          1           0       -2.458889   -1.925759    0.163107
      9          1           0       -0.025093   -2.070439    0.212181
     10          1           0        0.267008    2.260805   -0.222346
     11          8           0       -3.814330    0.451577   -0.049734
     12          6           0       -4.729807   -0.655127    0.059481
     13          1           0       -4.573623   -1.176186    1.010251
     14          1           0       -4.586273   -1.342532   -0.781464
     15          1           0       -5.723103   -0.208917    0.024331
     16          6           0        1.775349    0.026150   -0.016347
     17          6           0        2.749663    1.165793    0.025511
     18          7           0        2.454477   -1.151041   -0.078613
     19          6           0        3.897440   -0.962477   -0.201883
     20          6           0        4.094093    0.464351    0.335609
     21          1           0        2.483649    1.923960    0.771103
     22          1           0        2.781534    1.677872   -0.951230
     23          1           0        4.191951   -1.046174   -1.261378
     24          1           0        4.434767   -1.735370    0.357743
     25          1           0        4.257121    0.432294    1.418586
     26          1           0        4.948999    0.963208   -0.127363
     27          1           0        2.019163   -2.035919   -0.325165
 ---------------------------------------------------------------------
                    Distance matrix (angstroms):
                    1          2          3          4          5
     1  C    0.000000
     2  C    1.414773   0.000000
     3  C    2.414474   1.381584   0.000000
     4  C    2.832072   2.469551   1.449635   0.000000
     5  C    2.441732   2.841624   2.465665   1.426215   0.000000
     6  C    1.435738   2.469950   2.813519   2.438217   1.379155
     7  H    2.172492   3.439434   3.898471   3.432058   2.153946
     8  H    2.178789   1.084317   2.138814   3.450604   3.925908
     9  H    3.392036   2.125114   1.084897   2.203341   3.453279
    10  H    3.423602   3.926365   3.455816   2.180346   1.084768
    11  O    1.337756   2.443642   3.671136   4.165081   3.609800
    12  C    2.412553   2.884990   4.264175   5.120073   4.849416
    13  H    2.723954   2.862334   4.184914   5.171520   5.078739
    14  H    2.733752   2.872426   4.199585   5.183681   5.088449
    15  H    3.262252   3.939863   5.309588   6.065666   5.626635
    16  C    4.273855   3.791990   2.529525   1.441856   2.482698
    17  C    5.323126   5.109141   3.950501   2.642970   3.079194
    18  N    5.140756   4.327809   2.949370   2.457952   3.737702
    19  C    6.505761   5.773142   4.398819   3.720096   4.811717
    20  C    6.600527   6.149002   4.846461   3.793338   4.526619
    21  H    5.312265   5.297818   4.289050   2.929925   2.999788
    22  H    5.543623   5.475158   4.415948   3.063628   3.224501
    23  H    6.919683   6.208749   4.876127   4.211357   5.233685
    24  H    7.215234   6.349049   4.971294   4.503600   5.690670
    25  H    6.905230   6.433769   5.155886   4.188262   4.919030
    26  H    7.477221   7.102871   5.818962   4.697010   5.283265
    27  H    5.064558   4.039222   2.712630   2.731787   4.122423
                    6          7          8          9         10
     6  C    0.000000
     7  H    1.085755   0.000000
     8  H    3.458253   4.339368   0.000000
     9  H    3.898320   4.983146   2.438586   0.000000
    10  H    2.132313   2.476474   5.010629   4.362776   0.000000
    11  O    2.336171   2.523927   2.744858   4.559329   4.467709
    12  C    3.688296   3.964285   2.604288   4.915360   5.792258
    13  H    4.049075   4.451437   2.398252   4.703799   6.063325
    14  H    4.060362   4.463470   2.399610   4.724567   6.070502
    15  H    4.351775   4.379450   3.690785   5.997321   6.483965
    16  C    3.748506   4.634393   4.665932   2.772996   2.703925
    17  C    4.457116   5.110193   6.058518   4.267003   2.724712
    18  N    4.890791   5.854695   4.979938   2.660474   4.055413
    19  C    6.086420   6.963634   6.439258   4.096986   4.854895
    20  C    5.889896   6.610546   6.977389   4.838191   4.264404
    21  H    4.304287   4.814111   6.294337   4.749885   2.452326
    22  H    4.559211   5.092240   6.456775   4.824989   2.682149
    23  H    6.489086   7.337909   6.858316   4.583007   5.236494
    24  H    6.919609   7.838582   6.899030   4.474797   5.803114
    25  H    6.233078   6.947078   7.227823   5.104551   4.685841
    26  H    6.662301   7.296426   7.956589   5.836086   4.859406
    27  H    5.088172   6.120016   4.505940   2.113982   4.641385
                   11         12         13         14         15
    11  O    0.000000
    12  C    1.440423   0.000000
    13  H    2.085595   1.095381   0.000000
    14  H    2.085702   1.095590   1.799465   0.000000
    15  H    2.021176   1.089483   1.796928   1.796321   0.000000
    16  C    5.605945   6.541174   6.542856   6.552017   7.502246
    17  C    6.603163   7.698011   7.751458   7.794797   8.583565
    18  N    6.470483   7.202704   7.111993   7.078335   8.232314
    19  C    7.841817   8.636676   8.560015   8.511976   9.652661
    20  C    7.917816   8.898916   8.847362   8.936523   9.845178
    21  H    6.519680   7.693637   7.711886   7.941299   8.512203
    22  H    6.769189   7.929986   8.129661   7.964687   8.765874
    23  H    8.234796   9.027478   9.056075   8.796326  10.033062
    24  H    8.543791   9.232838   9.049284   9.101168  10.277331
    25  H    8.203941   9.153935   8.985320   9.284171  10.097522
    26  H    8.778595   9.814949   9.826063   9.831872  10.737349
    27  H    6.347688   6.899503   6.781394   6.657385   7.962585
                   16         17         18         19         20
    16  C    0.000000
    17  C    1.499942   0.000000
    18  N    1.360466   2.337883   0.000000
    19  C    2.348420   2.428711   1.460443   0.000000
    20  C    2.385889   1.547797   2.338677   1.537338   0.000000
    21  H    2.173350   1.096124   3.190376   3.358128   2.216675
    22  H    2.148162   1.103296   2.978452   2.962804   2.202589
    23  H    2.922318   2.937529   2.104459   1.102848   2.200370
    24  H    3.211759   3.371454   2.110307   1.095109   2.226054
    25  H    2.895371   2.179704   2.828087   2.168104   1.095648
    26  H    3.310960   2.213932   3.270332   2.195357   1.092733
    27  H    2.099272   3.302660   1.016511   2.166887   3.315615
                   21         22         23         24         25
    21  H    0.000000
    22  H    1.765142   0.000000
    23  H    3.983839   3.083163   0.000000
    24  H    4.167544   4.012083   1.776374   0.000000
    25  H    2.406139   3.056935   3.061425   2.419857   0.000000
    26  H    2.794323   2.426398   2.428319   2.789639   1.774972
    27  H    4.134996   3.842579   2.564585   2.528207   3.760478
                   26         27
    26  H    0.000000
    27  H    4.197360   0.000000
 Stoichiometry    C11H14NO(1+)
 Framework group  C1[X(C11H14NO)]
 Deg. of freedom    75
 Full point group                 C1      NOp   1
 RotChk:  IX=0 Diff= 7.32D-04
 Largest Abelian subgroup         C1      NOp   1
 Largest concise Abelian subgroup C1      NOp   1
                         Standard orientation:                         
 ---------------------------------------------------------------------
 Center     Atomic      Atomic             Coordinates (Angstroms)
 Number     Number       Type             X           Y           Z
 ---------------------------------------------------------------------
      1          6           0       -2.493037    0.245750   -0.012951
      2          6           0       -1.868136   -1.019777    0.084634
      3          6           0       -0.488706   -1.096086    0.095741
      4          6           0        0.334875    0.092402   -0.007458
      5          6           0       -0.320072    1.355112   -0.110885
      6          6           0       -1.696797    1.436814   -0.106301
      7          1           0       -2.206303    2.393179   -0.174375
      8          1           0       -2.458910   -1.926719    0.149329
      9          1           0       -0.025023   -2.072310    0.190544
     10          1           0        0.266714    2.263749   -0.193242
     11          8           0       -3.814481    0.453165   -0.031843
     12          6           0       -4.729867   -0.654631    0.066527
     13          1           0       -4.571376   -1.186968    1.010645
     14          1           0       -4.588568   -1.332019   -0.782882
     15          1           0       -5.723173   -0.207897    0.039184
     16          6           0        1.775193    0.026595   -0.017604
     17          6           0        2.749801    1.165525    0.035330
     18          7           0        2.453962   -1.149868   -0.095560
     19          6           0        3.896642   -0.960053   -0.220219
     20          6           0        4.094890    0.460262    0.333684
     21          1           0        2.485794    1.914819    0.790543
     22          1           0        2.779298    1.689165   -0.935337
     23          1           0        4.188468   -1.031201   -1.281373
     24          1           0        4.435246   -1.739613    0.328831
     25          1           0        4.260640    0.415321    1.415790
     26          1           0        4.948711    0.964465   -0.125483
     27          1           0        2.017880   -2.031694   -0.351506
 ---------------------------------------------------------------------
 Rotational constants (GHZ):           2.8187565           0.3488571           0.3142301
 Leave Link  202 at Wed Aug 12 15:23:48 2026, MaxMem=   104857600 cpu:               0.0 elap:               0.0
 (Enter /opt/packages/gaussian/g16RevC.01/g16/l301.exe)
 Standard basis: 6-31+G(d) (6D, 7F)
 Ernie: Thresh=  0.10000D-02 Tol=  0.10000D-05 Strict=F.
 There are   275 symmetry adapted cartesian basis functions of A   symmetry.
 There are   275 symmetry adapted basis functions of A   symmetry.
   275 basis functions,   472 primitive gaussians,   275 cartesian basis functions
    47 alpha electrons       47 beta electrons
       nuclear repulsion energy       751.9344479004 Hartrees.
 IExCor=  402 DFT=T Ex+Corr=B3LYP ExCW=0 ScaHFX=  0.200000
 ScaDFX=  0.800000  0.720000  1.000000  0.810000 ScalE2=  1.000000  1.000000
 IRadAn=      5 IRanWt=     -1 IRanGd=            0 ICorTp=0 IEmpDi=  4
 NAtoms=   27 NActive=   27 NUniq=   27 SFac= 1.00D+00 NAtFMM=   60 NAOKFM=F Big=F
 Integral buffers will be    131072 words long.
 Regular integral format.
 Two-electron integral symmetry is turned on.
 ------------------------------------------------------------------------------
 Polarizable Continuum Model (PCM)
 =================================
 Model                : PCM.
 Atomic radii         : SMD-Coulomb.
 Polarization charges : Total charges.
 Charge compensation  : None.
 Solution method      : Matrix inversion.
 Cavity type          : VdW (van der Waals Surface) (Alpha=1.000).
 Cavity algorithm     : GePol (No added spheres)
                        Default sphere list used, NSphG=   27.
                        Lebedev-Laikov grids with approx.  5.0 points / Ang**2.
                        Smoothing algorithm: York/Karplus (Gamma=1.0000).
                        Polarization charges: spherical gaussians, with
                                              point-specific exponents (IZeta= 3).
                        Self-potential: point-specific (ISelfS= 7).
                        Self-field    : sphere-specific E.n sum rule (ISelfD= 2).
 1st derivatives      : Analytical E(r).r(x)/FMM algorithm (CHGder, D1EAlg=3).
                        Cavity 1st derivative terms included.
 Solvent              : Methanol, Eps=  32.613000 Eps(inf)=   1.765709
 ------------------------------------------------------------------------------
 GePol: Number of generator spheres                  =      27
 GePol: Total number of spheres                      =      27
 GePol: Number of exposed spheres                    =      27 (100.00%)
 GePol: Number of points                             =    1999
 GePol: Average weight of points                     =       0.11
 GePol: Minimum weight of points                     =   0.32D-08
 GePol: Maximum weight of points                     =    0.21991
 GePol: Number of points with low weight             =     107
 GePol: Fraction of low-weight points (<1% of avg)   =       5.35%
 GePol: Cavity surface area                          =    217.069 Ang**2
 GePol: Cavity volume                                =    192.654 Ang**3
 ------------------------------------------------------------------------------
 Atomic radii for non-electrostatic terms: SMD-CDS.
 ------------------------------------------------------------------------------
 PCM non-electrostatic energy =        -0.0004212374 Hartrees.
 Nuclear repulsion after PCM non-electrostatic terms =      751.9340266630 Hartrees.
 Leave Link  301 at Wed Aug 12 15:23:48 2026, MaxMem=   104857600 cpu:               0.1 elap:               0.1
 (Enter /opt/packages/gaussian/g16RevC.01/g16/l302.exe)
 NPDir=0 NMtPBC=     1 NCelOv=     1 NCel=       1 NClECP=     1 NCelD=      1
         NCelK=      1 NCelE2=     1 NClLst=     1 CellRange=     0.0.
 One-electron integrals computed using PRISM.
 One-electron integral symmetry used in STVInt
 NBasis=   275 RedAO= T EigKep=  1.11D-06  NBF=   275
 NBsUse=   274 1.00D-06 EigRej=  4.70D-07 NBFU=   274
 Precomputing XC quadrature grid using
 IXCGrd= 4 IRadAn=           5 IRanWt=          -1 IRanGd=           0 AccXCQ= 0.00D+00.
 Generated NRdTot=       0 NPtTot=           0 NUsed=           0 NTot=          32
 NSgBfM=   274   274   274   274   274 MxSgAt=    27 MxSgA2=    27.
 Leave Link  302 at Wed Aug 12 15:23:48 2026, MaxMem=   104857600 cpu:               0.6 elap:               0.7
 (Enter /opt/packages/gaussian/g16RevC.01/g16/l303.exe)
 DipDrv:  MaxL=1.
 Leave Link  303 at Wed Aug 12 15:23:48 2026, MaxMem=   104857600 cpu:               0.0 elap:               0.0
 (Enter /opt/packages/gaussian/g16RevC.01/g16/l308.exe)
 Leave Link  308 at Wed Aug 12 15:23:49 2026, MaxMem=   104857600 cpu:               0.0 elap:               0.4
 (Enter /opt/packages/gaussian/g16RevC.01/g16/l401.exe)
 Initial guess from the checkpoint file:  "mono_s1_planar_opt.chk"
 B after Tr=     0.000000    0.000000    0.000000
         Rot=    1.000000   -0.000145    0.000004   -0.000003 Ang=  -0.02 deg.
 Guess basis will be translated and rotated to current coordinates.
 JPrj=2 DoOrth=T DoCkMO=T.
 Leave Link  401 at Wed Aug 12 15:23:49 2026, MaxMem=   104857600 cpu:               0.1 elap:               0.1
 (Enter /opt/packages/gaussian/g16RevC.01/g16/l502.exe)
 Integral symmetry usage will be decided dynamically.
 Closed shell SCF:
 Using DIIS extrapolation, IDIIS=  1040.
 NGot=   104857600 LenX=   104701058 LenY=   104624992
 Requested convergence on RMS density matrix=1.00D-08 within 128 cycles.
 Requested convergence on MAX density matrix=1.00D-06.
 Requested convergence on             energy=1.00D-06.
 No special actions if energy rises.
 Fock matrices will be formed incrementally for  20 cycles.

 Cycle   1  Pass 1  IDiag  1:
 FoFJK:  IHMeth= 1 ICntrl=       0 DoSepK=F KAlg= 0 I1Cent=           0 FoldK=F
 IRaf= 880000000 NMat=       1 IRICut=       1 DoRegI=T DoRafI=F ISym2E= 0 IDoP0=0 IntGTp=1.
 FoFCou: FMM=F IPFlag=           0 FMFlag=      100000 FMFlg1=           0
         NFxFlg=           0 DoJE=F BraDBF=F KetDBF=F FulRan=T
         wScrn=  0.000000 ICntrl=         0 IOpCl=  0 I1Cent=           0 NGrid=           0
         NMat0=    1 NMatS0=      1 NMatT0=    0 NMatD0=    1 NMtDS0=    0 NMtDT0=    0
 Symmetry not used in FoFCou.
 Inv3:  Mode=1 IEnd=    11988003.
 Iteration    1 A*A^-1 deviation from unit magnitude is 2.89D-15 for    366.
 Iteration    1 A*A^-1 deviation from orthogonality  is 1.73D-15 for   1687     45.
 Iteration    1 A^-1*A deviation from unit magnitude is 3.00D-15 for   1121.
 Iteration    1 A^-1*A deviation from orthogonality  is 9.49D-15 for    874    808.
 E= -557.455000332745    
 DIIS: error= 3.31D-04 at cycle   1 NSaved=   1.
 NSaved= 1 IEnMin= 1 EnMin= -557.455000332745     IErMin= 1 ErrMin= 3.31D-04
 ErrMax= 3.31D-04  0.00D+00 EMaxC= 1.00D-01 BMatC= 2.13D-05 BMatP= 2.13D-05
 IDIUse=3 WtCom= 9.97D-01 WtEn= 3.31D-03
 Coeff-Com:  0.100D+01
 Coeff-En:   0.100D+01
 Coeff:      0.100D+01
 Gap=     0.421 Goal=   None    Shift=    0.000
 RMSDP=8.01D-04 MaxDP=9.39D-02              OVMax= 1.46D-03

 Cycle   2  Pass 1  IDiag  1:
 RMSU=  5.71D-04    CP:  9.90D-01
 E= -557.455033036474     Delta-E=       -0.000032703729 Rises=F Damp=F
 DIIS: error= 2.10D-05 at cycle   2 NSaved=   2.
 NSaved= 2 IEnMin= 2 EnMin= -557.455033036474     IErMin= 2 ErrMin= 2.10D-05
 ErrMax= 2.10D-05  0.00D+00 EMaxC= 1.00D-01 BMatC= 2.14D-07 BMatP= 2.13D-05
 IDIUse=1 WtCom= 1.00D+00 WtEn= 0.00D+00
 Coeff-Com: -0.290D-01 0.103D+01
 Coeff:     -0.290D-01 0.103D+01
 Gap=     0.147 Goal=   None    Shift=    0.000
 RMSDP=2.16D-05 MaxDP=1.20D-03 DE=-3.27D-05 OVMax= 2.72D-04

 Cycle   3  Pass 1  IDiag  1:
 RMSU=  1.82D-05    CP:  9.90D-01  1.02D+00
 E= -557.455033261214     Delta-E=       -0.000000224740 Rises=F Damp=F
 DIIS: error= 1.45D-05 at cycle   3 NSaved=   3.
 NSaved= 3 IEnMin= 3 EnMin= -557.455033261214     IErMin= 3 ErrMin= 1.45D-05
 ErrMax= 1.45D-05  0.00D+00 EMaxC= 1.00D-01 BMatC= 1.69D-07 BMatP= 2.14D-07
 IDIUse=1 WtCom= 1.00D+00 WtEn= 0.00D+00
 Coeff-Com: -0.212D-01 0.494D+00 0.527D+00
 Coeff:     -0.212D-01 0.494D+00 0.527D+00
 Gap=     0.147 Goal=   None    Shift=    0.000
 RMSDP=1.24D-05 MaxDP=7.95D-04 DE=-2.25D-07 OVMax= 2.04D-04

 Cycle   4  Pass 1  IDiag  1:
 RMSU=  8.65D-06    CP:  9.90D-01  1.02D+00  7.77D-01
 E= -557.455033400394     Delta-E=       -0.000000139180 Rises=F Damp=F
 DIIS: error= 7.02D-06 at cycle   4 NSaved=   4.
 NSaved= 4 IEnMin= 4 EnMin= -557.455033400394     IErMin= 4 ErrMin= 7.02D-06
 ErrMax= 7.02D-06  0.00D+00 EMaxC= 1.00D-01 BMatC= 3.09D-08 BMatP= 1.69D-07
 IDIUse=1 WtCom= 1.00D+00 WtEn= 0.00D+00
 Coeff-Com: -0.723D-02 0.117D+00 0.308D+00 0.582D+00
 Coeff:     -0.723D-02 0.117D+00 0.308D+00 0.582D+00
 Gap=     0.147 Goal=   None    Shift=    0.000
 RMSDP=3.43D-06 MaxDP=2.65D-04 DE=-1.39D-07 OVMax= 6.75D-05

 Cycle   5  Pass 1  IDiag  1:
 RMSU=  2.59D-06    CP:  9.90D-01  1.02D+00  8.24D-01  8.90D-01
 E= -557.455033428827     Delta-E=       -0.000000028433 Rises=F Damp=F
 DIIS: error= 1.54D-06 at cycle   5 NSaved=   5.
 NSaved= 5 IEnMin= 5 EnMin= -557.455033428827     IErMin= 5 ErrMin= 1.54D-06
 ErrMax= 1.54D-06  0.00D+00 EMaxC= 1.00D-01 BMatC= 1.50D-09 BMatP= 3.09D-08
 IDIUse=1 WtCom= 1.00D+00 WtEn= 0.00D+00
 Coeff-Com: -0.163D-02 0.137D-01 0.948D-01 0.255D+00 0.638D+00
 Coeff:     -0.163D-02 0.137D-01 0.948D-01 0.255D+00 0.638D+00
 Gap=     0.147 Goal=   None    Shift=    0.000
 RMSDP=1.18D-06 MaxDP=5.52D-05 DE=-2.84D-08 OVMax= 1.51D-05

 Cycle   6  Pass 1  IDiag  1:
 RMSU=  9.87D-07    CP:  9.90D-01  1.02D+00  8.41D-01  9.01D-01  8.85D-01
 E= -557.455033429789     Delta-E=       -0.000000000962 Rises=F Damp=F
 DIIS: error= 9.01D-07 at cycle   6 NSaved=   6.
 NSaved= 6 IEnMin= 6 EnMin= -557.455033429789     IErMin= 6 ErrMin= 9.01D-07
 ErrMax= 9.01D-07  0.00D+00 EMaxC= 1.00D-01 BMatC= 5.05D-10 BMatP= 1.50D-09
 IDIUse=1 WtCom= 1.00D+00 WtEn= 0.00D+00
 Coeff-Com:  0.273D-03-0.122D-01 0.348D-02 0.541D-01 0.402D+00 0.552D+00
 Coeff:      0.273D-03-0.122D-01 0.348D-02 0.541D-01 0.402D+00 0.552D+00
 Gap=     0.147 Goal=   None    Shift=    0.000
 RMSDP=4.50D-07 MaxDP=2.86D-05 DE=-9.62D-10 OVMax= 6.41D-06

 Cycle   7  Pass 1  IDiag  1:
 RMSU=  1.95D-07    CP:  9.90D-01  1.02D+00  8.43D-01  9.24D-01  8.97D-01
                    CP:  7.06D-01
 E= -557.455033430257     Delta-E=       -0.000000000468 Rises=F Damp=F
 DIIS: error= 1.59D-07 at cycle   7 NSaved=   7.
 NSaved= 7 IEnMin= 7 EnMin= -557.455033430257     IErMin= 7 ErrMin= 1.59D-07
 ErrMax= 1.59D-07  0.00D+00 EMaxC= 1.00D-01 BMatC= 1.55D-11 BMatP= 5.05D-10
 IDIUse=1 WtCom= 1.00D+00 WtEn= 0.00D+00
 Coeff-Com:  0.198D-03-0.701D-02-0.164D-02 0.198D-01 0.190D+00 0.292D+00
 Coeff-Com:  0.506D+00
 Coeff:      0.198D-03-0.701D-02-0.164D-02 0.198D-01 0.190D+00 0.292D+00
 Coeff:      0.506D+00
 Gap=     0.147 Goal=   None    Shift=    0.000
 RMSDP=9.90D-08 MaxDP=3.73D-06 DE=-4.68D-10 OVMax= 1.33D-06

 Cycle   8  Pass 1  IDiag  1:
 RMSU=  7.87D-08    CP:  9.90D-01  1.02D+00  8.43D-01  9.22D-01  9.03D-01
                    CP:  6.76D-01  7.67D-01
 E= -557.455033430278     Delta-E=       -0.000000000021 Rises=F Damp=F
 DIIS: error= 5.32D-08 at cycle   8 NSaved=   8.
 NSaved= 8 IEnMin= 8 EnMin= -557.455033430278     IErMin= 8 ErrMin= 5.32D-08
 ErrMax= 5.32D-08  0.00D+00 EMaxC= 1.00D-01 BMatC= 1.00D-12 BMatP= 1.55D-11
 IDIUse=1 WtCom= 1.00D+00 WtEn= 0.00D+00
 Coeff-Com:  0.481D-04-0.131D-02-0.141D-02 0.598D-03 0.246D-01 0.492D-01
 Coeff-Com:  0.220D+00 0.708D+00
 Coeff:      0.481D-04-0.131D-02-0.141D-02 0.598D-03 0.246D-01 0.492D-01
 Coeff:      0.220D+00 0.708D+00
 Gap=     0.147 Goal=   None    Shift=    0.000
 RMSDP=2.31D-08 MaxDP=1.24D-06 DE=-2.09D-11 OVMax= 4.55D-07

 Cycle   9  Pass 1  IDiag  1:
 RMSU=  2.06D-08    CP:  9.90D-01  1.02D+00  8.43D-01  9.22D-01  9.04D-01
                    CP:  6.81D-01  7.75D-01  9.79D-01
 E= -557.455033430279     Delta-E=       -0.000000000001 Rises=F Damp=F
 DIIS: error= 1.66D-08 at cycle   9 NSaved=   9.
 NSaved= 9 IEnMin= 9 EnMin= -557.455033430279     IErMin= 9 ErrMin= 1.66D-08
 ErrMax= 1.66D-08  0.00D+00 EMaxC= 1.00D-01 BMatC= 1.66D-13 BMatP= 1.00D-12
 IDIUse=1 WtCom= 1.00D+00 WtEn= 0.00D+00
 Coeff-Com:  0.408D-05 0.667D-04-0.551D-03-0.171D-02-0.694D-02-0.466D-02
 Coeff-Com:  0.614D-01 0.368D+00 0.584D+00
 Coeff:      0.408D-05 0.667D-04-0.551D-03-0.171D-02-0.694D-02-0.466D-02
 Coeff:      0.614D-01 0.368D+00 0.584D+00
 Gap=     0.147 Goal=   None    Shift=    0.000
 RMSDP=1.33D-08 MaxDP=6.20D-07 DE=-7.96D-13 OVMax= 1.82D-07

 Cycle  10  Pass 1  IDiag  1:
 RMSU=  5.95D-09    CP:  9.90D-01  1.02D+00  8.43D-01  9.23D-01  9.04D-01
                    CP:  6.87D-01  8.02D-01  9.30D-01  6.86D-01
 E= -557.455033430273     Delta-E=        0.000000000006 Rises=F Damp=F
 DIIS: error= 3.47D-09 at cycle  10 NSaved=  10.
 NSaved=10 IEnMin= 9 EnMin= -557.455033430279     IErMin=10 ErrMin= 3.47D-09
 ErrMax= 3.47D-09  0.00D+00 EMaxC= 1.00D-01 BMatC= 1.16D-14 BMatP= 1.66D-13
 IDIUse=1 WtCom= 1.00D+00 WtEn= 0.00D+00
 Coeff-Com: -0.239D-05 0.153D-03-0.124D-03-0.840D-03-0.541D-02-0.654D-02
 Coeff-Com:  0.898D-02 0.110D+00 0.279D+00 0.614D+00
 Coeff:     -0.239D-05 0.153D-03-0.124D-03-0.840D-03-0.541D-02-0.654D-02
 Coeff:      0.898D-02 0.110D+00 0.279D+00 0.614D+00
 Gap=     0.147 Goal=   None    Shift=    0.000
 RMSDP=2.91D-09 MaxDP=1.45D-07 DE= 6.37D-12 OVMax= 4.08D-08

 Error on total polarization charges =  0.05314
 SCF Done:  E(RB3LYP) =  -557.455033430     A.U. after   10 cycles
            NFock= 10  Conv=0.29D-08     -V/T= 2.0104
 KE= 5.517333039427D+02 PE=-2.781636238426D+03 EE= 9.205138743902D+02
 SMD-CDS (non-electrostatic) energy       (kcal/mol) =      -0.26
 (included in total energy above)
 Leave Link  502 at Wed Aug 12 15:26:05 2026, MaxMem=   104857600 cpu:             134.8 elap:             135.5
 (Enter /opt/packages/gaussian/g16RevC.01/g16/l801.exe)
 DoSCS=F DFT=T ScalE2(SS,OS)=  1.000000  1.000000
 ExpMin= 4.38D-02 ExpMax= 5.48D+03 ExpMxC= 8.25D+02 IAcc=3 IRadAn=         5 AccDes= 0.00D+00
 HarFok:  IExCor=  205 AccDes= 0.00D+00 IRadAn=         5 IDoV=-2 UseB2=F ITyADJ=14
 ICtDFT= 12500011 ScaDFX=  1.000000  1.000000  1.000000  1.000000
 Largest valence mixing into a core orbital is  5.49D-05
 Largest core mixing into a valence orbital is  1.18D-05
 Range of M.O.s used for correlation:    14   274
 NBasis=   275 NAE=    47 NBE=    47 NFC=    13 NFV=     0
 NROrb=    261 NOA=    34 NOB=    34 NVA=   227 NVB=   227

 **** Warning!!: The largest alpha MO coefficient is  0.21549451D+03

 Leave Link  801 at Wed Aug 12 15:26:05 2026, MaxMem=   104857600 cpu:               0.6 elap:               0.6
 (Enter /opt/packages/gaussian/g16RevC.01/g16/l914.exe)
 RHF ground state
 Two-electron integrals replicated using symmetry.
 MDV=   104857600 DFT=T DoStab=F Mixed=T DoRPA=T DoScal=F NonHer=T
 NEqPCM:  Using equilibrium solvation (IEInf=0, Eps=  32.6130, EpsInf=   1.7657)
 Making orbital integer symmetry assigments:
 Orbital symmetries:
       Occupied  (A) (A) (A) (A) (A) (A) (A) (A) (A) (A) (A) (A)
                 (A) (A) (A) (A) (A) (A) (A) (A) (A) (A) (A) (A)
                 (A) (A) (A) (A) (A) (A) (A) (A) (A) (A) (A) (A)
                 (A) (A) (A) (A) (A) (A) (A) (A) (A) (A) (A)
       Virtual   (A) (A) (A) (A) (A) (A) (A) (A) (A) (A) (A) (A)
                 (A) (A) (A) (A) (A) (A) (A) (A) (A) (A) (A) (A)
                 (A) (A) (A) (A) (A) (A) (A) (A) (A) (A) (A) (A)
                 (A) (A) (A) (A) (A) (A) (A) (A) (A) (A) (A) (A)
                 (A) (A) (A) (A) (A) (A) (A) (A) (A) (A) (A) (A)
                 (A) (A) (A) (A) (A) (A) (A) (A) (A) (A) (A) (A)
                 (A) (A) (A) (A) (A) (A) (A) (A) (A) (A) (A) (A)
                 (A) (A) (A) (A) (A) (A) (A) (A) (A) (A) (A) (A)
                 (A) (A) (A) (A) (A) (A) (A) (A) (A) (A) (A) (A)
                 (A) (A) (A) (A) (A) (A) (A) (A) (A) (A) (A) (A)
                 (A) (A) (A) (A) (A) (A) (A) (A) (A) (A) (A) (A)
                 (A) (A) (A) (A) (A) (A) (A) (A) (A) (A) (A) (A)
                 (A) (A) (A) (A) (A) (A) (A) (A) (A) (A) (A) (A)
                 (A) (A) (A) (A) (A) (A) (A) (A) (A) (A) (A) (A)
                 (A) (A) (A) (A) (A) (A) (A) (A) (A) (A) (A) (A)
                 (A) (A) (A) (A) (A) (A) (A) (A) (A) (A) (A) (A)
                 (A) (A) (A) (A) (A) (A) (A) (A) (A) (A) (A) (A)
                 (A) (A) (A) (A) (A) (A) (A) (A) (A) (A) (A) (A)
                 (A) (A) (A) (A) (A) (A) (A) (A) (A) (A) (A)
 Generating guess from densities on rwf.
 Convergence on wavefunction:    0.000001000000000
 Davidson Disk Diagonalization:  ConvIn= 1.00D-06 SkipCon=T Conv= 1.00D-06.
 Max sub-space:  2000 roots to seek:     5 dimension of matrix:        15436
 Iteration     1 Dimension    10 NMult     0 NNew     10
 CISAX will form    10 AO SS matrices at one time.
 NMat=    10 NSing=    10 JSym2X= 0.
 FoFJK:  IHMeth= 1 ICntrl=       0 DoSepK=F KAlg= 0 I1Cent=           0 FoldK=F
 IRaf= 880000000 NMat=      20 IRICut=      25 DoRegI=T DoRafI=T ISym2E= 0 IDoP0=0 IntGTp=1.
 FoFCou: FMM=F IPFlag=           0 FMFlag=      100000 FMFlg1=           0
         NFxFlg=           0 DoJE=F BraDBF=F KetDBF=F FulRan=T
         wScrn=  0.000000 ICntrl=         0 IOpCl=  0 I1Cent=           0 NGrid=           0
         NMat0=   20 NMatS0=     10 NMatT0=    0 NMatD0=   20 NMtDS0=    0 NMtDT0=    0
 Symmetry not used in FoFCou.
 Raff kept on since  87.67% of shell-pairs survive, threshold=   0.20 IRatSp=88.
 Excitation Energies [eV] at current iteration:
 Root      1 :     3.516187438060636
 Root      2 :     4.224925444042280
 Root      3 :     5.158279374094848
 Root      4 :     5.293622657817001
 Root      5 :     5.729871911928586
 Iteration     2 Dimension    20 NMult    10 NNew     10
 CISAX will form    10 AO SS matrices at one time.
 NMat=    10 NSing=    10 JSym2X= 0.
 Root      1 not converged, maximum delta is    0.000610834481280
 Root      2 not converged, maximum delta is    0.000760010583917
 Root      3 not converged, maximum delta is    0.000630043732896
 Root      4 not converged, maximum delta is    0.000757121249283
 Root      5 not converged, maximum delta is    0.000413142444306
 Excitation Energies [eV] at current iteration:
 Root      1 :     3.516107149330781   Change is   -0.000080288729855
 Root      2 :     4.224858151175399   Change is   -0.000067292866882
 Root      3 :     5.158223517361910   Change is   -0.000055856732937
 Root      4 :     5.293543555366154   Change is   -0.000079102450847
 Root      5 :     5.729837254066442   Change is   -0.000034657862145
 Iteration     3 Dimension    30 NMult    20 NNew     10
 CISAX will form    10 AO SS matrices at one time.
 NMat=    10 NSing=    10 JSym2X= 0.
 Root      1 not converged, maximum delta is    0.000080531576529
 Root      2 not converged, maximum delta is    0.000066171337493
 Root      3 not converged, maximum delta is    0.000055513447312
 Root      4 not converged, maximum delta is    0.000245200541420
 Root      5 not converged, maximum delta is    0.000053578378269
 Excitation Energies [eV] at current iteration:
 Root      1 :     3.516106011294062   Change is   -0.000001138036719
 Root      2 :     4.224857500157388   Change is   -0.000000651018011
 Root      3 :     5.158222729450023   Change is   -0.000000787911887
 Root      4 :     5.293541695261647   Change is   -0.000001860104507
 Root      5 :     5.729836793522994   Change is   -0.000000460543448
 Iteration     4 Dimension    40 NMult    30 NNew     10
 CISAX will form    10 AO SS matrices at one time.
 NMat=    10 NSing=    10 JSym2X= 0.
 Root      1 not converged, maximum delta is    0.000024093999882
 Root      2 not converged, maximum delta is    0.000019717822902
 Root      3 not converged, maximum delta is    0.000029107034460
 Root      4 not converged, maximum delta is    0.000107552707286
 Root      5 not converged, maximum delta is    0.000077276778401
 Excitation Energies [eV] at current iteration:
 Root      1 :     3.516105909614963   Change is   -0.000000101679099
 Root      2 :     4.224857443612354   Change is   -0.000000056545034
 Root      3 :     5.158222624746761   Change is   -0.000000104703263
 Root      4 :     5.293541512807913   Change is   -0.000000182453733
 Root      5 :     5.729836690661072   Change is   -0.000000102861922
 Iteration     5 Dimension    50 NMult    40 NNew     10
 CISAX will form    10 AO SS matrices at one time.
 NMat=    10 NSing=    10 JSym2X= 0.
 Root      1 not converged, maximum delta is    0.000005548336298
 Root      2 not converged, maximum delta is    0.000005627766561
 Root      3 not converged, maximum delta is    0.000011280238245
 Root      4 not converged, maximum delta is    0.000028224548353
 Root      5 not converged, maximum delta is    0.000049171169813
 Excitation Energies [eV] at current iteration:
 Root      1 :     3.516105904360714   Change is   -0.000000005254248
 Root      2 :     4.224857438707853   Change is   -0.000000004904500
 Root      3 :     5.158222611632406   Change is   -0.000000013114354
 Root      4 :     5.293541494737559   Change is   -0.000000018070354
 Root      5 :     5.729836671366978   Change is   -0.000000019294095
 Iteration     6 Dimension    60 NMult    50 NNew     10
 CISAX will form    10 AO SS matrices at one time.
 NMat=    10 NSing=    10 JSym2X= 0.
 Root      1 has converged.
 Root      2 not converged, maximum delta is    0.000001117480129
 Root      3 not converged, maximum delta is    0.000005852885334
 Root      4 not converged, maximum delta is    0.000008141143960
 Root      5 not converged, maximum delta is    0.000024259097489
 Excitation Energies [eV] at current iteration:
 Root      1 :     3.516105904091795   Change is   -0.000000000268920
 Root      2 :     4.224857438398918   Change is   -0.000000000308935
 Root      3 :     5.158222610259945   Change is   -0.000000001372462
 Root      4 :     5.293541492200427   Change is   -0.000000002537131
 Root      5 :     5.729836667271291   Change is   -0.000000004095687
 Iteration     7 Dimension    68 NMult    60 NNew      8
 CISAX will form     8 AO SS matrices at one time.
 NMat=     8 NSing=     8 JSym2X= 0.
 Root      1 has converged.
 Root      2 has converged.
 Root      3 not converged, maximum delta is    0.000001390948812
 Root      4 not converged, maximum delta is    0.000001635286094
 Root      5 not converged, maximum delta is    0.000005088467277
 Excitation Energies [eV] at current iteration:
 Root      1 :     3.516105904080829   Change is   -0.000000000010966
 Root      2 :     4.224857438381366   Change is   -0.000000000017552
 Root      3 :     5.158222610100238   Change is   -0.000000000159707
 Root      4 :     5.293541491903608   Change is   -0.000000000296820
 Root      5 :     5.729836666736812   Change is   -0.000000000534479
 Iteration     8 Dimension    74 NMult    68 NNew      6
 CISAX will form     6 AO SS matrices at one time.
 NMat=     6 NSing=     6 JSym2X= 0.
 Root      1 has converged.
 Root      2 has converged.
 Root      3 has converged.
 Root      4 has converged.
 Root      5 has converged.
 Excitation Energies [eV] at current iteration:
 Root      1 :     3.516105904079707   Change is   -0.000000000001122
 Root      2 :     4.224857438381230   Change is   -0.000000000000136
 Root      3 :     5.158222610082006   Change is   -0.000000000018232
 Root      4 :     5.293541491876384   Change is   -0.000000000027224
 Root      5 :     5.729836666668132   Change is   -0.000000000068680
 Convergence achieved on expansion vectors.
 ***********************************************************************
 Excited states from <AA,BB:AA,BB> singles matrix:
 ***********************************************************************
 
 1PDM for each excited state written to RWF  633
 Ground to excited state transition densities written to RWF  633
 Ground to excited state transition electric dipole moments (Au):
       state          X           Y           Z        Dip. S.      Osc.
         1         3.1648     -0.1305     -0.0766     10.0390      0.8648
         2         0.5292     -0.6325      0.0375      0.6815      0.0705
         3        -0.6417      1.2955     -0.0873      2.0977      0.2651
         4         0.2027     -0.8769     -0.0600      0.8136      0.1055
         5        -0.1435      0.0372     -0.0303      0.0229      0.0032
 Ground to excited state transition velocity dipole moments (Au):
       state          X           Y           Z        Dip. S.      Osc.
         1        -0.3974      0.0137      0.0105      0.1582      0.8164
         2        -0.0805      0.0955     -0.0058      0.0156      0.0672
         3         0.1119     -0.2417      0.0158      0.0712      0.2503
         4        -0.0426      0.1655      0.0122      0.0294      0.1006
         5         0.0297     -0.0081      0.0066      0.0010      0.0031
 Ground to excited state transition magnetic dipole moments (Au):
       state          X           Y           Z
         1         0.0199     -0.0187      0.4055
         2         0.0016     -0.0607     -0.6707
         3        -0.0043      0.0294      0.1924
         4         0.0368     -0.0553      0.1543
         5         0.1380     -0.0113     -0.0043
 Ground to excited state transition velocity quadrupole moments (Au):
       state          XX          YY          ZZ          XY          XZ          YZ
         1         0.2302     -0.0865     -0.0209      0.2827      0.0531     -0.0148
         2         0.0739      0.0257     -0.0025      0.0103      0.0140     -0.0058
         3        -0.0516     -0.1458      0.0190      0.5920     -0.0631      0.0150
         4        -1.5186      0.0963      0.0071      0.7100      0.1369     -0.0733
         5        -0.0329     -0.0073      0.0039     -0.0393      0.0197      0.0371
 <0|del|b> * <b|rxdel|0> + <0|del|b> * <b|delr+rdel|0>
 Rotatory Strengths (R) in cgs (10**-40 erg-esu-cm/Gauss)
       state          XX          YY          ZZ    R(velocity)    E-M Angle
         1        17.1280     -1.9637    -36.4000     -7.0786       91.38
         2        -7.5222      9.7738    -11.5111     -3.0865       91.38
         3       -18.6477     -9.5165     11.1551     -5.6697       95.04
         4       -38.6485     -9.4883     16.0272    -10.7032      107.88
         5        -0.0627      9.1175      4.9139      4.6562       17.40
 1/2[<0|r|b>*<b|rxdel|0> + (<0|rxdel|b>*<b|r|0>)*]
 Rotatory Strengths (R) in cgs (10**-40 erg-esu-cm/Gauss)
       state          XX          YY          ZZ     R(length)
         1       -44.4489     -1.7240     21.9690     -8.0680
         2        -0.5946    -27.1351     17.7874     -3.3141
         3        -1.9525    -26.9634     11.8814     -5.6782
         4        -5.2760    -34.2671      6.5432    -11.0000
         5        14.0034      0.2968     -0.0923      4.7360
  1/2[<0|del|b>*<b|r|0> + (<0|r|b>*<b|del|0>)*] (Au)
       state          X           Y           Z        Dip. S.   Osc.(frdel)
         1        -1.2578     -0.0018     -0.0008      1.2604      0.8402
         2        -0.0426     -0.0604     -0.0002      0.1032      0.0688
         3        -0.0718     -0.3131     -0.0014      0.3863      0.2575
         4        -0.0086     -0.1451     -0.0007      0.1545      0.1030
         5        -0.0043     -0.0003     -0.0002      0.0048      0.0032

 Excitation energies and oscillator strengths:
 
 Excited State   1:      Singlet-A      3.5161 eV  352.62 nm  f=0.8648  <S**2>=0.000
      47 -> 48         0.70442
 This state for optimization and/or second-order correction.
 Total Energy, E(TD-HF/TD-DFT) =  -557.325818916    
 Copying the excited state density for this state as the 1-particle RhoCI density.
 
 Excited State   2:      Singlet-A      4.2249 eV  293.46 nm  f=0.0705  <S**2>=0.000
      46 -> 48         0.68509
      47 -> 49        -0.16689
 
 Excited State   3:      Singlet-A      5.1582 eV  240.36 nm  f=0.2651  <S**2>=0.000
      46 -> 48        -0.16490
      47 -> 49        -0.67479
 
 Excited State   4:      Singlet-A      5.2935 eV  234.22 nm  f=0.1055  <S**2>=0.000
      45 -> 48         0.69704
 
 Excited State   5:      Singlet-A      5.7298 eV  216.38 nm  f=0.0032  <S**2>=0.000
      41 -> 48         0.11830
      44 -> 48         0.68948
 SavETr:  write IOETrn=   770 NScale= 10 NData=  16 NLR=1 NState=    5 LETran=     100.
 The selected state is a singlet.
 CISGrd: IGrad=2 NXY=2 DFT=T
 CISAX will form     1 AO SS matrices at one time.
 NMat=     1 NSing=     1 JSym2X= 0.
 GePol: Maximum number of non-zero 1st derivatives   =     254
 Leave Link  914 at Wed Aug 12 15:39:07 2026, MaxMem=   104857600 cpu:             775.6 elap:             782.3
 (Enter /opt/packages/gaussian/g16RevC.01/g16/l1002.exe)
 Minotr:  Closed shell wavefunction.
          Computing CIS/TDA/TD derivatives.
          Using Z-Vector for PSCF gradient.
          Skipping F1 and S1 gradient terms here.
          IDoAtm=111111111111111111111111111
 NEqPCM:  Using equilibrium solvation (IEInf=0, Eps=  32.6130, EpsInf=   1.7657)
          Frozen-core window.
          Direct CPHF calculation.
          Differentiating once with respect to electric field.
                with respect to dipole field.
          Differentiating once with respect to nuclear coordinates.
          Requested convergence is 1.0D-10 RMS, and 1.0D-09 maximum.
          NewPWx=F KeepS1=T KeepF1=T KeepIn=T MapXYZ=F SortEE=F KeepMc=T.
 Two-electron integral symmetry used by symmetrizing perturbed Fock matrices.
          MDV=     104857600 using IRadAn=       5.
          Solving linear equations separately, MaxMat=     384.
          There are     1 degrees of freedom in the 1st order CPHF.  IDoFFX=0 NUNeed=     1.
 FoFJK:  IHMeth= 1 ICntrl=       0 DoSepK=F KAlg= 0 I1Cent=           0 FoldK=F
 IRaf= 900000000 NMat=       1 IRICut=       1 DoRegI=T DoRafI=F ISym2E=-1 IDoP0=0 IntGTp=1.
 FoFCou: FMM=F IPFlag=           0 FMFlag=      100000 FMFlg1=           0
         NFxFlg=           0 DoJE=F BraDBF=F KetDBF=F FulRan=T
         wScrn=  0.000000 ICntrl=         0 IOpCl=  0 I1Cent=           0 NGrid=           0
         NMat0=    1 NMatS0=      1 NMatT0=    0 NMatD0=    1 NMtDS0=    0 NMtDT0=    0
 Petite list used in FoFCou.
 LinEq1:  Iter=  0 NonCon=     1 RMS=9.59D-03 Max=6.55D-01 NDo=     1
 AX will form     1 AO Fock derivatives at one time.
 LinEq1:  Iter=  1 NonCon=     1 RMS=3.75D-03 Max=2.62D-01 NDo=     1
 LinEq1:  Iter=  2 NonCon=     1 RMS=2.86D-03 Max=1.37D-01 NDo=     1
 LinEq1:  Iter=  3 NonCon=     1 RMS=6.71D-04 Max=2.14D-02 NDo=     1
 LinEq1:  Iter=  4 NonCon=     1 RMS=4.36D-04 Max=1.39D-02 NDo=     1
 LinEq1:  Iter=  5 NonCon=     1 RMS=2.13D-04 Max=8.56D-03 NDo=     1
 LinEq1:  Iter=  6 NonCon=     1 RMS=9.66D-05 Max=2.58D-03 NDo=     1
 LinEq1:  Iter=  7 NonCon=     1 RMS=5.48D-05 Max=1.92D-03 NDo=     1
 LinEq1:  Iter=  8 NonCon=     1 RMS=3.34D-05 Max=9.37D-04 NDo=     1
 LinEq1:  Iter=  9 NonCon=     1 RMS=1.51D-05 Max=5.74D-04 NDo=     1
 LinEq1:  Iter= 10 NonCon=     1 RMS=1.06D-05 Max=3.48D-04 NDo=     1
 LinEq1:  Iter= 11 NonCon=     1 RMS=4.16D-06 Max=1.26D-04 NDo=     1
 LinEq1:  Iter= 12 NonCon=     1 RMS=1.92D-06 Max=4.31D-05 NDo=     1
 LinEq1:  Iter= 13 NonCon=     1 RMS=7.06D-07 Max=1.61D-05 NDo=     1
 LinEq1:  Iter= 14 NonCon=     1 RMS=4.09D-07 Max=8.87D-06 NDo=     1
 LinEq1:  Iter= 15 NonCon=     1 RMS=1.11D-07 Max=2.51D-06 NDo=     1
 LinEq1:  Iter= 16 NonCon=     1 RMS=5.50D-08 Max=1.49D-06 NDo=     1
 LinEq1:  Iter= 17 NonCon=     1 RMS=2.06D-08 Max=4.94D-07 NDo=     1
 LinEq1:  Iter= 18 NonCon=     1 RMS=9.00D-09 Max=1.98D-07 NDo=     1
 LinEq1:  Iter= 19 NonCon=     1 RMS=3.65D-09 Max=5.03D-08 NDo=     1
 LinEq1:  Iter= 20 NonCon=     1 RMS=1.49D-09 Max=7.15D-08 NDo=     1
 LinEq1:  Iter= 21 NonCon=     1 RMS=8.59D-10 Max=2.69D-08 NDo=     1
 LinEq1:  Iter= 22 NonCon=     1 RMS=2.53D-10 Max=7.75D-09 NDo=     1
 LinEq1:  Iter= 23 NonCon=     1 RMS=1.08D-10 Max=2.26D-09 NDo=     1
 LinEq1:  Iter= 24 NonCon=     1 RMS=3.92D-11 Max=1.15D-09 NDo=     1
 LinEq1:  Iter= 25 NonCon=     0 RMS=1.59D-11 Max=2.56D-10 NDo=     1
 Linear equations converged to 1.000D-10 1.000D-09 after    25 iterations.
 End of Minotr F.D. properties file   721 does not exist.
 End of Minotr F.D. properties file   722 does not exist.
 End of Minotr F.D. properties file   788 does not exist.
 Leave Link 1002 at Wed Aug 12 15:45:59 2026, MaxMem=   104857600 cpu:             407.8 elap:             411.2
 (Enter /opt/packages/gaussian/g16RevC.01/g16/l701.exe)
 ... and contract with generalized density number  6.
 Compute integral first derivatives.
 D1PCM: PCM CHGder 1st derivatives, ID1Alg=3 FixD1E=F DoIter=F DoCFld=F I1PDM=6.
 Leave Link  701 at Wed Aug 12 15:46:08 2026, MaxMem=   104857600 cpu:               8.9 elap:               8.9
 (Enter /opt/packages/gaussian/g16RevC.01/g16/l702.exe)
 L702 exits ... SP integral derivatives will be done elsewhere.
 Leave Link  702 at Wed Aug 12 15:46:11 2026, MaxMem=   104857600 cpu:               0.0 elap:               0.0
 (Enter /opt/packages/gaussian/g16RevC.01/g16/l703.exe)
 Integral derivatives from FoFJK, PRISM(SPDF).
 Compute integral first derivatives, UseDBF=F ICtDFT=           0.
 Calling FoFJK, ICntrl=  10005127 FMM=F ISym2X=0 I1Cent= 0 IOpClX= 0 NMat=1 NMatS=1 NMatT=0.
 FoFJK:  IHMeth= 1 ICntrl=10005127 DoSepK=F KAlg= 0 I1Cent=           0 FoldK=F
 IRaf=         0 NMat=       1 IRICut=       1 DoRegI=T DoRafI=F ISym2E= 0 IDoP0=0 IntGTp=1.
 FoFCou: FMM=F IPFlag=           0 FMFlag=      100000 FMFlg1=         800
         NFxFlg=           0 DoJE=F BraDBF=F KetDBF=F FulRan=T
         wScrn=  0.000000 ICntrl=  10005127 IOpCl=  0 I1Cent=           0 NGrid=           0
         NMat0=    1 NMatS0=      1 NMatT0=    0 NMatD0=    1 NMtDS0=    0 NMtDT0=    0
 Symmetry not used in FoFCou.
 Leave Link  703 at Wed Aug 12 15:46:59 2026, MaxMem=   104857600 cpu:              47.1 elap:              48.8
 (Enter /opt/packages/gaussian/g16RevC.01/g16/l716.exe)
 Dipole        = 3.22775885D-02-1.08618005D+00-2.45827211D-01
 ***** Axes restored to original set *****
 -------------------------------------------------------------------
 Center     Atomic                   Forces (Hartrees/Bohr)
 Number     Number              X              Y              Z
 -------------------------------------------------------------------
      1        6           0.000003413   -0.000007488    0.000000232
      2        6          -0.000002505    0.000006425    0.000005618
      3        6           0.000007561   -0.000008215    0.000005761
      4        6           0.000021996   -0.000000201    0.000004501
      5        6           0.000006764    0.000003013   -0.000003879
      6        6           0.000004258    0.000005330   -0.000004300
      7        1           0.000001557    0.000000728   -0.000001513
      8        1          -0.000001387    0.000001633    0.000004076
      9        1          -0.000003705    0.000014273    0.000011944
     10        1           0.000001599   -0.000000765   -0.000003953
     11        8          -0.000005555    0.000003262    0.000001134
     12        6           0.000001057    0.000005415    0.000004817
     13        1           0.000000696    0.000003865    0.000006166
     14        1          -0.000002017    0.000000839    0.000005945
     15        1          -0.000000107    0.000003738    0.000004790
     16        6          -0.000025739    0.000002148   -0.000001046
     17        6           0.000000206   -0.000002196   -0.000010886
     18        7          -0.000014017    0.000002952   -0.000003196
     19        6           0.000001192   -0.000003634    0.000004552
     20        6          -0.000000069   -0.000002249   -0.000000611
     21        1          -0.000003150    0.000000689   -0.000005080
     22        1          -0.000000317   -0.000003261   -0.000004019
     23        1          -0.000002746   -0.000005442   -0.000001674
     24        1           0.000000103   -0.000003438   -0.000001691
     25        1           0.000001242    0.000000738   -0.000004190
     26        1           0.000000520   -0.000003899   -0.000005589
     27        1           0.000009153   -0.000014260   -0.000007911
 -------------------------------------------------------------------
 Cartesian Forces:  Max     0.000025739 RMS     0.000006244
 Leave Link  716 at Wed Aug 12 15:47:02 2026, MaxMem=   104857600 cpu:               0.0 elap:               1.0
 (Enter /opt/packages/gaussian/g16RevC.01/g16/l103.exe)

 GradGradGradGradGradGradGradGradGradGradGradGradGradGradGradGradGradGrad
 Berny optimization.
 Using GEDIIS/GDIIS optimizer.
 FormGI is forming the generalized inverse of G from B-inverse, IUseBI=4.
 GSVD:  received Info=                   1 from GESDD.
 Internal  Forces:  Max     0.000033434 RMS     0.000004708
 Search for a local minimum.
 Step number   5 out of a maximum of  154
 All quantities printed in internal units (Hartrees-Bohrs-Radians)
 RMS Force = .47080D-05 SwitMx=.10000D-02 MixMth= 2
 Mixed Optimization -- En-DIIS/RFO-DIIS
 Swapping is turned off.
 Update second derivatives using D2CorX and points    1    2    3    4    5
 DE= -7.92D-07 DEPred=-9.68D-07 R= 8.18D-01
 Trust test= 8.18D-01 RLast= 1.56D-02 DXMaxT set to 1.39D-01
 ITU=  0  1  1  1  0
     Eigenvalues ---    0.00209   0.00260   0.00483   0.00524   0.00618
     Eigenvalues ---    0.00744   0.00994   0.01344   0.01597   0.01711
     Eigenvalues ---    0.01814   0.01910   0.02257   0.02348   0.02534
     Eigenvalues ---    0.02624   0.02821   0.03135   0.04158   0.04428
     Eigenvalues ---    0.04538   0.05745   0.05931   0.06845   0.07213
     Eigenvalues ---    0.07693   0.08331   0.08499   0.09023   0.09545
     Eigenvalues ---    0.11032   0.11090   0.11787   0.11933   0.12797
     Eigenvalues ---    0.13200   0.16019   0.18029   0.18240   0.18745
     Eigenvalues ---    0.19240   0.19406   0.19891   0.20507   0.23295
     Eigenvalues ---    0.23519   0.23976   0.25151   0.27970   0.28411
     Eigenvalues ---    0.29940   0.30324   0.31958   0.32617   0.32755
     Eigenvalues ---    0.33703   0.33944   0.33963   0.34401   0.34647
     Eigenvalues ---    0.34967   0.35086   0.36046   0.36532   0.36613
     Eigenvalues ---    0.36952   0.37301   0.37988   0.38259   0.39400
     Eigenvalues ---    0.41842   0.45643   0.47589   0.50394   0.54153
 En-DIIS/RFO-DIIS/Sim-DIIS IScMMF=       -3 using points:     5    4    3    2    1
 RFO step:  Lambda=-7.13060455D-08.
 NNeg= 0 NGDIIS= 5 SimSw=  2.50D-01 Rises=F DC= -7.92D-07 SmlDif=  1.00D-05
 NRisDI= 0 DoIntr=F SqrtH=F CThrHd= 10.0 CDAdj=  3.0
 RMS Error=  0.2630912692D-03 NUsed= 5 OKEnD=F EnDIS=F
 InvSVX:  RCond= 1.30D-06 Info=           0 Equed=N FErr=  1.87D-14 BErr=  7.10D-17
 DidBck=F Rises=F RFO-DIIS coefs:    1.03803   -0.07754    0.05325   -0.01999    0.00624
 Iteration  1 RMS(Cart)=  0.00057956 RMS(Int)=  0.00000092
 Iteration  2 RMS(Cart)=  0.00000021 RMS(Int)=  0.00000091
 ITry= 1 IFail=0 DXMaxC= 3.10D-03 DCOld= 1.00D+10 DXMaxT= 1.39D-01 DXLimC= 3.00D+00 Rises=F
 Variable       Old X    -DE/DX   Delta X   Delta X   Delta X     New X
                                 (Linear)    (Quad)   (Total)
    R1        2.67353  -0.00000   0.00000  -0.00000  -0.00000   2.67353
    R2        2.71315   0.00001  -0.00000   0.00001   0.00001   2.71316
    R3        2.52799   0.00000   0.00000   0.00001   0.00001   2.52800
    R4        2.61082  -0.00000  -0.00000   0.00001   0.00000   2.61082
    R5        2.04906   0.00000  -0.00000   0.00000   0.00000   2.04906
    R6        2.73941  -0.00001  -0.00003   0.00001  -0.00003   2.73939
    R7        2.05016  -0.00001  -0.00002  -0.00000  -0.00002   2.05014
    R8        2.69515  -0.00000  -0.00002   0.00001  -0.00001   2.69515
    R9        2.72471  -0.00003  -0.00002  -0.00005  -0.00007   2.72464
   R10        2.60623  -0.00000   0.00001  -0.00001  -0.00000   2.60622
   R11        2.04991  -0.00000   0.00000   0.00000   0.00000   2.04992
   R12        2.05178  -0.00000   0.00000  -0.00000  -0.00000   2.05178
   R13        2.72201  -0.00000   0.00000  -0.00001  -0.00000   2.72200
   R14        2.06997   0.00000  -0.00000   0.00000   0.00000   2.06997
   R15        2.07036   0.00000   0.00000   0.00000   0.00000   2.07037
   R16        2.05883  -0.00000   0.00000   0.00000   0.00000   2.05883
   R17        2.83448  -0.00001  -0.00001  -0.00000  -0.00001   2.83446
   R18        2.57091   0.00001   0.00003  -0.00001   0.00002   2.57093
   R19        2.92491   0.00000  -0.00001   0.00001  -0.00001   2.92491
   R20        2.07137   0.00000  -0.00000   0.00000   0.00000   2.07138
   R21        2.08493  -0.00000   0.00001  -0.00000   0.00000   2.08493
   R22        2.75984   0.00000   0.00003  -0.00000   0.00003   2.75987
   R23        1.92093   0.00001   0.00001   0.00002   0.00004   1.92096
   R24        2.90515   0.00000  -0.00001   0.00000  -0.00001   2.90514
   R25        2.08408   0.00000  -0.00000  -0.00000  -0.00000   2.08408
   R26        2.06946   0.00000   0.00000  -0.00000   0.00000   2.06946
   R27        2.07048  -0.00000   0.00000  -0.00000   0.00000   2.07048
   R28        2.06497  -0.00000   0.00000   0.00000   0.00000   2.06497
    A1        2.09624   0.00000   0.00001   0.00001   0.00002   2.09625
    A2        2.18459  -0.00000  -0.00001   0.00000  -0.00001   2.18459
    A3        2.00235   0.00000  -0.00000  -0.00001  -0.00001   2.00234
    A4        2.08400  -0.00000  -0.00001   0.00000  -0.00001   2.08399
    A5        2.10790   0.00000   0.00000  -0.00000   0.00000   2.10790
    A6        2.09129   0.00000   0.00001  -0.00000   0.00001   2.09130
    A7        2.11927  -0.00000   0.00000  -0.00002  -0.00002   2.11926
    A8        2.06819   0.00000   0.00006   0.00002   0.00008   2.06827
    A9        2.09570  -0.00000  -0.00006  -0.00001  -0.00007   2.09564
   A10        2.06023   0.00001   0.00003   0.00001   0.00004   2.06027
   A11        2.13011  -0.00000  -0.00005  -0.00000  -0.00005   2.13006
   A12        2.09281  -0.00001   0.00002  -0.00001   0.00001   2.09282
   A13        2.10670  -0.00000  -0.00002  -0.00000  -0.00003   2.10668
   A14        2.09290   0.00000   0.00000  -0.00000   0.00000   2.09290
   A15        2.08359   0.00000   0.00002   0.00001   0.00003   2.08361
   A16        2.09981  -0.00000  -0.00000  -0.00000  -0.00000   2.09980
   A17        2.06525   0.00000  -0.00000  -0.00000  -0.00000   2.06524
   A18        2.11813   0.00000   0.00000   0.00001   0.00001   2.11814
   A19        2.10313  -0.00000   0.00000   0.00000   0.00000   2.10313
   A20        1.91843   0.00000   0.00001  -0.00000   0.00001   1.91843
   A21        1.91835   0.00000  -0.00000   0.00001   0.00000   1.91836
   A22        1.83623   0.00000  -0.00000   0.00000   0.00000   1.83623
   A23        1.92740  -0.00000  -0.00000  -0.00001  -0.00001   1.92740
   A24        1.93138   0.00000   0.00000   0.00000   0.00000   1.93139
   A25        1.93013  -0.00000  -0.00001  -0.00000  -0.00001   1.93012
   A26        2.23213  -0.00001  -0.00001  -0.00000  -0.00001   2.23211
   A27        2.13917   0.00001  -0.00002   0.00001  -0.00001   2.13916
   A28        1.91183   0.00000   0.00003  -0.00000   0.00002   1.91185
   A29        1.79824  -0.00000  -0.00003   0.00000  -0.00003   1.79820
   A30        1.96804  -0.00000  -0.00001  -0.00002  -0.00002   1.96801
   A31        1.92485   0.00000   0.00001  -0.00000   0.00001   1.92486
   A32        1.96924   0.00000   0.00004   0.00001   0.00005   1.96929
   A33        1.94187   0.00000  -0.00002   0.00001  -0.00001   1.94186
   A34        1.86310  -0.00000   0.00001  -0.00000   0.00001   1.86311
   A35        1.96639  -0.00000  -0.00008   0.00001  -0.00006   1.96632
   A36        2.15383   0.00002  -0.00001  -0.00002  -0.00004   2.15380
   A37        2.11185  -0.00001  -0.00014   0.00002  -0.00013   2.11172
   A38        1.78924   0.00000  -0.00000  -0.00000  -0.00000   1.78923
   A39        1.91255  -0.00000   0.00000  -0.00001  -0.00001   1.91254
   A40        1.92893  -0.00000  -0.00000   0.00001   0.00000   1.92894
   A41        1.95213  -0.00000  -0.00001   0.00001  -0.00001   1.95212
   A42        1.99720   0.00000   0.00002   0.00001   0.00003   1.99723
   A43        1.88215  -0.00000   0.00000  -0.00001  -0.00001   1.88214
   A44        1.81260   0.00000  -0.00004   0.00000  -0.00003   1.81257
   A45        1.91828   0.00000   0.00000  -0.00000  -0.00000   1.91828
   A46        1.96903  -0.00000   0.00001   0.00000   0.00002   1.96904
   A47        1.91501   0.00000   0.00001   0.00000   0.00001   1.91502
   A48        1.95590  -0.00000   0.00000  -0.00001  -0.00000   1.95590
   A49        1.89202  -0.00000   0.00001  -0.00000   0.00001   1.89203
    D1        0.00554  -0.00000  -0.00006   0.00000  -0.00006   0.00547
    D2       -3.13478  -0.00000  -0.00007   0.00002  -0.00005  -3.13483
    D3       -3.13991  -0.00000  -0.00002  -0.00000  -0.00003  -3.13993
    D4        0.00297  -0.00000  -0.00003   0.00002  -0.00001   0.00295
    D5        0.00790   0.00000   0.00015  -0.00002   0.00013   0.00803
    D6       -3.13572   0.00000   0.00012   0.00002   0.00014  -3.13558
    D7       -3.13023   0.00000   0.00012  -0.00002   0.00010  -3.13013
    D8        0.00934   0.00000   0.00009   0.00002   0.00011   0.00945
    D9        0.01320  -0.00000   0.00002   0.00007   0.00009   0.01329
   D10       -3.13207  -0.00000   0.00006   0.00007   0.00013  -3.13194
   D11       -0.01374  -0.00000  -0.00017   0.00003  -0.00013  -0.01387
   D12        3.12109  -0.00000  -0.00025   0.00004  -0.00021   3.12088
   D13        3.12658  -0.00000  -0.00016   0.00001  -0.00014   3.12644
   D14       -0.02177  -0.00000  -0.00024   0.00002  -0.00022  -0.02199
   D15        0.00871   0.00000   0.00030  -0.00005   0.00026   0.00897
   D16       -3.12488   0.00000   0.00035  -0.00003   0.00032  -3.12456
   D17       -3.12602   0.00001   0.00039  -0.00005   0.00034  -3.12568
   D18        0.02358   0.00001   0.00043  -0.00003   0.00040   0.02398
   D19        0.00492  -0.00000  -0.00021   0.00002  -0.00019   0.00473
   D20       -3.13774  -0.00000  -0.00013   0.00000  -0.00013  -3.13787
   D21        3.13868  -0.00000  -0.00026   0.00000  -0.00025   3.13843
   D22       -0.00398  -0.00000  -0.00017  -0.00002  -0.00019  -0.00417
   D23       -3.01171   0.00001   0.00096   0.00001   0.00097  -3.01074
   D24        0.14321   0.00001   0.00074  -0.00001   0.00073   0.14394
   D25        0.13804   0.00001   0.00100   0.00003   0.00103   0.13907
   D26       -2.99023   0.00001   0.00079   0.00001   0.00079  -2.98944
   D27       -0.01299   0.00000  -0.00001   0.00001   0.00000  -0.01298
   D28        3.13069   0.00000   0.00002  -0.00003  -0.00001   3.13068
   D29        3.12967  -0.00000  -0.00009   0.00003  -0.00006   3.12961
   D30       -0.00984  -0.00000  -0.00006  -0.00001  -0.00007  -0.00991
   D31        1.04961  -0.00000  -0.00010  -0.00003  -0.00014   1.04947
   D32       -1.07530  -0.00000  -0.00010  -0.00003  -0.00013  -1.07543
   D33        3.12950  -0.00000  -0.00010  -0.00003  -0.00013   3.12938
   D34        2.91422  -0.00000  -0.00030  -0.00004  -0.00035   2.91387
   D35        0.78604  -0.00000  -0.00033  -0.00005  -0.00038   0.78566
   D36       -1.29482   0.00000  -0.00034  -0.00003  -0.00037  -1.29520
   D37       -0.23929  -0.00000  -0.00011  -0.00002  -0.00013  -0.23942
   D38       -2.36747  -0.00000  -0.00014  -0.00002  -0.00016  -2.36763
   D39        1.83485  -0.00000  -0.00015  -0.00001  -0.00016   1.83470
   D40        3.04456   0.00000   0.00016   0.00006   0.00023   3.04479
   D41        0.23914   0.00001   0.00097   0.00003   0.00099   0.24013
   D42       -0.08588   0.00000  -0.00002   0.00004   0.00003  -0.08585
   D43       -2.89130   0.00001   0.00079   0.00000   0.00079  -2.89050
   D44        0.44932   0.00000   0.00019  -0.00001   0.00018   0.44951
   D45       -1.59833   0.00000   0.00020  -0.00001   0.00019  -1.59814
   D46        2.57109   0.00000   0.00018  -0.00001   0.00017   2.57126
   D47        2.57669  -0.00000   0.00018  -0.00002   0.00016   2.57685
   D48        0.52903  -0.00000   0.00019  -0.00002   0.00017   0.52920
   D49       -1.58473  -0.00000   0.00017  -0.00002   0.00015  -1.58458
   D50       -1.61293   0.00000   0.00021  -0.00001   0.00020  -1.61273
   D51        2.62260  -0.00000   0.00022  -0.00001   0.00021   2.62280
   D52        0.50883  -0.00000   0.00020  -0.00001   0.00019   0.50902
   D53        0.37347  -0.00000   0.00014  -0.00004   0.00010   0.37357
   D54       -1.70206  -0.00000   0.00016  -0.00005   0.00011  -1.70195
   D55        2.50932  -0.00000   0.00016  -0.00003   0.00013   2.50945
   D56       -3.09519  -0.00000  -0.00061  -0.00002  -0.00063  -3.09582
   D57        1.11246   0.00000  -0.00059  -0.00002  -0.00061   1.11185
   D58       -0.95934   0.00000  -0.00060  -0.00000  -0.00060  -0.95994
   D59       -0.49363  -0.00000  -0.00021   0.00003  -0.00018  -0.49381
   D60        1.55630   0.00000  -0.00022   0.00003  -0.00020   1.55610
   D61       -2.62414   0.00000  -0.00020   0.00002  -0.00018  -2.62431
   D62        1.55389  -0.00000  -0.00022   0.00002  -0.00020   1.55369
   D63       -2.67937  -0.00000  -0.00023   0.00002  -0.00021  -2.67958
   D64       -0.57662  -0.00000  -0.00021   0.00001  -0.00020  -0.57681
   D65       -2.58251  -0.00000  -0.00021   0.00002  -0.00020  -2.58271
   D66       -0.53259  -0.00000  -0.00023   0.00001  -0.00021  -0.53280
   D67        1.57017  -0.00000  -0.00021   0.00001  -0.00019   1.56997
         Item               Value     Threshold  Converged?
 Maximum Force            0.000033     0.000450     YES
 RMS     Force            0.000005     0.000300     YES
 Maximum Displacement     0.003105     0.001800     NO 
 RMS     Displacement     0.000580     0.001200     YES
 Predicted change in Energy=-3.524614D-08
 Lowest energy point so far.  Saving SCF results.
 GradGradGradGradGradGradGradGradGradGradGradGradGradGradGradGradGradGrad

 Leave Link  103 at Wed Aug 12 15:47:03 2026, MaxMem=   104857600 cpu:               0.0 elap:               0.0
 (Enter /opt/packages/gaussian/g16RevC.01/g16/l202.exe)
                          Input orientation:                          
 ---------------------------------------------------------------------
 Center     Atomic      Atomic             Coordinates (Angstroms)
 Number     Number       Type             X           Y           Z
 ---------------------------------------------------------------------
      1          6           0       -2.492865    0.244607   -0.025210
      2          6           0       -1.868019   -1.019498    0.089620
      3          6           0       -0.488608   -1.095383    0.105299
      4          6           0        0.335011    0.091897   -0.010543
      5          6           0       -0.319845    1.353131   -0.131097
      6          6           0       -1.696589    1.434607   -0.131067
      7          1           0       -2.206088    2.389961   -0.212141
      8          1           0       -2.458814   -1.925690    0.163928
      9          1           0       -0.024932   -2.070201    0.213553
     10          1           0        0.267022    2.260790   -0.223102
     11          8           0       -3.814295    0.451506   -0.050165
     12          6           0       -4.729751   -0.655165    0.059531
     13          1           0       -4.573579   -1.175798    1.010537
     14          1           0       -4.586190   -1.342951   -0.781100
     15          1           0       -5.723055   -0.208992    0.024153
     16          6           0        1.775318    0.026176   -0.016473
     17          6           0        2.749654    1.165770    0.025920
     18          7           0        2.454395   -1.151034   -0.079202
     19          6           0        3.897381   -0.962397   -0.202279
     20          6           0        4.093988    0.464137    0.335991
     21          1           0        2.483511    1.923694    0.771714
     22          1           0        2.781716    1.678166   -0.950650
     23          1           0        4.191947   -1.045508   -1.261805
     24          1           0        4.434678   -1.735606    0.356939
     25          1           0        4.256746    0.431527    1.418993
     26          1           0        4.949030    0.963185   -0.126526
     27          1           0        2.019144   -2.035671   -0.326808
 ---------------------------------------------------------------------
                    Distance matrix (angstroms):
                    1          2          3          4          5
     1  C    0.000000
     2  C    1.414773   0.000000
     3  C    2.414468   1.381586   0.000000
     4  C    2.832034   2.469529   1.449621   0.000000
     5  C    2.441731   2.841642   2.465681   1.426212   0.000000
     6  C    1.435744   2.469965   2.813528   2.438195   1.379153
     7  H    2.172494   3.439443   3.898478   3.432044   2.153949
     8  H    2.178790   1.084317   2.138822   3.450588   3.925926
     9  H    3.392055   2.125160   1.084889   2.203281   3.453253
    10  H    3.423614   3.926383   3.455824   2.180344   1.084769
    11  O    1.337762   2.443641   3.671135   4.165048   3.609800
    12  C    2.412557   2.884988   4.264175   5.120042   4.849418
    13  H    2.723911   2.862267   4.184844   5.171452   5.078687
    14  H    2.733811   2.872495   4.199664   5.183702   5.088522
    15  H    3.262256   3.939862   5.309587   6.065633   5.626633
    16  C    4.273778   3.791912   2.529443   1.441818   2.482671
    17  C    5.323078   5.109047   3.950374   2.642921   3.079218
    18  N    5.140633   4.327709   2.949305   2.457922   3.737639
    19  C    6.505648   5.773067   4.398771   3.720051   4.811625
    20  C    6.600401   6.148772   4.846185   3.793225   4.526633
    21  H    5.312131   5.297494   4.288639   2.929754   2.999902
    22  H    5.543711   5.475362   4.416177   3.063726   3.224438
    23  H    6.919557   6.208881   4.876377   4.211330   5.233377
    24  H    7.215133   6.348879   4.971112   4.503564   5.690692
    25  H    6.904919   6.433153   5.155156   4.187951   4.919078
    26  H    7.477193   7.102809   5.818878   4.696995   5.283287
    27  H    5.064469   4.039313   2.712872   2.731826   4.122275
                    6          7          8          9         10
     6  C    0.000000
     7  H    1.085755   0.000000
     8  H    3.458267   4.339372   0.000000
     9  H    3.898318   4.983142   2.438673   0.000000
    10  H    2.132327   2.476505   5.010648   4.362727   0.000000
    11  O    2.336174   2.523921   2.744855   4.559366   4.467724
    12  C    3.688298   3.964275   2.604283   4.915422   5.792272
    13  H    4.049018   4.451359   2.398191   4.703757   6.063285
    14  H    4.060439   4.463545   2.399665   4.724754   6.070583
    15  H    4.351774   4.379435   3.690781   5.997380   6.483979
    16  C    3.748460   4.634367   4.665854   2.772834   2.703914
    17  C    4.457129   5.110254   6.058408   4.266737   2.724802
    18  N    4.890695   5.854607   4.979841   2.660383   4.055348
    19  C    6.086313   6.963529   6.439196   4.096912   4.854779
    20  C    5.889885   6.610613   6.977112   4.837703   4.264530
    21  H    4.304353   4.814323   6.293944   4.749213   2.452777
    22  H    4.559195   5.092174   6.457028   4.825236   2.681877
    23  H    6.488790   7.337512   6.858575   4.583530   5.235985
    24  H    6.919599   7.838618   6.898813   4.474443   5.803188
    25  H    6.233062   6.947250   7.227061   5.103381   4.686212
    26  H    6.662320   7.296487   7.956513   5.835870   4.859455
    27  H    5.088007   6.119800   4.506109   2.114575   4.641149
                   11         12         13         14         15
    11  O    0.000000
    12  C    1.440421   0.000000
    13  H    2.085598   1.095381   0.000000
    14  H    2.085705   1.095591   1.799461   0.000000
    15  H    2.021174   1.089483   1.796931   1.796318   0.000000
    16  C    5.605873   6.541095   6.542781   6.551942   7.502170
    17  C    6.603135   7.697950   7.751268   7.794843   8.583517
    18  N    6.470351   7.202575   7.112001   7.078088   8.232181
    19  C    7.841696   8.636570   8.560002   8.511805   9.652548
    20  C    7.917715   8.898744   8.847097   8.936384   9.845033
    21  H    6.519599   7.693430   7.711446   7.941213   8.512045
    22  H    6.769263   7.930135   8.129682   7.965045   8.765999
    23  H    8.234623   9.027457   9.056211   8.796319  10.032981
    24  H    8.543696   9.232690   9.049270   9.100845  10.277200
    25  H    8.203690   9.153479   8.984708   9.283680  10.097142
    26  H    8.778582   9.814911   9.825896   9.831945  10.737322
    27  H    6.347565   6.899466   6.781730   6.657077   7.962510
                   16         17         18         19         20
    16  C    0.000000
    17  C    1.499934   0.000000
    18  N    1.360479   2.337907   0.000000
    19  C    2.348394   2.428672   1.460459   0.000000
    20  C    2.385848   1.547794   2.338682   1.537332   0.000000
    21  H    2.173327   1.096125   3.190432   3.358157   2.216709
    22  H    2.148161   1.103299   2.978411   2.962658   2.202583
    23  H    2.922234   2.937378   2.104465   1.102847   2.200359
    24  H    3.211777   3.371478   2.110324   1.095110   2.226069
    25  H    2.895230   2.179700   2.827996   2.168108   1.095649
    26  H    3.310973   2.213941   3.270377   2.195352   1.092733
    27  H    2.099279   3.302618   1.016531   2.166841   3.315618
                   21         22         23         24         25
    21  H    0.000000
    22  H    1.765149   0.000000
    23  H    3.983731   3.082850   0.000000
    24  H    4.167682   4.011972   1.776370   0.000000
    25  H    2.406221   3.056965   3.061456   2.419935   0.000000
    26  H    2.794315   2.426444   2.428349   2.789582   1.774978
    27  H    4.135089   3.842302   2.564316   2.528311   3.760552
                   26         27
    26  H    0.000000
    27  H    4.197318   0.000000
 Stoichiometry    C11H14NO(1+)
 Framework group  C1[X(C11H14NO)]
 Deg. of freedom    75
 Full point group                 C1      NOp   1
 RotChk:  IX=0 Diff= 1.43D-04
 Largest Abelian subgroup         C1      NOp   1
 Largest concise Abelian subgroup C1      NOp   1
                         Standard orientation:                         
 ---------------------------------------------------------------------
 Center     Atomic      Atomic             Coordinates (Angstroms)
 Number     Number       Type             X           Y           Z
 ---------------------------------------------------------------------
      1          6           0       -2.492994    0.245734   -0.013022
      2          6           0       -1.868071   -1.019742    0.085077
      3          6           0       -0.488637   -1.095998    0.096359
      4          6           0        0.334884    0.092473   -0.007336
      5          6           0       -0.320064    1.355149   -0.111118
      6          6           0       -1.696790    1.436808   -0.106631
      7          1           0       -2.206332    2.393134   -0.174967
      8          1           0       -2.458827   -1.926679    0.150019
      9          1           0       -0.024853   -2.072105    0.191756
     10          1           0        0.266720    2.263765   -0.193727
     11          8           0       -3.814448    0.453097   -0.032156
     12          6           0       -4.729809   -0.654683    0.066590
     13          1           0       -4.571322   -1.186692    1.010894
     14          1           0       -4.588487   -1.332370   -0.782579
     15          1           0       -5.723125   -0.207983    0.039071
     16          6           0        1.775161    0.026630   -0.017694
     17          6           0        2.749791    1.165502    0.035883
     18          7           0        2.453880   -1.149836   -0.096236
     19          6           0        3.896582   -0.959936   -0.220693
     20          6           0        4.094787    0.460022    0.334127
     21          1           0        2.485659    1.914474    0.791372
     22          1           0        2.779471    1.689554   -0.934559
     23          1           0        4.188456   -1.030389   -1.281880
     24          1           0        4.435162   -1.739862    0.327863
     25          1           0        4.260275    0.414419    1.416246
     26          1           0        4.948740    0.964457   -0.124540
     27          1           0        2.017857   -2.031385   -0.353319
 ---------------------------------------------------------------------
 Rotational constants (GHZ):           2.8187001           0.3488643           0.3142416
 Leave Link  202 at Wed Aug 12 15:47:03 2026, MaxMem=   104857600 cpu:               0.0 elap:               0.0
 (Enter /opt/packages/gaussian/g16RevC.01/g16/l301.exe)
 Standard basis: 6-31+G(d) (6D, 7F)
 Ernie: Thresh=  0.10000D-02 Tol=  0.10000D-05 Strict=F.
 There are   275 symmetry adapted cartesian basis functions of A   symmetry.
 There are   275 symmetry adapted basis functions of A   symmetry.
   275 basis functions,   472 primitive gaussians,   275 cartesian basis functions
    47 alpha electrons       47 beta electrons
       nuclear repulsion energy       751.9387321928 Hartrees.
 IExCor=  402 DFT=T Ex+Corr=B3LYP ExCW=0 ScaHFX=  0.200000
 ScaDFX=  0.800000  0.720000  1.000000  0.810000 ScalE2=  1.000000  1.000000
 IRadAn=      5 IRanWt=     -1 IRanGd=            0 ICorTp=0 IEmpDi=  4
 NAtoms=   27 NActive=   27 NUniq=   27 SFac= 1.00D+00 NAtFMM=   60 NAOKFM=F Big=F
 Integral buffers will be    131072 words long.
 Regular integral format.
 Two-electron integral symmetry is turned on.
 ------------------------------------------------------------------------------
 Polarizable Continuum Model (PCM)
 =================================
 Model                : PCM.
 Atomic radii         : SMD-Coulomb.
 Polarization charges : Total charges.
 Charge compensation  : None.
 Solution method      : Matrix inversion.
 Cavity type          : VdW (van der Waals Surface) (Alpha=1.000).
 Cavity algorithm     : GePol (No added spheres)
                        Default sphere list used, NSphG=   27.
                        Lebedev-Laikov grids with approx.  5.0 points / Ang**2.
                        Smoothing algorithm: York/Karplus (Gamma=1.0000).
                        Polarization charges: spherical gaussians, with
                                              point-specific exponents (IZeta= 3).
                        Self-potential: point-specific (ISelfS= 7).
                        Self-field    : sphere-specific E.n sum rule (ISelfD= 2).
 1st derivatives      : Analytical E(r).r(x)/FMM algorithm (CHGder, D1EAlg=3).
                        Cavity 1st derivative terms included.
 Solvent              : Methanol, Eps=  32.613000 Eps(inf)=   1.765709
 ------------------------------------------------------------------------------
 GePol: Number of generator spheres                  =      27
 GePol: Total number of spheres                      =      27
 GePol: Number of exposed spheres                    =      27 (100.00%)
 GePol: Number of points                             =    2000
 GePol: Average weight of points                     =       0.11
 GePol: Minimum weight of points                     =   0.53D-10
 GePol: Maximum weight of points                     =    0.21991
 GePol: Number of points with low weight             =     108
 GePol: Fraction of low-weight points (<1% of avg)   =       5.40%
 GePol: Cavity surface area                          =    217.072 Ang**2
 GePol: Cavity volume                                =    192.652 Ang**3
 ------------------------------------------------------------------------------
 Atomic radii for non-electrostatic terms: SMD-CDS.
 ------------------------------------------------------------------------------
 PCM non-electrostatic energy =        -0.0004213278 Hartrees.
 Nuclear repulsion after PCM non-electrostatic terms =      751.9383108650 Hartrees.
 Leave Link  301 at Wed Aug 12 15:47:03 2026, MaxMem=   104857600 cpu:               0.0 elap:               0.1
 (Enter /opt/packages/gaussian/g16RevC.01/g16/l302.exe)
 NPDir=0 NMtPBC=     1 NCelOv=     1 NCel=       1 NClECP=     1 NCelD=      1
         NCelK=      1 NCelE2=     1 NClLst=     1 CellRange=     0.0.
 One-electron integrals computed using PRISM.
 One-electron integral symmetry used in STVInt
 NBasis=   275 RedAO= T EigKep=  1.12D-06  NBF=   275
 NBsUse=   274 1.00D-06 EigRej=  4.70D-07 NBFU=   274
 Precomputing XC quadrature grid using
 IXCGrd= 4 IRadAn=           5 IRanWt=          -1 IRanGd=           0 AccXCQ= 0.00D+00.
 Generated NRdTot=       0 NPtTot=           0 NUsed=           0 NTot=          32
 NSgBfM=   274   274   274   274   274 MxSgAt=    27 MxSgA2=    27.
 Leave Link  302 at Wed Aug 12 15:47:04 2026, MaxMem=   104857600 cpu:               0.6 elap:               0.6
 (Enter /opt/packages/gaussian/g16RevC.01/g16/l303.exe)
 DipDrv:  MaxL=1.
 Leave Link  303 at Wed Aug 12 15:47:05 2026, MaxMem=   104857600 cpu:               0.0 elap:               0.4
 (Enter /opt/packages/gaussian/g16RevC.01/g16/l308.exe)
 Leave Link  308 at Wed Aug 12 15:47:06 2026, MaxMem=   104857600 cpu:               0.0 elap:               0.2
 (Enter /opt/packages/gaussian/g16RevC.01/g16/l401.exe)
 Initial guess from the checkpoint file:  "mono_s1_planar_opt.chk"
 B after Tr=    -0.000000   -0.000000   -0.000000
         Rot=    1.000000   -0.000028    0.000001   -0.000001 Ang=  -0.00 deg.
 Guess basis will be translated and rotated to current coordinates.
 JPrj=2 DoOrth=T DoCkMO=T.
 Leave Link  401 at Wed Aug 12 15:47:07 2026, MaxMem=   104857600 cpu:               0.1 elap:               0.1
 (Enter /opt/packages/gaussian/g16RevC.01/g16/l502.exe)
 Integral symmetry usage will be decided dynamically.
 Closed shell SCF:
 Using DIIS extrapolation, IDIIS=  1040.
 NGot=   104857600 LenX=   104701058 LenY=   104624992
 Requested convergence on RMS density matrix=1.00D-08 within 128 cycles.
 Requested convergence on MAX density matrix=1.00D-06.
 Requested convergence on             energy=1.00D-06.
 No special actions if energy rises.
 Fock matrices will be formed incrementally for  20 cycles.

 Cycle   1  Pass 1  IDiag  1:
 FoFJK:  IHMeth= 1 ICntrl=       0 DoSepK=F KAlg= 0 I1Cent=           0 FoldK=F
 IRaf= 880000000 NMat=       1 IRICut=       1 DoRegI=T DoRafI=F ISym2E= 0 IDoP0=0 IntGTp=1.
 FoFCou: FMM=F IPFlag=           0 FMFlag=      100000 FMFlg1=           0
         NFxFlg=           0 DoJE=F BraDBF=F KetDBF=F FulRan=T
         wScrn=  0.000000 ICntrl=         0 IOpCl=  0 I1Cent=           0 NGrid=           0
         NMat0=    1 NMatS0=      1 NMatT0=    0 NMatD0=    1 NMtDS0=    0 NMtDT0=    0
 Symmetry not used in FoFCou.
 Inv3:  Mode=1 IEnd=    12000000.
 Iteration    1 A*A^-1 deviation from unit magnitude is 3.44D-15 for   1457.
 Iteration    1 A*A^-1 deviation from orthogonality  is 1.86D-15 for   1706   1015.
 Iteration    1 A^-1*A deviation from unit magnitude is 3.33D-15 for   1099.
 Iteration    1 A^-1*A deviation from orthogonality  is 1.78D-14 for    810    808.
 E= -557.455026039628    
 DIIS: error= 6.27D-05 at cycle   1 NSaved=   1.
 NSaved= 1 IEnMin= 1 EnMin= -557.455026039628     IErMin= 1 ErrMin= 6.27D-05
 ErrMax= 6.27D-05  0.00D+00 EMaxC= 1.00D-01 BMatC= 9.29D-07 BMatP= 9.29D-07
 IDIUse=1 WtCom= 1.00D+00 WtEn= 0.00D+00
 Coeff-Com:  0.100D+01
 Coeff:      0.100D+01
 Gap=     0.421 Goal=   None    Shift=    0.000
 RMSDP=1.56D-04 MaxDP=1.79D-02              OVMax= 2.96D-04

 Cycle   2  Pass 1  IDiag  1:
 RMSU=  1.10D-04    CP:  9.98D-01
 E= -557.455027466784     Delta-E=       -0.000001427156 Rises=F Damp=F
 DIIS: error= 4.10D-06 at cycle   2 NSaved=   2.
 NSaved= 2 IEnMin= 2 EnMin= -557.455027466784     IErMin= 2 ErrMin= 4.10D-06
 ErrMax= 4.10D-06  0.00D+00 EMaxC= 1.00D-01 BMatC= 8.81D-09 BMatP= 9.29D-07
 IDIUse=1 WtCom= 1.00D+00 WtEn= 0.00D+00
 Coeff-Com: -0.313D-01 0.103D+01
 Coeff:     -0.313D-01 0.103D+01
 Gap=     0.147 Goal=   None    Shift=    0.000
 RMSDP=4.33D-06 MaxDP=1.68D-04 DE=-1.43D-06 OVMax= 5.25D-05

 Cycle   3  Pass 1  IDiag  1:
 RMSU=  3.94D-06    CP:  9.98D-01  1.01D+00
 E= -557.455027477513     Delta-E=       -0.000000010729 Rises=F Damp=F
 DIIS: error= 3.03D-06 at cycle   3 NSaved=   3.
 NSaved= 3 IEnMin= 3 EnMin= -557.455027477513     IErMin= 3 ErrMin= 3.03D-06
 ErrMax= 3.03D-06  0.00D+00 EMaxC= 1.00D-01 BMatC= 5.75D-09 BMatP= 8.81D-09
 IDIUse=1 WtCom= 1.00D+00 WtEn= 0.00D+00
 Coeff-Com: -0.203D-01 0.468D+00 0.553D+00
 Coeff:     -0.203D-01 0.468D+00 0.553D+00
 Gap=     0.147 Goal=   None    Shift=    0.000
 RMSDP=2.57D-06 MaxDP=1.77D-04 DE=-1.07D-08 OVMax= 4.30D-05

 Cycle   4  Pass 1  IDiag  1:
 RMSU=  1.75D-06    CP:  9.98D-01  1.02D+00  7.65D-01
 E= -557.455027482303     Delta-E=       -0.000000004789 Rises=F Damp=F
 DIIS: error= 1.62D-06 at cycle   4 NSaved=   4.
 NSaved= 4 IEnMin= 4 EnMin= -557.455027482303     IErMin= 4 ErrMin= 1.62D-06
 ErrMax= 1.62D-06  0.00D+00 EMaxC= 1.00D-01 BMatC= 1.25D-09 BMatP= 5.75D-09
 IDIUse=1 WtCom= 1.00D+00 WtEn= 0.00D+00
 Coeff-Com: -0.658D-02 0.107D+00 0.324D+00 0.575D+00
 Coeff:     -0.658D-02 0.107D+00 0.324D+00 0.575D+00
 Gap=     0.147 Goal=   None    Shift=    0.000
 RMSDP=7.58D-07 MaxDP=6.46D-05 DE=-4.79D-09 OVMax= 1.59D-05

 Cycle   5  Pass 1  IDiag  1:
 RMSU=  4.91D-07    CP:  9.98D-01  1.02D+00  8.23D-01  8.29D-01
 E= -557.455027483543     Delta-E=       -0.000000001240 Rises=F Damp=F
 DIIS: error= 3.02D-07 at cycle   5 NSaved=   5.
 NSaved= 5 IEnMin= 5 EnMin= -557.455027483543     IErMin= 5 ErrMin= 3.02D-07
 ErrMax= 3.02D-07  0.00D+00 EMaxC= 1.00D-01 BMatC= 5.00D-11 BMatP= 1.25D-09
 IDIUse=1 WtCom= 1.00D+00 WtEn= 0.00D+00
 Coeff-Com: -0.109D-02 0.502D-02 0.878D-01 0.233D+00 0.675D+00
 Coeff:     -0.109D-02 0.502D-02 0.878D-01 0.233D+00 0.675D+00
 Gap=     0.147 Goal=   None    Shift=    0.000
 RMSDP=2.36D-07 MaxDP=1.08D-05 DE=-1.24D-09 OVMax= 3.23D-06

 Cycle   6  Pass 1  IDiag  1:
 RMSU=  2.02D-07    CP:  9.98D-01  1.02D+00  8.35D-01  8.51D-01  8.77D-01
 E= -557.455027483576     Delta-E=       -0.000000000034 Rises=F Damp=F
 DIIS: error= 1.65D-07 at cycle   6 NSaved=   6.
 NSaved= 6 IEnMin= 6 EnMin= -557.455027483576     IErMin= 6 ErrMin= 1.65D-07
 ErrMax= 1.65D-07  0.00D+00 EMaxC= 1.00D-01 BMatC= 1.94D-11 BMatP= 5.00D-11
 IDIUse=1 WtCom= 1.00D+00 WtEn= 0.00D+00
 Coeff-Com:  0.261D-03-0.123D-01 0.754D-02 0.617D-01 0.426D+00 0.516D+00
 Coeff:      0.261D-03-0.123D-01 0.754D-02 0.617D-01 0.426D+00 0.516D+00
 Gap=     0.147 Goal=   None    Shift=    0.000
 RMSDP=8.99D-08 MaxDP=4.84D-06 DE=-3.35D-11 OVMax= 1.29D-06

 Cycle   7  Pass 1  IDiag  1:
 RMSU=  3.85D-08    CP:  9.98D-01  1.02D+00  8.38D-01  8.66D-01  8.82D-01
                    CP:  6.95D-01
 E= -557.455027483596     Delta-E=       -0.000000000020 Rises=F Damp=F
 DIIS: error= 2.70D-08 at cycle   7 NSaved=   7.
 NSaved= 7 IEnMin= 7 EnMin= -557.455027483596     IErMin= 7 ErrMin= 2.70D-08
 ErrMax= 2.70D-08  0.00D+00 EMaxC= 1.00D-01 BMatC= 6.92D-13 BMatP= 1.94D-11
 IDIUse=1 WtCom= 1.00D+00 WtEn= 0.00D+00
 Coeff-Com:  0.187D-03-0.686D-02-0.331D-03 0.215D-01 0.195D+00 0.274D+00
 Coeff-Com:  0.517D+00
 Coeff:      0.187D-03-0.686D-02-0.331D-03 0.215D-01 0.195D+00 0.274D+00
 Coeff:      0.517D+00
 Gap=     0.147 Goal=   None    Shift=    0.000
 RMSDP=1.97D-08 MaxDP=7.45D-07 DE=-1.99D-11 OVMax= 2.29D-07

 Cycle   8  Pass 1  IDiag  1:
 RMSU=  1.57D-08    CP:  9.98D-01  1.02D+00  8.38D-01  8.64D-01  8.91D-01
                    CP:  6.69D-01  7.75D-01
 E= -557.455027483590     Delta-E=        0.000000000006 Rises=F Damp=F
 DIIS: error= 1.04D-08 at cycle   8 NSaved=   8.
 NSaved= 8 IEnMin= 7 EnMin= -557.455027483596     IErMin= 8 ErrMin= 1.04D-08
 ErrMax= 1.04D-08  0.00D+00 EMaxC= 1.00D-01 BMatC= 4.83D-14 BMatP= 6.92D-13
 IDIUse=1 WtCom= 1.00D+00 WtEn= 0.00D+00
 Coeff-Com:  0.519D-04-0.152D-02-0.129D-02 0.145D-02 0.336D-01 0.587D-01
 Coeff-Com:  0.235D+00 0.674D+00
 Coeff:      0.519D-04-0.152D-02-0.129D-02 0.145D-02 0.336D-01 0.587D-01
 Coeff:      0.235D+00 0.674D+00
 Gap=     0.147 Goal=   None    Shift=    0.000
 RMSDP=5.03D-09 MaxDP=2.67D-07 DE= 5.68D-12 OVMax= 9.18D-08

 Error on total polarization charges =  0.05314
 SCF Done:  E(RB3LYP) =  -557.455027484     A.U. after    8 cycles
            NFock=  8  Conv=0.50D-08     -V/T= 2.0104
 KE= 5.517333765832D+02 PE=-2.781644836060D+03 EE= 9.205181211279D+02
 SMD-CDS (non-electrostatic) energy       (kcal/mol) =      -0.26
 (included in total energy above)
 Leave Link  502 at Wed Aug 12 15:49:03 2026, MaxMem=   104857600 cpu:             109.3 elap:             116.0
 (Enter /opt/packages/gaussian/g16RevC.01/g16/l801.exe)
 DoSCS=F DFT=T ScalE2(SS,OS)=  1.000000  1.000000
 ExpMin= 4.38D-02 ExpMax= 5.48D+03 ExpMxC= 8.25D+02 IAcc=3 IRadAn=         5 AccDes= 0.00D+00
 HarFok:  IExCor=  205 AccDes= 0.00D+00 IRadAn=         5 IDoV=-2 UseB2=F ITyADJ=14
 ICtDFT= 12500011 ScaDFX=  1.000000  1.000000  1.000000  1.000000
 Largest valence mixing into a core orbital is  5.49D-05
 Largest core mixing into a valence orbital is  1.18D-05
 Range of M.O.s used for correlation:    14   274
 NBasis=   275 NAE=    47 NBE=    47 NFC=    13 NFV=     0
 NROrb=    261 NOA=    34 NOB=    34 NVA=   227 NVB=   227

 **** Warning!!: The largest alpha MO coefficient is  0.21562851D+03

 Leave Link  801 at Wed Aug 12 15:49:12 2026, MaxMem=   104857600 cpu:               0.5 elap:               1.5
 (Enter /opt/packages/gaussian/g16RevC.01/g16/l914.exe)
 RHF ground state
 Two-electron integrals replicated using symmetry.
 MDV=   104857600 DFT=T DoStab=F Mixed=T DoRPA=T DoScal=F NonHer=T
 NEqPCM:  Using equilibrium solvation (IEInf=0, Eps=  32.6130, EpsInf=   1.7657)
 Making orbital integer symmetry assigments:
 Orbital symmetries:
       Occupied  (A) (A) (A) (A) (A) (A) (A) (A) (A) (A) (A) (A)
                 (A) (A) (A) (A) (A) (A) (A) (A) (A) (A) (A) (A)
                 (A) (A) (A) (A) (A) (A) (A) (A) (A) (A) (A) (A)
                 (A) (A) (A) (A) (A) (A) (A) (A) (A) (A) (A)
       Virtual   (A) (A) (A) (A) (A) (A) (A) (A) (A) (A) (A) (A)
                 (A) (A) (A) (A) (A) (A) (A) (A) (A) (A) (A) (A)
                 (A) (A) (A) (A) (A) (A) (A) (A) (A) (A) (A) (A)
                 (A) (A) (A) (A) (A) (A) (A) (A) (A) (A) (A) (A)
                 (A) (A) (A) (A) (A) (A) (A) (A) (A) (A) (A) (A)
                 (A) (A) (A) (A) (A) (A) (A) (A) (A) (A) (A) (A)
                 (A) (A) (A) (A) (A) (A) (A) (A) (A) (A) (A) (A)
                 (A) (A) (A) (A) (A) (A) (A) (A) (A) (A) (A) (A)
                 (A) (A) (A) (A) (A) (A) (A) (A) (A) (A) (A) (A)
                 (A) (A) (A) (A) (A) (A) (A) (A) (A) (A) (A) (A)
                 (A) (A) (A) (A) (A) (A) (A) (A) (A) (A) (A) (A)
                 (A) (A) (A) (A) (A) (A) (A) (A) (A) (A) (A) (A)
                 (A) (A) (A) (A) (A) (A) (A) (A) (A) (A) (A) (A)
                 (A) (A) (A) (A) (A) (A) (A) (A) (A) (A) (A) (A)
                 (A) (A) (A) (A) (A) (A) (A) (A) (A) (A) (A) (A)
                 (A) (A) (A) (A) (A) (A) (A) (A) (A) (A) (A) (A)
                 (A) (A) (A) (A) (A) (A) (A) (A) (A) (A) (A) (A)
                 (A) (A) (A) (A) (A) (A) (A) (A) (A) (A) (A) (A)
                 (A) (A) (A) (A) (A) (A) (A) (A) (A) (A) (A)
 Generating guess from densities on rwf.
 Convergence on wavefunction:    0.000001000000000
 Davidson Disk Diagonalization:  ConvIn= 1.00D-06 SkipCon=T Conv= 1.00D-06.
 Max sub-space:  2000 roots to seek:     5 dimension of matrix:        15436
 Iteration     1 Dimension    10 NMult     0 NNew     10
 CISAX will form    10 AO SS matrices at one time.
 NMat=    10 NSing=    10 JSym2X= 0.
 FoFJK:  IHMeth= 1 ICntrl=       0 DoSepK=F KAlg= 0 I1Cent=           0 FoldK=F
 IRaf= 880000000 NMat=      20 IRICut=      25 DoRegI=T DoRafI=T ISym2E= 0 IDoP0=0 IntGTp=1.
 FoFCou: FMM=F IPFlag=           0 FMFlag=      100000 FMFlg1=           0
         NFxFlg=           0 DoJE=F BraDBF=F KetDBF=F FulRan=T
         wScrn=  0.000000 ICntrl=         0 IOpCl=  0 I1Cent=           0 NGrid=           0
         NMat0=   20 NMatS0=     10 NMatT0=    0 NMatD0=   20 NMtDS0=    0 NMtDT0=    0
 Symmetry not used in FoFCou.
 Raff kept on since  87.67% of shell-pairs survive, threshold=   0.20 IRatSp=88.
 Excitation Energies [eV] at current iteration:
 Root      1 :     3.515947275720556
 Root      2 :     4.224718595569834
 Root      3 :     5.158124167303720
 Root      4 :     5.293463920892624
 Root      5 :     5.729806481600767
 Iteration     2 Dimension    20 NMult    10 NNew     10
 CISAX will form    10 AO SS matrices at one time.
 NMat=    10 NSing=    10 JSym2X= 0.
 Root      1 not converged, maximum delta is    0.000131998492270
 Root      2 not converged, maximum delta is    0.000163684743746
 Root      3 not converged, maximum delta is    0.000145858704562
 Root      4 not converged, maximum delta is    0.000139987593298
 Root      5 not converged, maximum delta is    0.000074759721476
 Excitation Energies [eV] at current iteration:
 Root      1 :     3.515943739337861   Change is   -0.000003536382695
 Root      2 :     4.224715775344566   Change is   -0.000002820225268
 Root      3 :     5.158121405857964   Change is   -0.000002761445757
 Root      4 :     5.293460900391260   Change is   -0.000003020501364
 Root      5 :     5.729805166580778   Change is   -0.000001315019989
 Iteration     3 Dimension    30 NMult    20 NNew     10
 CISAX will form    10 AO SS matrices at one time.
 NMat=    10 NSing=    10 JSym2X= 0.
 Root      1 not converged, maximum delta is    0.000017113516999
 Root      2 not converged, maximum delta is    0.000016125239403
 Root      3 not converged, maximum delta is    0.000017017526830
 Root      4 not converged, maximum delta is    0.000060565741706
 Root      5 not converged, maximum delta is    0.000023120099665
 Excitation Energies [eV] at current iteration:
 Root      1 :     3.515943690405135   Change is   -0.000000048932726
 Root      2 :     4.224715745423278   Change is   -0.000000029921288
 Root      3 :     5.158121361028143   Change is   -0.000000044829821
 Root      4 :     5.293460826424541   Change is   -0.000000073966719
 Root      5 :     5.729805142674881   Change is   -0.000000023905898
 Iteration     4 Dimension    40 NMult    30 NNew     10
 CISAX will form    10 AO SS matrices at one time.
 NMat=    10 NSing=    10 JSym2X= 0.
 Root      1 not converged, maximum delta is    0.000004901663794
 Root      2 not converged, maximum delta is    0.000004255732260
 Root      3 not converged, maximum delta is    0.000010026948016
 Root      4 not converged, maximum delta is    0.000025395930664
 Root      5 not converged, maximum delta is    0.000007926982797
 Excitation Energies [eV] at current iteration:
 Root      1 :     3.515943686108298   Change is   -0.000000004296838
 Root      2 :     4.224715742125241   Change is   -0.000000003298037
 Root      3 :     5.158121355484175   Change is   -0.000000005543967
 Root      4 :     5.293460818637203   Change is   -0.000000007787338
 Root      5 :     5.729805138849390   Change is   -0.000000003825491
 Iteration     5 Dimension    50 NMult    40 NNew     10
 CISAX will form    10 AO SS matrices at one time.
 NMat=    10 NSing=    10 JSym2X= 0.
 Root      1 not converged, maximum delta is    0.000001213698436
 Root      2 not converged, maximum delta is    0.000001270379778
 Root      3 not converged, maximum delta is    0.000003176444618
 Root      4 not converged, maximum delta is    0.000006673445896
 Root      5 not converged, maximum delta is    0.000003121741149
 Excitation Energies [eV] at current iteration:
 Root      1 :     3.515943685865599   Change is   -0.000000000242698
 Root      2 :     4.224715741859572   Change is   -0.000000000265670
 Root      3 :     5.158121354702727   Change is   -0.000000000781447
 Root      4 :     5.293460817852145   Change is   -0.000000000785058
 Root      5 :     5.729805138258651   Change is   -0.000000000590738
 Iteration     6 Dimension    60 NMult    50 NNew     10
 CISAX will form    10 AO SS matrices at one time.
 NMat=    10 NSing=    10 JSym2X= 0.
 Root      1 has converged.
 Root      2 has converged.
 Root      3 not converged, maximum delta is    0.000002103547187
 Root      4 not converged, maximum delta is    0.000001492247665
 Root      5 not converged, maximum delta is    0.000002219924398
 Excitation Energies [eV] at current iteration:
 Root      1 :     3.515943685854329   Change is   -0.000000000011270
 Root      2 :     4.224715741843752   Change is   -0.000000000015820
 Root      3 :     5.158121354628252   Change is   -0.000000000074476
 Root      4 :     5.293460817763810   Change is   -0.000000000088335
 Root      5 :     5.729805138148478   Change is   -0.000000000110173
 Iteration     7 Dimension    66 NMult    60 NNew      6
 CISAX will form     6 AO SS matrices at one time.
 NMat=     6 NSing=     6 JSym2X= 0.
 Root      1 has converged.
 Root      2 has converged.
 Root      3 has converged.
 Root      4 has converged.
 Root      5 has converged.
 Excitation Energies [eV] at current iteration:
 Root      1 :     3.515943685854259   Change is   -0.000000000000070
 Root      2 :     4.224715741843810   Change is    0.000000000000059
 Root      3 :     5.158121354618195   Change is   -0.000000000010056
 Root      4 :     5.293460817753731   Change is   -0.000000000010079
 Root      5 :     5.729805138125680   Change is   -0.000000000022798
 Convergence achieved on expansion vectors.
 ***********************************************************************
 Excited states from <AA,BB:AA,BB> singles matrix:
 ***********************************************************************
 
 1PDM for each excited state written to RWF  633
 Ground to excited state transition densities written to RWF  633
 Ground to excited state transition electric dipole moments (Au):
       state          X           Y           Z        Dip. S.      Osc.
         1         3.1647     -0.1305     -0.0768     10.0381      0.8647
         2         0.5290     -0.6324      0.0376      0.6812      0.0705
         3        -0.6414      1.2954     -0.0877      2.0971      0.2650
         4         0.2026     -0.8767     -0.0603      0.8134      0.1055
         5        -0.1444      0.0373     -0.0303      0.0232      0.0033
 Ground to excited state transition velocity dipole moments (Au):
       state          X           Y           Z        Dip. S.      Osc.
         1        -0.3974      0.0138      0.0106      0.1582      0.8163
         2        -0.0805      0.0955     -0.0058      0.0156      0.0671
         3         0.1119     -0.2416      0.0158      0.0711      0.2502
         4        -0.0426      0.1655      0.0123      0.0293      0.1006
         5         0.0299     -0.0081      0.0066      0.0010      0.0032
 Ground to excited state transition magnetic dipole moments (Au):
       state          X           Y           Z
         1         0.0200     -0.0189      0.4054
         2         0.0017     -0.0609     -0.6706
         3        -0.0043      0.0294      0.1924
         4         0.0371     -0.0554      0.1542
         5         0.1380     -0.0112     -0.0042
 Ground to excited state transition velocity quadrupole moments (Au):
       state          XX          YY          ZZ          XY          XZ          YZ
         1         0.2301     -0.0865     -0.0209      0.2826      0.0532     -0.0149
         2         0.0739      0.0257     -0.0025      0.0103      0.0141     -0.0058
         3        -0.0515     -0.1458      0.0190      0.5919     -0.0633      0.0150
         4        -1.5184      0.0963      0.0071      0.7099      0.1372     -0.0733
         5        -0.0333     -0.0073      0.0039     -0.0393      0.0197      0.0371
 <0|del|b> * <b|rxdel|0> + <0|del|b> * <b|delr+rdel|0>
 Rotatory Strengths (R) in cgs (10**-40 erg-esu-cm/Gauss)
       state          XX          YY          ZZ    R(velocity)    E-M Angle
         1        17.1685     -2.0422    -36.6873     -7.1870       91.40
         2        -7.5517      9.7845    -11.5639     -3.1104       91.39
         3       -18.6231     -9.5666     11.2421     -5.6492       95.02
         4       -38.6616     -9.5755     16.0647    -10.7242      107.91
         5        -0.0604      9.1753      4.9458      4.6869       17.28
 1/2[<0|r|b>*<b|rxdel|0> + (<0|rxdel|b>*<b|r|0>)*]
 Rotatory Strengths (R) in cgs (10**-40 erg-esu-cm/Gauss)
       state          XX          YY          ZZ     R(length)
         1       -44.8354     -1.7406     22.0278     -8.1827
         2        -0.6283    -27.2426     17.8526     -3.3394
         3        -1.9358    -26.9674     11.9334     -5.6566
         4        -5.3111    -34.3307      6.5807    -11.0204
         5        14.0958      0.2960     -0.0892      4.7675
  1/2[<0|del|b>*<b|r|0> + (<0|r|b>*<b|del|0>)*] (Au)
       state          X           Y           Z        Dip. S.   Osc.(frdel)
         1        -1.2576     -0.0018     -0.0008      1.2602      0.8401
         2        -0.0426     -0.0604     -0.0002      0.1032      0.0688
         3        -0.0717     -0.3130     -0.0014      0.3861      0.2574
         4        -0.0086     -0.1451     -0.0007      0.1544      0.1030
         5        -0.0043     -0.0003     -0.0002      0.0048      0.0032

 Excitation energies and oscillator strengths:
 
 Excited State   1:      Singlet-A      3.5159 eV  352.63 nm  f=0.8647  <S**2>=0.000
      47 -> 48         0.70442
 This state for optimization and/or second-order correction.
 Total Energy, E(TD-HF/TD-DFT) =  -557.325818931    
 Copying the excited state density for this state as the 1-particle RhoCI density.
 
 Excited State   2:      Singlet-A      4.2247 eV  293.47 nm  f=0.0705  <S**2>=0.000
      46 -> 48         0.68510
      47 -> 49        -0.16686
 
 Excited State   3:      Singlet-A      5.1581 eV  240.37 nm  f=0.2650  <S**2>=0.000
      46 -> 48        -0.16486
      47 -> 49        -0.67479
 
 Excited State   4:      Singlet-A      5.2935 eV  234.22 nm  f=0.1055  <S**2>=0.000
      45 -> 48         0.69704
 
 Excited State   5:      Singlet-A      5.7298 eV  216.38 nm  f=0.0033  <S**2>=0.000
      41 -> 48         0.11831
      44 -> 48         0.68942
 SavETr:  write IOETrn=   770 NScale= 10 NData=  16 NLR=1 NState=    5 LETran=     100.
 The selected state is a singlet.
 CISGrd: IGrad=2 NXY=2 DFT=T
 CISAX will form     1 AO SS matrices at one time.
 NMat=     1 NSing=     1 JSym2X= 0.
 GePol: Maximum number of non-zero 1st derivatives   =     254
 Leave Link  914 at Wed Aug 12 16:00:39 2026, MaxMem=   104857600 cpu:             683.6 elap:             687.1
 (Enter /opt/packages/gaussian/g16RevC.01/g16/l1002.exe)
 Minotr:  Closed shell wavefunction.
          Computing CIS/TDA/TD derivatives.
          Using Z-Vector for PSCF gradient.
          Skipping F1 and S1 gradient terms here.
          IDoAtm=111111111111111111111111111
 NEqPCM:  Using equilibrium solvation (IEInf=0, Eps=  32.6130, EpsInf=   1.7657)
          Frozen-core window.
          Direct CPHF calculation.
          Differentiating once with respect to electric field.
                with respect to dipole field.
          Differentiating once with respect to nuclear coordinates.
          Requested convergence is 1.0D-10 RMS, and 1.0D-09 maximum.
          NewPWx=F KeepS1=T KeepF1=T KeepIn=T MapXYZ=F SortEE=F KeepMc=T.
 Two-electron integral symmetry used by symmetrizing perturbed Fock matrices.
          MDV=     104857600 using IRadAn=       5.
          Solving linear equations separately, MaxMat=     384.
          There are     1 degrees of freedom in the 1st order CPHF.  IDoFFX=0 NUNeed=     1.
 FoFJK:  IHMeth= 1 ICntrl=       0 DoSepK=F KAlg= 0 I1Cent=           0 FoldK=F
 IRaf= 900000000 NMat=       1 IRICut=       1 DoRegI=T DoRafI=F ISym2E=-1 IDoP0=0 IntGTp=1.
 FoFCou: FMM=F IPFlag=           0 FMFlag=      100000 FMFlg1=           0
         NFxFlg=           0 DoJE=F BraDBF=F KetDBF=F FulRan=T
         wScrn=  0.000000 ICntrl=         0 IOpCl=  0 I1Cent=           0 NGrid=           0
         NMat0=    1 NMatS0=      1 NMatT0=    0 NMatD0=    1 NMtDS0=    0 NMtDT0=    0
 Petite list used in FoFCou.
 LinEq1:  Iter=  0 NonCon=     1 RMS=9.60D-03 Max=6.56D-01 NDo=     1
 AX will form     1 AO Fock derivatives at one time.
 LinEq1:  Iter=  1 NonCon=     1 RMS=3.75D-03 Max=2.62D-01 NDo=     1
 LinEq1:  Iter=  2 NonCon=     1 RMS=2.86D-03 Max=1.37D-01 NDo=     1
 LinEq1:  Iter=  3 NonCon=     1 RMS=6.72D-04 Max=2.14D-02 NDo=     1
 LinEq1:  Iter=  4 NonCon=     1 RMS=4.37D-04 Max=1.39D-02 NDo=     1
 LinEq1:  Iter=  5 NonCon=     1 RMS=2.13D-04 Max=8.56D-03 NDo=     1
 LinEq1:  Iter=  6 NonCon=     1 RMS=9.66D-05 Max=2.58D-03 NDo=     1
 LinEq1:  Iter=  7 NonCon=     1 RMS=5.49D-05 Max=1.92D-03 NDo=     1
 LinEq1:  Iter=  8 NonCon=     1 RMS=3.34D-05 Max=9.36D-04 NDo=     1
 LinEq1:  Iter=  9 NonCon=     1 RMS=1.51D-05 Max=5.73D-04 NDo=     1
 LinEq1:  Iter= 10 NonCon=     1 RMS=1.06D-05 Max=3.48D-04 NDo=     1
 LinEq1:  Iter= 11 NonCon=     1 RMS=4.16D-06 Max=1.26D-04 NDo=     1
 LinEq1:  Iter= 12 NonCon=     1 RMS=1.92D-06 Max=4.31D-05 NDo=     1
 LinEq1:  Iter= 13 NonCon=     1 RMS=7.06D-07 Max=1.61D-05 NDo=     1
 LinEq1:  Iter= 14 NonCon=     1 RMS=4.09D-07 Max=8.84D-06 NDo=     1
 LinEq1:  Iter= 15 NonCon=     1 RMS=1.11D-07 Max=2.52D-06 NDo=     1
 LinEq1:  Iter= 16 NonCon=     1 RMS=5.50D-08 Max=1.48D-06 NDo=     1
 LinEq1:  Iter= 17 NonCon=     1 RMS=2.06D-08 Max=4.94D-07 NDo=     1
 LinEq1:  Iter= 18 NonCon=     1 RMS=8.96D-09 Max=1.93D-07 NDo=     1
 LinEq1:  Iter= 19 NonCon=     1 RMS=3.64D-09 Max=5.04D-08 NDo=     1
 LinEq1:  Iter= 20 NonCon=     1 RMS=1.44D-09 Max=6.91D-08 NDo=     1
 LinEq1:  Iter= 21 NonCon=     1 RMS=8.48D-10 Max=2.73D-08 NDo=     1
 LinEq1:  Iter= 22 NonCon=     1 RMS=2.53D-10 Max=7.84D-09 NDo=     1
 LinEq1:  Iter= 23 NonCon=     1 RMS=1.08D-10 Max=2.29D-09 NDo=     1
 LinEq1:  Iter= 24 NonCon=     1 RMS=3.92D-11 Max=1.15D-09 NDo=     1
 LinEq1:  Iter= 25 NonCon=     0 RMS=1.53D-11 Max=2.64D-10 NDo=     1
 Linear equations converged to 1.000D-10 1.000D-09 after    25 iterations.
 End of Minotr F.D. properties file   721 does not exist.
 End of Minotr F.D. properties file   722 does not exist.
 End of Minotr F.D. properties file   788 does not exist.
 Leave Link 1002 at Wed Aug 12 16:07:28 2026, MaxMem=   104857600 cpu:             407.9 elap:             408.7
 (Enter /opt/packages/gaussian/g16RevC.01/g16/l701.exe)
 ... and contract with generalized density number  6.
 Compute integral first derivatives.
 D1PCM: PCM CHGder 1st derivatives, ID1Alg=3 FixD1E=F DoIter=F DoCFld=F I1PDM=6.
 Leave Link  701 at Wed Aug 12 16:07:37 2026, MaxMem=   104857600 cpu:               8.9 elap:               8.9
 (Enter /opt/packages/gaussian/g16RevC.01/g16/l702.exe)
 L702 exits ... SP integral derivatives will be done elsewhere.
 Leave Link  702 at Wed Aug 12 16:07:37 2026, MaxMem=   104857600 cpu:               0.0 elap:               0.0
 (Enter /opt/packages/gaussian/g16RevC.01/g16/l703.exe)
 Integral derivatives from FoFJK, PRISM(SPDF).
 Compute integral first derivatives, UseDBF=F ICtDFT=           0.
 Calling FoFJK, ICntrl=  10005127 FMM=F ISym2X=0 I1Cent= 0 IOpClX= 0 NMat=1 NMatS=1 NMatT=0.
 FoFJK:  IHMeth= 1 ICntrl=10005127 DoSepK=F KAlg= 0 I1Cent=           0 FoldK=F
 IRaf=         0 NMat=       1 IRICut=       1 DoRegI=T DoRafI=F ISym2E= 0 IDoP0=0 IntGTp=1.
 FoFCou: FMM=F IPFlag=           0 FMFlag=      100000 FMFlg1=         800
         NFxFlg=           0 DoJE=F BraDBF=F KetDBF=F FulRan=T
         wScrn=  0.000000 ICntrl=  10005127 IOpCl=  0 I1Cent=           0 NGrid=           0
         NMat0=    1 NMatS0=      1 NMatT0=    0 NMatD0=    1 NMtDS0=    0 NMtDT0=    0
 Symmetry not used in FoFCou.
 Leave Link  703 at Wed Aug 12 16:08:24 2026, MaxMem=   104857600 cpu:              47.0 elap:              47.1
 (Enter /opt/packages/gaussian/g16RevC.01/g16/l716.exe)
 Dipole        = 3.21706665D-02-1.08582156D+00-2.46324541D-01
 ***** Axes restored to original set *****
 -------------------------------------------------------------------
 Center     Atomic                   Forces (Hartrees/Bohr)
 Number     Number              X              Y              Z
 -------------------------------------------------------------------
      1        6           0.000000536    0.000000383    0.000001346
      2        6          -0.000000771    0.000002049    0.000003738
      3        6           0.000000422   -0.000000550    0.000002473
      4        6           0.000002803    0.000000058    0.000000386
      5        6           0.000001871    0.000000549   -0.000002366
      6        6           0.000001271    0.000001546   -0.000001684
      7        1           0.000001382    0.000001034   -0.000002757
      8        1          -0.000001068    0.000001958    0.000005500
      9        1          -0.000001657    0.000002089    0.000005084
     10        1           0.000001465   -0.000000634   -0.000004585
     11        8          -0.000000445    0.000002533    0.000001996
     12        6          -0.000000202    0.000003463    0.000004942
     13        1           0.000000138    0.000004824    0.000005866
     14        1          -0.000001466    0.000001414    0.000006133
     15        1          -0.000000084    0.000003731    0.000004812
     16        6          -0.000002797   -0.000001019   -0.000001632
     17        6           0.000000821   -0.000001479   -0.000005265
     18        7          -0.000002734   -0.000000958    0.000000369
     19        6          -0.000000520   -0.000002769   -0.000000446
     20        6           0.000000566   -0.000001814   -0.000003414
     21        1           0.000000697    0.000000321   -0.000005438
     22        1           0.000000254   -0.000003441   -0.000005154
     23        1          -0.000001757   -0.000004953   -0.000001185
     24        1          -0.000000685   -0.000002167   -0.000000173
     25        1           0.000001389    0.000000293   -0.000004090
     26        1           0.000000541   -0.000003277   -0.000005603
     27        1           0.000000033   -0.000003185    0.000001146
 -------------------------------------------------------------------
 Cartesian Forces:  Max     0.000006133 RMS     0.000002693
 Leave Link  716 at Wed Aug 12 16:08:24 2026, MaxMem=   104857600 cpu:               0.0 elap:               0.0
 (Enter /opt/packages/gaussian/g16RevC.01/g16/l103.exe)

 GradGradGradGradGradGradGradGradGradGradGradGradGradGradGradGradGradGrad
 Berny optimization.
 Using GEDIIS/GDIIS optimizer.
 FormGI is forming the generalized inverse of G from B-inverse, IUseBI=4.
 GSVD:  received Info=                   1 from GESDD.
 Internal  Forces:  Max     0.000004347 RMS     0.000000669
 Search for a local minimum.
 Step number   6 out of a maximum of  154
 All quantities printed in internal units (Hartrees-Bohrs-Radians)
 RMS Force = .66925D-06 SwitMx=.10000D-02 MixMth= 2
 Mixed Optimization -- En-DIIS/RFO-DIIS
 Swapping is turned off.
 Update second derivatives using D2CorX and points    1    2    3    4    5
                                                      6
 DE= -1.47D-08 DEPred=-3.52D-08 R= 4.18D-01
 Trust test= 4.18D-01 RLast= 2.84D-03 DXMaxT set to 1.39D-01
 ITU=  0  0  1  1  1  0
     Eigenvalues ---    0.00209   0.00256   0.00483   0.00524   0.00616
     Eigenvalues ---    0.00740   0.01001   0.01344   0.01597   0.01709
     Eigenvalues ---    0.01815   0.01912   0.02260   0.02345   0.02534
     Eigenvalues ---    0.02623   0.02820   0.03135   0.04158   0.04428
     Eigenvalues ---    0.04538   0.05746   0.05932   0.06844   0.07204
     Eigenvalues ---    0.07694   0.08331   0.08499   0.09020   0.09544
     Eigenvalues ---    0.11031   0.11094   0.11786   0.11933   0.12796
     Eigenvalues ---    0.13198   0.16020   0.18024   0.18240   0.18743
     Eigenvalues ---    0.19240   0.19403   0.19876   0.20504   0.23292
     Eigenvalues ---    0.23494   0.23970   0.25152   0.27969   0.28310
     Eigenvalues ---    0.29940   0.30325   0.31958   0.32617   0.32753
     Eigenvalues ---    0.33703   0.33942   0.33963   0.34383   0.34643
     Eigenvalues ---    0.34965   0.35080   0.36030   0.36526   0.36608
     Eigenvalues ---    0.36955   0.37302   0.37945   0.38219   0.39356
     Eigenvalues ---    0.41805   0.45630   0.47527   0.50384   0.54149
 En-DIIS/RFO-DIIS/Sim-DIIS IScMMF=       -3 using points:     6    5    4    3    2    1
 RFO step:  Lambda=-2.88994951D-10.
 NNeg= 0 NGDIIS= 6 SimSw=  2.50D-01 Rises=F DC= -1.47D-08 SmlDif=  1.00D-05
 NRisDI= 0 DoIntr=F SqrtH=F CThrHd= 10.0 CDAdj=  3.0
 RMS Error=  0.3298992804D-04 NUsed= 6 OKEnD=F EnDIS=F
 InvSVX:  RCond= 3.27D-09 Info=           0 Equed=N FErr=  1.79D-13 BErr=  1.00D-16
 DIIS inversion failure, remove point   6.
 InvSVX:  RCond= 1.46D-08 Info=           0 Equed=N FErr=  3.25D-14 BErr=  9.40D-17
 DIIS inversion failure, remove point   5.
 InvSVX:  RCond= 2.61D-08 Info=           0 Equed=N FErr=  1.63D-14 BErr=  7.12D-17
 DIIS inversion failure, remove point   4.
 InvSVX:  RCond= 9.13D-08 Info=           0 Equed=N FErr=  5.91D-15 BErr=  7.59D-17
 DIIS inversion failure, remove point   3.
 InvSVX:  RCond= 2.01D-06 Info=           0 Equed=N FErr=  1.18D-15 BErr=  4.64D-17
 RFO-DIIS uses    2 points instead of    6
 DidBck=F Rises=F RFO-DIIS coefs:    1.13666   -0.13666    0.00000    0.00000    0.00000
                  RFO-DIIS coefs:    0.00000
 Iteration  1 RMS(Cart)=  0.00007823 RMS(Int)=  0.00000000
 Iteration  2 RMS(Cart)=  0.00000000 RMS(Int)=  0.00000000
 ITry= 1 IFail=0 DXMaxC= 4.49D-04 DCOld= 1.00D+10 DXMaxT= 1.39D-01 DXLimC= 3.00D+00 Rises=F
 Variable       Old X    -DE/DX   Delta X   Delta X   Delta X     New X
                                 (Linear)    (Quad)   (Total)
    R1        2.67353  -0.00000  -0.00000  -0.00000  -0.00000   2.67353
    R2        2.71316   0.00000   0.00000   0.00000   0.00000   2.71316
    R3        2.52800   0.00000   0.00000   0.00000   0.00000   2.52800
    R4        2.61082   0.00000   0.00000   0.00000   0.00000   2.61082
    R5        2.04906   0.00000   0.00000  -0.00000   0.00000   2.04906
    R6        2.73939  -0.00000  -0.00000   0.00000  -0.00000   2.73938
    R7        2.05014  -0.00000  -0.00000   0.00000  -0.00000   2.05014
    R8        2.69515  -0.00000  -0.00000  -0.00000  -0.00000   2.69515
    R9        2.72464  -0.00000  -0.00001  -0.00000  -0.00001   2.72463
   R10        2.60622  -0.00000  -0.00000   0.00000  -0.00000   2.60622
   R11        2.04992  -0.00000   0.00000  -0.00000  -0.00000   2.04992
   R12        2.05178  -0.00000  -0.00000  -0.00000  -0.00000   2.05178
   R13        2.72200  -0.00000  -0.00000   0.00000  -0.00000   2.72200
   R14        2.06997   0.00000   0.00000   0.00000   0.00000   2.06997
   R15        2.07037   0.00000   0.00000  -0.00000   0.00000   2.07037
   R16        2.05883  -0.00000   0.00000  -0.00000   0.00000   2.05883
   R17        2.83446  -0.00000  -0.00000  -0.00000  -0.00000   2.83446
   R18        2.57093   0.00000   0.00000  -0.00000   0.00000   2.57094
   R19        2.92491   0.00000  -0.00000  -0.00000  -0.00000   2.92491
   R20        2.07138   0.00000   0.00000   0.00000   0.00000   2.07138
   R21        2.08493  -0.00000   0.00000  -0.00000   0.00000   2.08493
   R22        2.75987   0.00000   0.00000   0.00000   0.00001   2.75987
   R23        1.92096   0.00000   0.00001  -0.00000   0.00001   1.92097
   R24        2.90514   0.00000  -0.00000   0.00000  -0.00000   2.90514
   R25        2.08408   0.00000  -0.00000   0.00000  -0.00000   2.08408
   R26        2.06946   0.00000   0.00000  -0.00000   0.00000   2.06946
   R27        2.07048  -0.00000   0.00000  -0.00000   0.00000   2.07048
   R28        2.06497  -0.00000   0.00000   0.00000   0.00000   2.06497
    A1        2.09625   0.00000   0.00000   0.00000   0.00000   2.09625
    A2        2.18459  -0.00000  -0.00000   0.00000  -0.00000   2.18459
    A3        2.00234   0.00000  -0.00000  -0.00000  -0.00000   2.00234
    A4        2.08399  -0.00000  -0.00000   0.00000  -0.00000   2.08399
    A5        2.10790  -0.00000   0.00000  -0.00000  -0.00000   2.10790
    A6        2.09130   0.00000   0.00000  -0.00000   0.00000   2.09130
    A7        2.11926  -0.00000  -0.00000  -0.00000  -0.00000   2.11925
    A8        2.06827   0.00000   0.00001  -0.00000   0.00001   2.06828
    A9        2.09564   0.00000  -0.00001   0.00000  -0.00001   2.09563
   A10        2.06027   0.00000   0.00001   0.00000   0.00001   2.06028
   A11        2.13006   0.00000  -0.00001   0.00000  -0.00000   2.13005
   A12        2.09282  -0.00000   0.00000  -0.00000  -0.00000   2.09282
   A13        2.10668  -0.00000  -0.00000  -0.00000  -0.00000   2.10667
   A14        2.09290  -0.00000   0.00000  -0.00000  -0.00000   2.09290
   A15        2.08361   0.00000   0.00000   0.00000   0.00000   2.08362
   A16        2.09980  -0.00000  -0.00000  -0.00000  -0.00000   2.09980
   A17        2.06524   0.00000  -0.00000  -0.00000  -0.00000   2.06524
   A18        2.11814   0.00000   0.00000   0.00000   0.00000   2.11814
   A19        2.10313  -0.00000   0.00000   0.00000   0.00000   2.10313
   A20        1.91843   0.00000   0.00000  -0.00000   0.00000   1.91843
   A21        1.91836   0.00000   0.00000   0.00000   0.00000   1.91836
   A22        1.83623   0.00000   0.00000   0.00000   0.00000   1.83623
   A23        1.92740  -0.00000  -0.00000   0.00000  -0.00000   1.92740
   A24        1.93139   0.00000   0.00000  -0.00000   0.00000   1.93139
   A25        1.93012  -0.00000  -0.00000   0.00000  -0.00000   1.93012
   A26        2.23211  -0.00000  -0.00000  -0.00000  -0.00001   2.23211
   A27        2.13916   0.00000  -0.00000   0.00000   0.00000   2.13916
   A28        1.91185   0.00000   0.00000   0.00000   0.00000   1.91186
   A29        1.79820  -0.00000  -0.00000  -0.00000  -0.00001   1.79820
   A30        1.96801  -0.00000  -0.00000  -0.00000  -0.00001   1.96801
   A31        1.92486   0.00000   0.00000   0.00000   0.00000   1.92486
   A32        1.96929   0.00000   0.00001   0.00000   0.00001   1.96930
   A33        1.94186   0.00000  -0.00000  -0.00000  -0.00000   1.94186
   A34        1.86311  -0.00000   0.00000  -0.00000   0.00000   1.86311
   A35        1.96632  -0.00000  -0.00001  -0.00000  -0.00001   1.96631
   A36        2.15380   0.00000  -0.00001   0.00000  -0.00000   2.15379
   A37        2.11172  -0.00000  -0.00002  -0.00000  -0.00002   2.11170
   A38        1.78923   0.00000  -0.00000   0.00000  -0.00000   1.78923
   A39        1.91254  -0.00000  -0.00000  -0.00000  -0.00000   1.91254
   A40        1.92894  -0.00000   0.00000  -0.00000   0.00000   1.92894
   A41        1.95212  -0.00000  -0.00000  -0.00000  -0.00000   1.95212
   A42        1.99723   0.00000   0.00000   0.00000   0.00000   1.99724
   A43        1.88214  -0.00000  -0.00000   0.00000  -0.00000   1.88214
   A44        1.81257  -0.00000  -0.00000  -0.00000  -0.00001   1.81256
   A45        1.91828   0.00000  -0.00000   0.00000   0.00000   1.91828
   A46        1.96904  -0.00000   0.00000   0.00000   0.00000   1.96904
   A47        1.91502   0.00000   0.00000   0.00000   0.00000   1.91503
   A48        1.95590   0.00000  -0.00000  -0.00000  -0.00000   1.95590
   A49        1.89203  -0.00000   0.00000   0.00000   0.00000   1.89203
    D1        0.00547  -0.00000  -0.00001   0.00000  -0.00000   0.00547
    D2       -3.13483  -0.00000  -0.00001   0.00000  -0.00000  -3.13483
    D3       -3.13993  -0.00000  -0.00000   0.00000  -0.00000  -3.13994
    D4        0.00295   0.00000  -0.00000   0.00000  -0.00000   0.00295
    D5        0.00803   0.00000   0.00002  -0.00001   0.00001   0.00804
    D6       -3.13558   0.00000   0.00002  -0.00001   0.00001  -3.13557
    D7       -3.13013   0.00000   0.00001  -0.00000   0.00001  -3.13013
    D8        0.00945   0.00000   0.00001  -0.00000   0.00001   0.00945
    D9        0.01329  -0.00000   0.00001   0.00000   0.00001   0.01330
   D10       -3.13194   0.00000   0.00002  -0.00000   0.00002  -3.13192
   D11       -0.01387  -0.00000  -0.00002   0.00001  -0.00001  -0.01388
   D12        3.12088  -0.00000  -0.00003   0.00000  -0.00003   3.12085
   D13        3.12644  -0.00000  -0.00002   0.00001  -0.00001   3.12643
   D14       -0.02199  -0.00000  -0.00003   0.00000  -0.00003  -0.02202
   D15        0.00897   0.00000   0.00004  -0.00002   0.00002   0.00898
   D16       -3.12456   0.00000   0.00004  -0.00003   0.00002  -3.12454
   D17       -3.12568   0.00000   0.00005  -0.00001   0.00004  -3.12564
   D18        0.02398   0.00000   0.00006  -0.00002   0.00004   0.02402
   D19        0.00473  -0.00000  -0.00003   0.00002  -0.00001   0.00472
   D20       -3.13787  -0.00000  -0.00002   0.00001  -0.00000  -3.13788
   D21        3.13843  -0.00000  -0.00003   0.00002  -0.00001   3.13842
   D22       -0.00417  -0.00000  -0.00003   0.00002  -0.00001  -0.00418
   D23       -3.01074   0.00000   0.00013   0.00000   0.00013  -3.01060
   D24        0.14394   0.00000   0.00010  -0.00002   0.00008   0.14402
   D25        0.13907   0.00000   0.00014  -0.00001   0.00013   0.13921
   D26       -2.98944   0.00000   0.00011  -0.00002   0.00008  -2.98935
   D27       -0.01298   0.00000   0.00000  -0.00000  -0.00000  -0.01299
   D28        3.13068   0.00000  -0.00000  -0.00000  -0.00000   3.13068
   D29        3.12961  -0.00000  -0.00001  -0.00000  -0.00001   3.12960
   D30       -0.00991  -0.00000  -0.00001  -0.00000  -0.00001  -0.00992
   D31        1.04947  -0.00000  -0.00002   0.00000  -0.00001   1.04946
   D32       -1.07543  -0.00000  -0.00002   0.00000  -0.00001  -1.07545
   D33        3.12938  -0.00000  -0.00002   0.00000  -0.00001   3.12936
   D34        2.91387  -0.00000  -0.00005  -0.00002  -0.00006   2.91380
   D35        0.78566  -0.00000  -0.00005  -0.00002  -0.00007   0.78559
   D36       -1.29520   0.00000  -0.00005  -0.00002  -0.00007  -1.29527
   D37       -0.23942  -0.00000  -0.00002   0.00000  -0.00002  -0.23944
   D38       -2.36763  -0.00000  -0.00002  -0.00000  -0.00002  -2.36766
   D39        1.83470  -0.00000  -0.00002  -0.00000  -0.00002   1.83467
   D40        3.04479   0.00000   0.00003   0.00001   0.00004   3.04483
   D41        0.24013   0.00000   0.00014   0.00002   0.00016   0.24029
   D42       -0.08585   0.00000   0.00000  -0.00000  -0.00000  -0.08585
   D43       -2.89050   0.00000   0.00011   0.00001   0.00012  -2.89039
   D44        0.44951   0.00000   0.00003   0.00000   0.00003   0.44953
   D45       -1.59814   0.00000   0.00003   0.00000   0.00003  -1.59811
   D46        2.57126   0.00000   0.00002   0.00000   0.00003   2.57128
   D47        2.57685  -0.00000   0.00002   0.00000   0.00002   2.57687
   D48        0.52920  -0.00000   0.00002   0.00000   0.00002   0.52923
   D49       -1.58458  -0.00000   0.00002   0.00000   0.00002  -1.58456
   D50       -1.61273   0.00000   0.00003   0.00000   0.00003  -1.61270
   D51        2.62280   0.00000   0.00003   0.00000   0.00003   2.62283
   D52        0.50902  -0.00000   0.00003   0.00000   0.00003   0.50905
   D53        0.37357  -0.00000   0.00001   0.00001   0.00002   0.37359
   D54       -1.70195  -0.00000   0.00002   0.00001   0.00002  -1.70192
   D55        2.50945   0.00000   0.00002   0.00001   0.00003   2.50947
   D56       -3.09582  -0.00000  -0.00009  -0.00001  -0.00009  -3.09591
   D57        1.11185   0.00000  -0.00008  -0.00000  -0.00009   1.11176
   D58       -0.95994   0.00000  -0.00008  -0.00001  -0.00009  -0.96003
   D59       -0.49381  -0.00000  -0.00002  -0.00001  -0.00003  -0.49384
   D60        1.55610  -0.00000  -0.00003  -0.00001  -0.00003   1.55607
   D61       -2.62431  -0.00000  -0.00002  -0.00001  -0.00003  -2.62434
   D62        1.55369  -0.00000  -0.00003  -0.00001  -0.00003   1.55366
   D63       -2.67958  -0.00000  -0.00003  -0.00001  -0.00004  -2.67962
   D64       -0.57681  -0.00000  -0.00003  -0.00001  -0.00003  -0.57685
   D65       -2.58271  -0.00000  -0.00003  -0.00001  -0.00003  -2.58274
   D66       -0.53280  -0.00000  -0.00003  -0.00001  -0.00004  -0.53283
   D67        1.56997  -0.00000  -0.00003  -0.00001  -0.00003   1.56994
         Item               Value     Threshold  Converged?
 Maximum Force            0.000004     0.000450     YES
 RMS     Force            0.000001     0.000300     YES
 Maximum Displacement     0.000449     0.001800     YES
 RMS     Displacement     0.000078     0.001200     YES
 Predicted change in Energy=-5.006029D-10
 Optimization completed.
    -- Stationary point found.
                           ----------------------------
                           !   Optimized Parameters   !
                           ! (Angstroms and Degrees)  !
 --------------------------                            --------------------------
 ! Name  Definition              Value          Derivative Info.                !
 --------------------------------------------------------------------------------
 ! R1    R(1,2)                  1.4148         -DE/DX =    0.0                 !
 ! R2    R(1,6)                  1.4357         -DE/DX =    0.0                 !
 ! R3    R(1,11)                 1.3378         -DE/DX =    0.0                 !
 ! R4    R(2,3)                  1.3816         -DE/DX =    0.0                 !
 ! R5    R(2,8)                  1.0843         -DE/DX =    0.0                 !
 ! R6    R(3,4)                  1.4496         -DE/DX =    0.0                 !
 ! R7    R(3,9)                  1.0849         -DE/DX =    0.0                 !
 ! R8    R(4,5)                  1.4262         -DE/DX =    0.0                 !
 ! R9    R(4,16)                 1.4418         -DE/DX =    0.0                 !
 ! R10   R(5,6)                  1.3792         -DE/DX =    0.0                 !
 ! R11   R(5,10)                 1.0848         -DE/DX =    0.0                 !
 ! R12   R(6,7)                  1.0858         -DE/DX =    0.0                 !
 ! R13   R(11,12)                1.4404         -DE/DX =    0.0                 !
 ! R14   R(12,13)                1.0954         -DE/DX =    0.0                 !
 ! R15   R(12,14)                1.0956         -DE/DX =    0.0                 !
 ! R16   R(12,15)                1.0895         -DE/DX =    0.0                 !
 ! R17   R(16,17)                1.4999         -DE/DX =    0.0                 !
 ! R18   R(16,18)                1.3605         -DE/DX =    0.0                 !
 ! R19   R(17,20)                1.5478         -DE/DX =    0.0                 !
 ! R20   R(17,21)                1.0961         -DE/DX =    0.0                 !
 ! R21   R(17,22)                1.1033         -DE/DX =    0.0                 !
 ! R22   R(18,19)                1.4605         -DE/DX =    0.0                 !
 ! R23   R(18,27)                1.0165         -DE/DX =    0.0                 !
 ! R24   R(19,20)                1.5373         -DE/DX =    0.0                 !
 ! R25   R(19,23)                1.1028         -DE/DX =    0.0                 !
 ! R26   R(19,24)                1.0951         -DE/DX =    0.0                 !
 ! R27   R(20,25)                1.0956         -DE/DX =    0.0                 !
 ! R28   R(20,26)                1.0927         -DE/DX =    0.0                 !
 ! A1    A(2,1,6)              120.1064         -DE/DX =    0.0                 !
 ! A2    A(2,1,11)             125.1676         -DE/DX =    0.0                 !
 ! A3    A(6,1,11)             114.7256         -DE/DX =    0.0                 !
 ! A4    A(1,2,3)              119.4038         -DE/DX =    0.0                 !
 ! A5    A(1,2,8)              120.7736         -DE/DX =    0.0                 !
 ! A6    A(3,2,8)              119.8226         -DE/DX =    0.0                 !
 ! A7    A(2,3,4)              121.4245         -DE/DX =    0.0                 !
 ! A8    A(2,3,9)              118.5032         -DE/DX =    0.0                 !
 ! A9    A(4,3,9)              120.0712         -DE/DX =    0.0                 !
 ! A10   A(3,4,5)              118.045          -DE/DX =    0.0                 !
 ! A11   A(3,4,16)             122.0434         -DE/DX =    0.0                 !
 ! A12   A(5,4,16)             119.91           -DE/DX =    0.0                 !
 ! A13   A(4,5,6)              120.7036         -DE/DX =    0.0                 !
 ! A14   A(4,5,10)             119.9142         -DE/DX =    0.0                 !
 ! A15   A(6,5,10)             119.3821         -DE/DX =    0.0                 !
 ! A16   A(1,6,5)              120.3098         -DE/DX =    0.0                 !
 ! A17   A(1,6,7)              118.3298         -DE/DX =    0.0                 !
 ! A18   A(5,6,7)              121.3603         -DE/DX =    0.0                 !
 ! A19   A(1,11,12)            120.5003         -DE/DX =    0.0                 !
 ! A20   A(11,12,13)           109.9181         -DE/DX =    0.0                 !
 ! A21   A(11,12,14)           109.9138         -DE/DX =    0.0                 !
 ! A22   A(11,12,15)           105.2084         -DE/DX =    0.0                 !
 ! A23   A(13,12,14)           110.4317         -DE/DX =    0.0                 !
 ! A24   A(13,12,15)           110.6603         -DE/DX =    0.0                 !
 ! A25   A(14,12,15)           110.5879         -DE/DX =    0.0                 !
 ! A26   A(4,16,17)            127.8907         -DE/DX =    0.0                 !
 ! A27   A(4,16,18)            122.5648         -DE/DX =    0.0                 !
 ! A28   A(17,16,18)           109.541          -DE/DX =    0.0                 !
 ! A29   A(16,17,20)           103.0293         -DE/DX =    0.0                 !
 ! A30   A(16,17,21)           112.7588         -DE/DX =    0.0                 !
 ! A31   A(16,17,22)           110.2862         -DE/DX =    0.0                 !
 ! A32   A(20,17,21)           112.8319         -DE/DX =    0.0                 !
 ! A33   A(20,17,22)           111.2605         -DE/DX =    0.0                 !
 ! A34   A(21,17,22)           106.7482         -DE/DX =    0.0                 !
 ! A35   A(16,18,19)           112.6621         -DE/DX =    0.0                 !
 ! A36   A(16,18,27)           123.4034         -DE/DX =    0.0                 !
 ! A37   A(19,18,27)           120.9926         -DE/DX =    0.0                 !
 ! A38   A(18,19,20)           102.5156         -DE/DX =    0.0                 !
 ! A39   A(18,19,23)           109.5804         -DE/DX =    0.0                 !
 ! A40   A(18,19,24)           110.5199         -DE/DX =    0.0                 !
 ! A41   A(20,19,23)           111.8482         -DE/DX =    0.0                 !
 ! A42   A(20,19,24)           114.4329         -DE/DX =    0.0                 !
 ! A43   A(23,19,24)           107.8386         -DE/DX =    0.0                 !
 ! A44   A(17,20,19)           103.8523         -DE/DX =    0.0                 !
 ! A45   A(17,20,25)           109.9094         -DE/DX =    0.0                 !
 ! A46   A(17,20,26)           112.8178         -DE/DX =    0.0                 !
 ! A47   A(19,20,25)           109.7228         -DE/DX =    0.0                 !
 ! A48   A(19,20,26)           112.0646         -DE/DX =    0.0                 !
 ! A49   A(25,20,26)           108.4053         -DE/DX =    0.0                 !
 ! D1    D(6,1,2,3)              0.3136         -DE/DX =    0.0                 !
 ! D2    D(6,1,2,8)           -179.6124         -DE/DX =    0.0                 !
 ! D3    D(11,1,2,3)          -179.9049         -DE/DX =    0.0                 !
 ! D4    D(11,1,2,8)             0.1691         -DE/DX =    0.0                 !
 ! D5    D(2,1,6,5)              0.4598         -DE/DX =    0.0                 !
 ! D6    D(2,1,6,7)           -179.6555         -DE/DX =    0.0                 !
 ! D7    D(11,1,6,5)          -179.3435         -DE/DX =    0.0                 !
 ! D8    D(11,1,6,7)             0.5412         -DE/DX =    0.0                 !
 ! D9    D(2,1,11,12)            0.7615         -DE/DX =    0.0                 !
 ! D10   D(6,1,11,12)         -179.4467         -DE/DX =    0.0                 !
 ! D11   D(1,2,3,4)             -0.7949         -DE/DX =    0.0                 !
 ! D12   D(1,2,3,9)            178.8132         -DE/DX =    0.0                 !
 ! D13   D(8,2,3,4)            179.1318         -DE/DX =    0.0                 !
 ! D14   D(8,2,3,9)             -1.2601         -DE/DX =    0.0                 !
 ! D15   D(2,3,4,5)              0.5137         -DE/DX =    0.0                 !
 ! D16   D(2,3,4,16)          -179.0238         -DE/DX =    0.0                 !
 ! D17   D(9,3,4,5)           -179.0883         -DE/DX =    0.0                 !
 ! D18   D(9,3,4,16)             1.3741         -DE/DX =    0.0                 !
 ! D19   D(3,4,5,6)              0.2709         -DE/DX =    0.0                 !
 ! D20   D(3,4,5,10)          -179.7868         -DE/DX =    0.0                 !
 ! D21   D(16,4,5,6)           179.8187         -DE/DX =    0.0                 !
 ! D22   D(16,4,5,10)           -0.239          -DE/DX =    0.0                 !
 ! D23   D(3,4,16,17)         -172.5025         -DE/DX =    0.0                 !
 ! D24   D(3,4,16,18)            8.247          -DE/DX =    0.0                 !
 ! D25   D(5,4,16,17)            7.9683         -DE/DX =    0.0                 !
 ! D26   D(5,4,16,18)         -171.2821         -DE/DX =    0.0                 !
 ! D27   D(4,5,6,1)             -0.744          -DE/DX =    0.0                 !
 ! D28   D(4,5,6,7)            179.3749         -DE/DX =    0.0                 !
 ! D29   D(10,5,6,1)           179.3134         -DE/DX =    0.0                 !
 ! D30   D(10,5,6,7)            -0.5676         -DE/DX =    0.0                 !
 ! D31   D(1,11,12,13)          60.1303         -DE/DX =    0.0                 !
 ! D32   D(1,11,12,14)         -61.6177         -DE/DX =    0.0                 !
 ! D33   D(1,11,12,15)         179.3002         -DE/DX =    0.0                 !
 ! D34   D(4,16,17,20)         166.9523         -DE/DX =    0.0                 !
 ! D35   D(4,16,17,21)          45.015          -DE/DX =    0.0                 !
 ! D36   D(4,16,17,22)         -74.2094         -DE/DX =    0.0                 !
 ! D37   D(18,16,17,20)        -13.718          -DE/DX =    0.0                 !
 ! D38   D(18,16,17,21)       -135.6553         -DE/DX =    0.0                 !
 ! D39   D(18,16,17,22)        105.1203         -DE/DX =    0.0                 !
 ! D40   D(4,16,18,19)         174.4533         -DE/DX =    0.0                 !
 ! D41   D(4,16,18,27)          13.7586         -DE/DX =    0.0                 !
 ! D42   D(17,16,18,19)         -4.919          -DE/DX =    0.0                 !
 ! D43   D(17,16,18,27)       -165.6137         -DE/DX =    0.0                 !
 ! D44   D(16,17,20,19)         25.7548         -DE/DX =    0.0                 !
 ! D45   D(16,17,20,25)        -91.5668         -DE/DX =    0.0                 !
 ! D46   D(16,17,20,26)        147.3223         -DE/DX =    0.0                 !
 ! D47   D(21,17,20,19)        147.6427         -DE/DX =    0.0                 !
 ! D48   D(21,17,20,25)         30.3211         -DE/DX =    0.0                 !
 ! D49   D(21,17,20,26)        -90.7899         -DE/DX =    0.0                 !
 ! D50   D(22,17,20,19)        -92.4028         -DE/DX =    0.0                 !
 ! D51   D(22,17,20,25)        150.2755         -DE/DX =    0.0                 !
 ! D52   D(22,17,20,26)         29.1646         -DE/DX =    0.0                 !
 ! D53   D(16,18,19,20)         21.4039         -DE/DX =    0.0                 !
 ! D54   D(16,18,19,23)        -97.5144         -DE/DX =    0.0                 !
 ! D55   D(16,18,19,24)        143.7807         -DE/DX =    0.0                 !
 ! D56   D(27,18,19,20)       -177.3773         -DE/DX =    0.0                 !
 ! D57   D(27,18,19,23)         63.7044         -DE/DX =    0.0                 !
 ! D58   D(27,18,19,24)        -55.0005         -DE/DX =    0.0                 !
 ! D59   D(18,19,20,17)        -28.2933         -DE/DX =    0.0                 !
 ! D60   D(18,19,20,25)         89.158          -DE/DX =    0.0                 !
 ! D61   D(18,19,20,26)       -150.3622         -DE/DX =    0.0                 !
 ! D62   D(23,19,20,17)         89.0199         -DE/DX =    0.0                 !
 ! D63   D(23,19,20,25)       -153.5288         -DE/DX =    0.0                 !
 ! D64   D(23,19,20,26)        -33.0489         -DE/DX =    0.0                 !
 ! D65   D(24,19,20,17)       -147.9785         -DE/DX =    0.0                 !
 ! D66   D(24,19,20,25)        -30.5271         -DE/DX =    0.0                 !
 ! D67   D(24,19,20,26)         89.9527         -DE/DX =    0.0                 !
 --------------------------------------------------------------------------------
 Lowest energy point so far.  Saving SCF results.
 Largest change from initial coordinates is atom   27       0.166 Angstoms.
 GradGradGradGradGradGradGradGradGradGradGradGradGradGradGradGradGradGrad

 Leave Link  103 at Wed Aug 12 16:08:24 2026, MaxMem=   104857600 cpu:               0.0 elap:               0.0
 (Enter /opt/packages/gaussian/g16RevC.01/g16/l202.exe)
                          Input orientation:                          
 ---------------------------------------------------------------------
 Center     Atomic      Atomic             Coordinates (Angstroms)
 Number     Number       Type             X           Y           Z
 ---------------------------------------------------------------------
      1          6           0       -2.492865    0.244607   -0.025210
      2          6           0       -1.868019   -1.019498    0.089620
      3          6           0       -0.488608   -1.095383    0.105299
      4          6           0        0.335011    0.091897   -0.010543
      5          6           0       -0.319845    1.353131   -0.131097
      6          6           0       -1.696589    1.434607   -0.131067
      7          1           0       -2.206088    2.389961   -0.212141
      8          1           0       -2.458814   -1.925690    0.163928
      9          1           0       -0.024932   -2.070201    0.213553
     10          1           0        0.267022    2.260790   -0.223102
     11          8           0       -3.814295    0.451506   -0.050165
     12          6           0       -4.729751   -0.655165    0.059531
     13          1           0       -4.573579   -1.175798    1.010537
     14          1           0       -4.586190   -1.342951   -0.781100
     15          1           0       -5.723055   -0.208992    0.024153
     16          6           0        1.775318    0.026176   -0.016473
     17          6           0        2.749654    1.165770    0.025920
     18          7           0        2.454395   -1.151034   -0.079202
     19          6           0        3.897381   -0.962397   -0.202279
     20          6           0        4.093988    0.464137    0.335991
     21          1           0        2.483511    1.923694    0.771714
     22          1           0        2.781716    1.678166   -0.950650
     23          1           0        4.191947   -1.045508   -1.261805
     24          1           0        4.434678   -1.735606    0.356939
     25          1           0        4.256746    0.431527    1.418993
     26          1           0        4.949030    0.963185   -0.126526
     27          1           0        2.019144   -2.035671   -0.326808
 ---------------------------------------------------------------------
                    Distance matrix (angstroms):
                    1          2          3          4          5
     1  C    0.000000
     2  C    1.414773   0.000000
     3  C    2.414468   1.381586   0.000000
     4  C    2.832034   2.469529   1.449621   0.000000
     5  C    2.441731   2.841642   2.465681   1.426212   0.000000
     6  C    1.435744   2.469965   2.813528   2.438195   1.379153
     7  H    2.172494   3.439443   3.898478   3.432044   2.153949
     8  H    2.178790   1.084317   2.138822   3.450588   3.925926
     9  H    3.392055   2.125160   1.084889   2.203281   3.453253
    10  H    3.423614   3.926383   3.455824   2.180344   1.084769
    11  O    1.337762   2.443641   3.671135   4.165048   3.609800
    12  C    2.412557   2.884988   4.264175   5.120042   4.849418
    13  H    2.723911   2.862267   4.184844   5.171452   5.078687
    14  H    2.733811   2.872495   4.199664   5.183702   5.088522
    15  H    3.262256   3.939862   5.309587   6.065633   5.626633
    16  C    4.273778   3.791912   2.529443   1.441818   2.482671
    17  C    5.323078   5.109047   3.950374   2.642921   3.079218
    18  N    5.140633   4.327709   2.949305   2.457922   3.737639
    19  C    6.505648   5.773067   4.398771   3.720051   4.811625
    20  C    6.600401   6.148772   4.846185   3.793225   4.526633
    21  H    5.312131   5.297494   4.288639   2.929754   2.999902
    22  H    5.543711   5.475362   4.416177   3.063726   3.224438
    23  H    6.919557   6.208881   4.876377   4.211330   5.233377
    24  H    7.215133   6.348879   4.971112   4.503564   5.690692
    25  H    6.904919   6.433153   5.155156   4.187951   4.919078
    26  H    7.477193   7.102809   5.818878   4.696995   5.283287
    27  H    5.064469   4.039313   2.712872   2.731826   4.122275
                    6          7          8          9         10
     6  C    0.000000
     7  H    1.085755   0.000000
     8  H    3.458267   4.339372   0.000000
     9  H    3.898318   4.983142   2.438673   0.000000
    10  H    2.132327   2.476505   5.010648   4.362727   0.000000
    11  O    2.336174   2.523921   2.744855   4.559366   4.467724
    12  C    3.688298   3.964275   2.604283   4.915422   5.792272
    13  H    4.049018   4.451359   2.398191   4.703757   6.063285
    14  H    4.060439   4.463545   2.399665   4.724754   6.070583
    15  H    4.351774   4.379435   3.690781   5.997380   6.483979
    16  C    3.748460   4.634367   4.665854   2.772834   2.703914
    17  C    4.457129   5.110254   6.058408   4.266737   2.724802
    18  N    4.890695   5.854607   4.979841   2.660383   4.055348
    19  C    6.086313   6.963529   6.439196   4.096912   4.854779
    20  C    5.889885   6.610613   6.977112   4.837703   4.264530
    21  H    4.304353   4.814323   6.293944   4.749213   2.452777
    22  H    4.559195   5.092174   6.457028   4.825236   2.681877
    23  H    6.488790   7.337512   6.858575   4.583530   5.235985
    24  H    6.919599   7.838618   6.898813   4.474443   5.803188
    25  H    6.233062   6.947250   7.227061   5.103381   4.686212
    26  H    6.662320   7.296487   7.956513   5.835870   4.859455
    27  H    5.088007   6.119800   4.506109   2.114575   4.641149
                   11         12         13         14         15
    11  O    0.000000
    12  C    1.440421   0.000000
    13  H    2.085598   1.095381   0.000000
    14  H    2.085705   1.095591   1.799461   0.000000
    15  H    2.021174   1.089483   1.796931   1.796318   0.000000
    16  C    5.605873   6.541095   6.542781   6.551942   7.502170
    17  C    6.603135   7.697950   7.751268   7.794843   8.583517
    18  N    6.470351   7.202575   7.112001   7.078088   8.232181
    19  C    7.841696   8.636570   8.560002   8.511805   9.652548
    20  C    7.917715   8.898744   8.847097   8.936384   9.845033
    21  H    6.519599   7.693430   7.711446   7.941213   8.512045
    22  H    6.769263   7.930135   8.129682   7.965045   8.765999
    23  H    8.234623   9.027457   9.056211   8.796319  10.032981
    24  H    8.543696   9.232690   9.049270   9.100845  10.277200
    25  H    8.203690   9.153479   8.984708   9.283680  10.097142
    26  H    8.778582   9.814911   9.825896   9.831945  10.737322
    27  H    6.347565   6.899466   6.781730   6.657077   7.962510
                   16         17         18         19         20
    16  C    0.000000
    17  C    1.499934   0.000000
    18  N    1.360479   2.337907   0.000000
    19  C    2.348394   2.428672   1.460459   0.000000
    20  C    2.385848   1.547794   2.338682   1.537332   0.000000
    21  H    2.173327   1.096125   3.190432   3.358157   2.216709
    22  H    2.148161   1.103299   2.978411   2.962658   2.202583
    23  H    2.922234   2.937378   2.104465   1.102847   2.200359
    24  H    3.211777   3.371478   2.110324   1.095110   2.226069
    25  H    2.895230   2.179700   2.827996   2.168108   1.095649
    26  H    3.310973   2.213941   3.270377   2.195352   1.092733
    27  H    2.099279   3.302618   1.016531   2.166841   3.315618
                   21         22         23         24         25
    21  H    0.000000
    22  H    1.765149   0.000000
    23  H    3.983731   3.082850   0.000000
    24  H    4.167682   4.011972   1.776370   0.000000
    25  H    2.406221   3.056965   3.061456   2.419935   0.000000
    26  H    2.794315   2.426444   2.428349   2.789582   1.774978
    27  H    4.135089   3.842302   2.564316   2.528311   3.760552
                   26         27
    26  H    0.000000
    27  H    4.197318   0.000000
 Stoichiometry    C11H14NO(1+)
 Framework group  C1[X(C11H14NO)]
 Deg. of freedom    75
 Full point group                 C1      NOp   1
 RotChk:  IX=0 Diff= 3.87D-16
 Largest Abelian subgroup         C1      NOp   1
 Largest concise Abelian subgroup C1      NOp   1
                         Standard orientation:                         
 ---------------------------------------------------------------------
 Center     Atomic      Atomic             Coordinates (Angstroms)
 Number     Number       Type             X           Y           Z
 ---------------------------------------------------------------------
      1          6           0       -2.492994    0.245734   -0.013022
      2          6           0       -1.868071   -1.019742    0.085077
      3          6           0       -0.488637   -1.095998    0.096359
      4          6           0        0.334884    0.092473   -0.007336
      5          6           0       -0.320064    1.355149   -0.111118
      6          6           0       -1.696790    1.436808   -0.106631
      7          1           0       -2.206332    2.393134   -0.174967
      8          1           0       -2.458827   -1.926679    0.150019
      9          1           0       -0.024853   -2.072105    0.191756
     10          1           0        0.266720    2.263765   -0.193727
     11          8           0       -3.814448    0.453097   -0.032156
     12          6           0       -4.729809   -0.654683    0.066590
     13          1           0       -4.571322   -1.186692    1.010894
     14          1           0       -4.588487   -1.332370   -0.782579
     15          1           0       -5.723125   -0.207983    0.039071
     16          6           0        1.775161    0.026630   -0.017694
     17          6           0        2.749791    1.165502    0.035883
     18          7           0        2.453880   -1.149836   -0.096236
     19          6           0        3.896582   -0.959936   -0.220693
     20          6           0        4.094787    0.460022    0.334127
     21          1           0        2.485659    1.914474    0.791372
     22          1           0        2.779471    1.689554   -0.934559
     23          1           0        4.188456   -1.030389   -1.281880
     24          1           0        4.435162   -1.739862    0.327863
     25          1           0        4.260275    0.414419    1.416246
     26          1           0        4.948740    0.964457   -0.124540
     27          1           0        2.017857   -2.031385   -0.353319
 ---------------------------------------------------------------------
 Rotational constants (GHZ):           2.8187001           0.3488643           0.3142416
 Leave Link  202 at Wed Aug 12 16:08:24 2026, MaxMem=   104857600 cpu:               0.0 elap:               0.0
 (Enter /opt/packages/gaussian/g16RevC.01/g16/l601.exe)
 Copying SCF densities to generalized density rwf, IOpCl= 0 IROHF=0.

 **********************************************************************

            Population analysis using the SCF Density.

 **********************************************************************

 Orbital symmetries:
       Occupied  (A) (A) (A) (A) (A) (A) (A) (A) (A) (A) (A) (A)
                 (A) (A) (A) (A) (A) (A) (A) (A) (A) (A) (A) (A)
                 (A) (A) (A) (A) (A) (A) (A) (A) (A) (A) (A) (A)
                 (A) (A) (A) (A) (A) (A) (A) (A) (A) (A) (A)
       Virtual   (A) (A) (A) (A) (A) (A) (A) (A) (A) (A) (A) (A)
                 (A) (A) (A) (A) (A) (A) (A) (A) (A) (A) (A) (A)
                 (A) (A) (A) (A) (A) (A) (A) (A) (A) (A) (A) (A)
                 (A) (A) (A) (A) (A) (A) (A) (A) (A) (A) (A) (A)
                 (A) (A) (A) (A) (A) (A) (A) (A) (A) (A) (A) (A)
                 (A) (A) (A) (A) (A) (A) (A) (A) (A) (A) (A) (A)
                 (A) (A) (A) (A) (A) (A) (A) (A) (A) (A) (A) (A)
                 (A) (A) (A) (A) (A) (A) (A) (A) (A) (A) (A) (A)
                 (A) (A) (A) (A) (A) (A) (A) (A) (A) (A) (A) (A)
                 (A) (A) (A) (A) (A) (A) (A) (A) (A) (A) (A) (A)
                 (A) (A) (A) (A) (A) (A) (A) (A) (A) (A) (A) (A)
                 (A) (A) (A) (A) (A) (A) (A) (A) (A) (A) (A) (A)
                 (A) (A) (A) (A) (A) (A) (A) (A) (A) (A) (A) (A)
                 (A) (A) (A) (A) (A) (A) (A) (A) (A) (A) (A) (A)
                 (A) (A) (A) (A) (A) (A) (A) (A) (A) (A) (A) (A)
                 (A) (A) (A) (A) (A) (A) (A) (A) (A) (A) (A) (A)
                 (A) (A) (A) (A) (A) (A) (A) (A) (A) (A) (A) (A)
                 (A) (A) (A) (A) (A) (A) (A) (A) (A) (A) (A) (A)
                 (A) (A) (A) (A) (A) (A) (A) (A) (A) (A) (A)
 The electronic state is 1-A.
 Alpha  occ. eigenvalues --  -19.21226 -14.41588 -10.30283 -10.28827 -10.24158
 Alpha  occ. eigenvalues --  -10.23593 -10.23010 -10.22948 -10.22328 -10.21408
 Alpha  occ. eigenvalues --  -10.21365 -10.21020 -10.20086  -1.09589  -0.99836
 Alpha  occ. eigenvalues --   -0.87687  -0.80543  -0.79815  -0.77604  -0.74903
 Alpha  occ. eigenvalues --   -0.70634  -0.64403  -0.63202  -0.61461  -0.60573
 Alpha  occ. eigenvalues --   -0.56444  -0.54140  -0.51140  -0.50145  -0.48142
 Alpha  occ. eigenvalues --   -0.47458  -0.45825  -0.45228  -0.44008  -0.43038
 Alpha  occ. eigenvalues --   -0.42587  -0.41153  -0.40635  -0.38987  -0.38379
 Alpha  occ. eigenvalues --   -0.37410  -0.36771  -0.34661  -0.34459  -0.31610
 Alpha  occ. eigenvalues --   -0.28230  -0.24507
 Alpha virt. eigenvalues --   -0.09789  -0.02900   0.00213   0.00951   0.01590
 Alpha virt. eigenvalues --    0.02203   0.02839   0.03052   0.03367   0.04223
 Alpha virt. eigenvalues --    0.04866   0.05135   0.05286   0.06461   0.06986
 Alpha virt. eigenvalues --    0.07370   0.07900   0.08200   0.09451   0.09930
 Alpha virt. eigenvalues --    0.10613   0.11195   0.11488   0.12122   0.12303
 Alpha virt. eigenvalues --    0.12517   0.13145   0.13741   0.14006   0.14208
 Alpha virt. eigenvalues --    0.14778   0.15107   0.15599   0.16179   0.16739
 Alpha virt. eigenvalues --    0.17329   0.17985   0.18132   0.18630   0.19352
 Alpha virt. eigenvalues --    0.19817   0.20227   0.20738   0.20972   0.21327
 Alpha virt. eigenvalues --    0.22075   0.22533   0.23133   0.23695   0.23902
 Alpha virt. eigenvalues --    0.24284   0.25039   0.25178   0.25824   0.26112
 Alpha virt. eigenvalues --    0.26624   0.27191   0.28115   0.28314   0.28777
 Alpha virt. eigenvalues --    0.29686   0.29801   0.30130   0.30772   0.30892
 Alpha virt. eigenvalues --    0.31564   0.31826   0.32903   0.33305   0.34082
 Alpha virt. eigenvalues --    0.35136   0.35552   0.36208   0.37759   0.39266
 Alpha virt. eigenvalues --    0.40254   0.42234   0.42749   0.44436   0.45531
 Alpha virt. eigenvalues --    0.46085   0.55133   0.58137   0.62907   0.65295
 Alpha virt. eigenvalues --    0.66014   0.66374   0.66750   0.67712   0.68123
 Alpha virt. eigenvalues --    0.68623   0.68811   0.69720   0.70872   0.71774
 Alpha virt. eigenvalues --    0.71869   0.72598   0.74268   0.74889   0.75124
 Alpha virt. eigenvalues --    0.75640   0.77379   0.79417   0.82586   0.83460
 Alpha virt. eigenvalues --    0.85149   0.87539   0.90101   0.91586   0.92160
 Alpha virt. eigenvalues --    0.92724   0.94241   0.95101   0.96169   0.96869
 Alpha virt. eigenvalues --    0.97808   0.98386   1.00619   1.02957   1.03502
 Alpha virt. eigenvalues --    1.05247   1.05981   1.06926   1.08840   1.09548
 Alpha virt. eigenvalues --    1.10556   1.12593   1.13428   1.14933   1.15355
 Alpha virt. eigenvalues --    1.17821   1.19768   1.20904   1.21779   1.22166
 Alpha virt. eigenvalues --    1.24739   1.26725   1.28245   1.28845   1.32911
 Alpha virt. eigenvalues --    1.33065   1.35323   1.38817   1.40727   1.41702
 Alpha virt. eigenvalues --    1.42714   1.43220   1.44395   1.47234   1.48107
 Alpha virt. eigenvalues --    1.53193   1.54382   1.54787   1.60080   1.63742
 Alpha virt. eigenvalues --    1.70336   1.72850   1.75188   1.77648   1.80146
 Alpha virt. eigenvalues --    1.81399   1.82607   1.86138   1.87202   1.88325
 Alpha virt. eigenvalues --    1.91439   1.93126   1.93352   1.96247   1.98034
 Alpha virt. eigenvalues --    1.99703   2.01104   2.02072   2.04114   2.05828
 Alpha virt. eigenvalues --    2.08356   2.09674   2.10225   2.11797   2.13710
 Alpha virt. eigenvalues --    2.17072   2.19076   2.19934   2.21527   2.23045
 Alpha virt. eigenvalues --    2.27423   2.29186   2.29307   2.30132   2.33514
 Alpha virt. eigenvalues --    2.36667   2.36931   2.41674   2.45703   2.49193
 Alpha virt. eigenvalues --    2.52274   2.53628   2.56505   2.58647   2.60967
 Alpha virt. eigenvalues --    2.62208   2.66584   2.69151   2.74303   2.75591
 Alpha virt. eigenvalues --    2.77922   2.81292   2.82383   2.87035   3.01770
 Alpha virt. eigenvalues --    3.02423   3.09515   3.22609   3.38406   4.08057
 Alpha virt. eigenvalues --    4.22277   4.24549   4.25237   4.27666   4.31341
 Alpha virt. eigenvalues --    4.35442   4.37293   4.42906   4.48795   4.56470
 Alpha virt. eigenvalues --    4.62821   4.77822
          Condensed to atoms (all electrons):
               1          2          3          4          5          6
     1  C    6.812070  -0.002941   0.366106  -1.120240  -0.044546  -0.141346
     2  C   -0.002941  13.388756  -7.203128   0.422372   0.894227  -1.301585
     3  C    0.366106  -7.203128  19.154884  -2.825952  -4.826137  -0.386698
     4  C   -1.120240   0.422372  -2.825952   9.950161  -1.102460   1.295819
     5  C   -0.044546   0.894227  -4.826137  -1.102460  14.269357  -2.673827
     6  C   -0.141346  -1.301585  -0.386698   1.295819  -2.673827  10.887686
     7  H   -0.065069   0.023489  -0.022777   0.040463  -0.076548   0.408395
     8  H   -0.036238   0.236359   0.083404   0.027448  -0.017101   0.022115
     9  H    0.005271  -0.004656   0.283762  -0.051374   0.023905  -0.027261
    10  H    0.030299  -0.028516   0.034051  -0.040678   0.316748  -0.021409
    11  O    0.408966   0.233731  -0.078310  -0.026484   0.012204  -0.559755
    12  C   -0.127183  -0.178149   0.041623  -0.024361   0.017086   0.092120
    13  H   -0.050328   0.008316   0.035693  -0.001038  -0.001081  -0.001934
    14  H   -0.053967   0.011444   0.034278  -0.000145   0.001890  -0.004607
    15  H    0.034126  -0.036608  -0.012396  -0.000160   0.000335   0.022083
    16  C    0.056766  -0.831435   0.952693  -0.556349   1.032544  -0.527001
    17  C    0.043109  -0.564272   1.041084  -0.667726  -0.898455  -0.332387
    18  N   -0.020940   0.199386  -0.188212   0.217016  -0.032569   0.032569
    19  C    0.000586  -0.000095  -0.183727  -0.046776   0.119347  -0.047184
    20  C   -0.002011   0.031908   0.170733   0.019696  -0.165391  -0.025705
    21  H   -0.000847   0.001844  -0.004904  -0.030372  -0.005672   0.002722
    22  H   -0.000427   0.008357   0.002734  -0.008059   0.000282  -0.005872
    23  H   -0.000228   0.003248   0.011427  -0.007490  -0.007049   0.000301
    24  H    0.000035  -0.002437  -0.007083   0.001277   0.001714  -0.000096
    25  H   -0.000059   0.001625   0.010111   0.001948  -0.007818  -0.000265
    26  H    0.000058  -0.000446   0.000075   0.001197  -0.001530  -0.000545
    27  H    0.001358   0.046879   0.062533  -0.057685  -0.031483  -0.001382
               7          8          9         10         11         12
     1  C   -0.065069  -0.036238   0.005271   0.030299   0.408966  -0.127183
     2  C    0.023489   0.236359  -0.004656  -0.028516   0.233731  -0.178149
     3  C   -0.022777   0.083404   0.283762   0.034051  -0.078310   0.041623
     4  C    0.040463   0.027448  -0.051374  -0.040678  -0.026484  -0.024361
     5  C   -0.076548  -0.017101   0.023905   0.316748   0.012204   0.017086
     6  C    0.408395   0.022115  -0.027261  -0.021409  -0.559755   0.092120
     7  H    0.465657  -0.000097   0.000011  -0.003658  -0.003430  -0.001223
     8  H   -0.000097   0.463928  -0.004058   0.000012  -0.010822  -0.002688
     9  H    0.000011  -0.004058   0.475286  -0.000096  -0.000631   0.000622
    10  H   -0.003658   0.000012  -0.000096   0.466205  -0.000437   0.000294
    11  O   -0.003430  -0.010822  -0.000631  -0.000437   8.479796   0.066645
    12  C   -0.001223  -0.002688   0.000622   0.000294   0.066645   5.291457
    13  H    0.000001  -0.000713   0.000003   0.000000  -0.033499   0.384658
    14  H    0.000002  -0.000809   0.000002   0.000000  -0.032882   0.384344
    15  H   -0.000007   0.000112  -0.000000  -0.000000  -0.051682   0.392939
    16  C   -0.002511  -0.002438   0.040261  -0.001208  -0.004563   0.002917
    17  C    0.000522  -0.000042   0.015104   0.002197  -0.001016  -0.000109
    18  N    0.000082   0.000399   0.000733   0.000131  -0.000017  -0.000076
    19  C   -0.000002   0.000055   0.006743   0.000787  -0.000064   0.000188
    20  C   -0.000055  -0.000013  -0.001019  -0.000027   0.000088  -0.000099
    21  H    0.000001  -0.000000   0.000000  -0.000224   0.000001  -0.000008
    22  H   -0.000000  -0.000000  -0.000002  -0.000761  -0.000000   0.000004
    23  H    0.000000   0.000000  -0.000002  -0.000000   0.000000   0.000000
    24  H    0.000000   0.000000   0.000001   0.000000  -0.000000  -0.000000
    25  H    0.000000   0.000000  -0.000001  -0.000004   0.000000   0.000000
    26  H    0.000000   0.000000   0.000000   0.000001  -0.000000  -0.000000
    27  H    0.000000  -0.000001   0.003933  -0.000001  -0.000002   0.000015
              13         14         15         16         17         18
     1  C   -0.050328  -0.053967   0.034126   0.056766   0.043109  -0.020940
     2  C    0.008316   0.011444  -0.036608  -0.831435  -0.564272   0.199386
     3  C    0.035693   0.034278  -0.012396   0.952693   1.041084  -0.188212
     4  C   -0.001038  -0.000145  -0.000160  -0.556349  -0.667726   0.217016
     5  C   -0.001081   0.001890   0.000335   1.032544  -0.898455  -0.032569
     6  C   -0.001934  -0.004607   0.022083  -0.527001  -0.332387   0.032569
     7  H    0.000001   0.000002  -0.000007  -0.002511   0.000522   0.000082
     8  H   -0.000713  -0.000809   0.000112  -0.002438  -0.000042   0.000399
     9  H    0.000003   0.000002  -0.000000   0.040261   0.015104   0.000733
    10  H    0.000000   0.000000  -0.000000  -0.001208   0.002197   0.000131
    11  O   -0.033499  -0.032882  -0.051682  -0.004563  -0.001016  -0.000017
    12  C    0.384658   0.384344   0.392939   0.002917  -0.000109  -0.000076
    13  H    0.478654  -0.035599  -0.024457   0.000450   0.000020  -0.000001
    14  H   -0.035599   0.478660  -0.024747   0.000579   0.000011   0.000004
    15  H   -0.024457  -0.024747   0.461465  -0.000132  -0.000005  -0.000000
    16  C    0.000450   0.000579  -0.000132   6.838484  -1.471715   0.295995
    17  C    0.000020   0.000011  -0.000005  -1.471715   9.438384  -0.382391
    18  N   -0.000001   0.000004  -0.000000   0.295995  -0.382391   6.992739
    19  C   -0.000004   0.000005  -0.000000  -0.449641   0.345325   0.078798
    20  C    0.000004  -0.000004   0.000000   0.264997  -0.909386  -0.063811
    21  H    0.000000  -0.000000   0.000000  -0.098013   0.445515   0.010382
    22  H   -0.000000   0.000000   0.000000   0.022492   0.292695   0.004049
    23  H    0.000000  -0.000000   0.000000  -0.006246   0.005015  -0.037657
    24  H   -0.000000   0.000000  -0.000000  -0.014817   0.048031  -0.041232
    25  H   -0.000000   0.000000  -0.000000   0.037463  -0.126077   0.015225
    26  H    0.000000  -0.000000   0.000000   0.013798  -0.070604   0.005528
    27  H    0.000000   0.000000  -0.000000  -0.019959  -0.017131   0.262502
              19         20         21         22         23         24
     1  C    0.000586  -0.002011  -0.000847  -0.000427  -0.000228   0.000035
     2  C   -0.000095   0.031908   0.001844   0.008357   0.003248  -0.002437
     3  C   -0.183727   0.170733  -0.004904   0.002734   0.011427  -0.007083
     4  C   -0.046776   0.019696  -0.030372  -0.008059  -0.007490   0.001277
     5  C    0.119347  -0.165391  -0.005672   0.000282  -0.007049   0.001714
     6  C   -0.047184  -0.025705   0.002722  -0.005872   0.000301  -0.000096
     7  H   -0.000002  -0.000055   0.000001  -0.000000   0.000000   0.000000
     8  H    0.000055  -0.000013  -0.000000  -0.000000   0.000000   0.000000
     9  H    0.006743  -0.001019   0.000000  -0.000002  -0.000002   0.000001
    10  H    0.000787  -0.000027  -0.000224  -0.000761  -0.000000   0.000000
    11  O   -0.000064   0.000088   0.000001  -0.000000   0.000000  -0.000000
    12  C    0.000188  -0.000099  -0.000008   0.000004   0.000000  -0.000000
    13  H   -0.000004   0.000004   0.000000  -0.000000   0.000000  -0.000000
    14  H    0.000005  -0.000004  -0.000000   0.000000  -0.000000   0.000000
    15  H   -0.000000   0.000000   0.000000   0.000000   0.000000  -0.000000
    16  C   -0.449641   0.264997  -0.098013   0.022492  -0.006246  -0.014817
    17  C    0.345325  -0.909386   0.445515   0.292695   0.005015   0.048031
    18  N    0.078798  -0.063811   0.010382   0.004049  -0.037657  -0.041232
    19  C    6.092404  -0.295674   0.027112  -0.001393   0.402339   0.426149
    20  C   -0.295674   6.827652  -0.028777  -0.009604  -0.054370  -0.085262
    21  H    0.027112  -0.028777   0.436424  -0.024700  -0.000210  -0.000042
    22  H   -0.001393  -0.009604  -0.024700   0.433274   0.001569  -0.000167
    23  H    0.402339  -0.054370  -0.000210   0.001569   0.472838  -0.033389
    24  H    0.426149  -0.085262  -0.000042  -0.000167  -0.033389   0.467673
    25  H   -0.090936   0.477985  -0.005302   0.003108   0.003198  -0.005449
    26  H   -0.044951   0.424740   0.000871  -0.004835  -0.003370   0.001156
    27  H   -0.037641   0.025017  -0.000074  -0.000197   0.000059  -0.000866
              25         26         27
     1  C   -0.000059   0.000058   0.001358
     2  C    0.001625  -0.000446   0.046879
     3  C    0.010111   0.000075   0.062533
     4  C    0.001948   0.001197  -0.057685
     5  C   -0.007818  -0.001530  -0.031483
     6  C   -0.000265  -0.000545  -0.001382
     7  H    0.000000   0.000000   0.000000
     8  H    0.000000   0.000000  -0.000001
     9  H   -0.000001   0.000000   0.003933
    10  H   -0.000004   0.000001  -0.000001
    11  O    0.000000  -0.000000  -0.000002
    12  C    0.000000  -0.000000   0.000015
    13  H   -0.000000   0.000000   0.000000
    14  H    0.000000  -0.000000   0.000000
    15  H   -0.000000   0.000000  -0.000000
    16  C    0.037463   0.013798  -0.019959
    17  C   -0.126077  -0.070604  -0.017131
    18  N    0.015225   0.005528   0.262502
    19  C   -0.090936  -0.044951  -0.037641
    20  C    0.477985   0.424740   0.025017
    21  H   -0.005302   0.000871  -0.000074
    22  H    0.003108  -0.004835  -0.000197
    23  H    0.003198  -0.003370   0.000059
    24  H   -0.005449   0.001156  -0.000866
    25  H    0.463031  -0.025193  -0.000167
    26  H   -0.025193   0.461843  -0.000082
    27  H   -0.000167  -0.000082   0.281179
 Mulliken charges:
               1
     1  C   -0.092380
     2  C    0.642329
     3  C   -0.545869
     4  C    0.589955
     5  C   -0.797971
     6  C   -0.704951
     7  H    0.236753
     8  H    0.241188
     9  H    0.233463
    10  H    0.246295
    11  O   -0.397836
    12  C   -0.341015
    13  H    0.240854
    14  H    0.241539
    15  H    0.239134
    16  C    0.426587
    17  C   -0.235697
    18  N   -0.348631
    19  C   -0.301748
    20  C   -0.601610
    21  H    0.274273
    22  H    0.287453
    23  H    0.250017
    24  H    0.244804
    25  H    0.247576
    26  H    0.242292
    27  H    0.483194
 Sum of Mulliken charges =   1.00000
 Mulliken charges with hydrogens summed into heavy atoms:
               1
     1  C   -0.092380
     2  C    0.883517
     3  C   -0.312406
     4  C    0.589955
     5  C   -0.551676
     6  C   -0.468198
    11  O   -0.397836
    12  C    0.380513
    16  C    0.426587
    17  C    0.326029
    18  N    0.134564
    19  C    0.193073
    20  C   -0.111742
 Electronic spatial extent (au):  <R**2>=           3413.9241
 Charge=              1.0000 electrons
 Dipole moment (field-independent basis, Debye):
    X=              5.3335    Y=             -3.3250    Z=             -0.6191  Tot=              6.3155
 Quadrupole moment (field-independent basis, Debye-Ang):
   XX=            -24.0610   YY=            -58.8679   ZZ=            -77.5647
   XY=              4.9321   XZ=             -2.8448   YZ=              0.4971
 Traceless Quadrupole moment (field-independent basis, Debye-Ang):
   XX=             29.4369   YY=             -5.3700   ZZ=            -24.0668
   XY=              4.9321   XZ=             -2.8448   YZ=              0.4971
 Octapole moment (field-independent basis, Debye-Ang**2):
  XXX=              6.7695  YYY=            -11.6395  ZZZ=             -0.6407  XYY=             12.5327
  XXY=            -47.6005  XXZ=             -2.8130  XZZ=              6.2919  YZZ=             -1.5662
  YYZ=             -3.2420  XYZ=              3.3582
 Hexadecapole moment (field-independent basis, Debye-Ang**3):
 XXXX=          -2834.0016 YYYY=           -470.2923 ZZZZ=           -121.0931 XXXY=            103.3175
 XXXZ=            -37.1578 YYYX=            -28.3976 YYYZ=              0.7545 ZZZX=             -3.8740
 ZZZY=              2.8079 XXYY=           -642.8678 XXZZ=           -643.1412 YYZZ=           -114.7865
 XXYZ=              1.0537 YYXZ=             -5.8390 ZZXY=              4.1504
 N-N= 7.519383108650D+02 E-N=-2.781644836657D+03  KE= 5.517333765832D+02
 No NMR shielding tensors so no spin-rotation constants.
 Leave Link  601 at Wed Aug 12 16:08:24 2026, MaxMem=   104857600 cpu:               0.1 elap:               0.2
 (Enter /opt/packages/gaussian/g16RevC.01/g16/l9999.exe)
 Electronic transition elements 
                 1             2             3             4             5 
      1  -0.557326D+03 -0.557300D+03 -0.557265D+03 -0.557260D+03 -0.557244D+03
      2   0.316488D+01  0.528968D+00 -0.641308D+00  0.202917D+00 -0.144322D+00
      3  -0.130923D+00 -0.631832D+00  0.129416D+01 -0.877370D+00  0.368967D-01
      4  -0.672771D-01  0.465530D-01 -0.104861D+00 -0.493246D-01 -0.310983D-01
      5  -0.397404D+00 -0.804792D-01  0.111845D+00 -0.426146D-01  0.298534D-01
      6   0.138101D-01  0.954224D-01 -0.241407D+00  0.165609D+00 -0.801680D-02
      7   0.939094D-02 -0.716941D-02  0.190209D-01  0.101663D-01  0.676960D-02
      8   0.190117D-01  0.338371D-02 -0.475855D-02  0.366796D-01  0.138057D+00
      9  -0.139947D-01 -0.689432D-01  0.317395D-01 -0.535145D-01 -0.112532D-01
     10   0.405614D+00 -0.669852D+00  0.191974D+00  0.154958D+00 -0.368309D-02
     11   0.229788D+00  0.737829D-01 -0.513225D-01 -0.151929D+01 -0.333765D-01
     12  -0.867996D-01  0.255786D-01 -0.145261D+00  0.947765D-01 -0.641301D-02
     13  -0.202985D-01 -0.226307D-02  0.182728D-01  0.950488D-02  0.315426D-02
     14   0.283304D+00  0.105154D-01  0.591108D+00  0.711411D+00 -0.391371D-01
     15   0.504901D-01  0.141229D-01 -0.705753D-01  0.124808D+00  0.200866D-01
     16  -0.133788D-01 -0.610541D-02  0.184734D-01 -0.725417D-01  0.371634D-01
 Unable to Open any file for archive entry.
 1\1\GINC-R043\FOpt\RB3LYP TD-FC\6-31+G(d)\C11H14N1O1(1+)\ZLAB\12-Aug-2
 026\0\\#p TD(NStates=5,Root=1) B3LYP/6-31+G(d) Opt=(CalcFC,MaxStep=3) 
 SCRF=(SMD,Solvent=Methanol) Freq\\S1 excited-state optimization\\1,1\C
 ,-2.4928649682,0.2446072153,-0.0252095779\C,-1.8680188834,-1.019498346
 1,0.0896196653\C,-0.4886075978,-1.0953831945,0.1052990603\C,0.33501106
 77,0.0918971167,-0.010543098\C,-0.3198452789,1.3531308111,-0.131096888
 5\C,-1.6965893469,1.4346072496,-0.1310668316\H,-2.2060878177,2.3899613
 184,-0.212140934\H,-2.458813538,-1.9256904981,0.1639275626\H,-0.024932
 3326,-2.0702008447,0.2135530609\H,0.267021877,2.2607901411,-0.22310173
 84\O,-3.8142946356,0.4515057992,-0.0501651531\C,-4.729751087,-0.655164
 7782,0.059530721\H,-4.5735794004,-1.1757979466,1.0105365569\H,-4.58619
 00213,-1.342951195,-0.7811001926\H,-5.7230548805,-0.2089920938,0.02415
 27607\C,1.7753179982,0.0261759761,-0.0164730739\C,2.7496541506,1.16576
 98159,0.0259203798\N,2.4543946844,-1.1510339616,-0.0792020951\C,3.8973
 809398,-0.9623972664,-0.2022791432\C,4.0939881773,0.4641374925,0.33599
 14635\H,2.4835105285,1.9236942703,0.7717139251\H,2.7817159465,1.678166
 1039,-0.950650396\H,4.1919465412,-1.0455075241,-1.2618051185\H,4.43467
 84018,-1.735606332,0.3569393746\H,4.2567462736,0.431526956,1.418993344
 2\H,4.9490296385,0.9631847328,-0.126525923\H,2.0191435631,-2.035671017
 7,-0.3268077113\\Version=ES64L-G16RevC.01\State=1-A\HF=-557.4550275\RM
 SD=5.033e-09\RMSF=2.693e-06\Dipole=0.0329417,-1.0886888,-0.2332183\PG=
 C01 [X(C11H14N1O1)]\\@
 The archive entry for this job was punched.


 OF ALL THE WONDERS OF THE UNIVERSE, THE GREATEST IS MAN.

                                    -- ARISTOTLE
 Leave Link 9999 at Wed Aug 12 16:08:25 2026, MaxMem=   104857600 cpu:               0.0 elap:               0.1
 Job cpu time:       0 days  3 hours 43 minutes 45.0 seconds.
 Elapsed time:       0 days  3 hours 45 minutes 14.2 seconds.
 File lengths (MBytes):  RWF=    869 Int=      0 D2E=      0 Chk=     27 Scr=      1
 Normal termination of Gaussian 16 at Wed Aug 12 16:08:25 2026.
 (Enter /opt/packages/gaussian/g16RevC.01/g16/l1.exe)
 Link1:  Proceeding to internal job step number  2.
 ----------------------------------------------------------------------
 #P Geom=AllCheck Guess=TCheck SCRF=Check GenChk RB3LYP TD(FC,Read)/6-3
 1+G(d) Freq
 ----------------------------------------------------------------------
 1/8=3,10=4,29=7,30=1,38=1,40=1/1,3;
 2/12=2,40=1/2;
 3/5=1,6=6,7=11,11=1,14=-4,25=1,30=1,70=2,71=2,74=-5,116=1,140=1/1,2,3,8;
 4/5=101/1;
 5/5=2,38=6,98=1/2;
 8/6=1,10=2,107=1,108=5/1;
 9/8=1,15=3,41=5,42=1,49=3,70=2/14;
 10/5=2004,20=4,28=1/2;
 11/6=1,8=1,12=-1,16=1,42=3/1,2,10;
 10/6=3,21=1,28=1/2,14;
 6/7=2,8=2,9=2,10=2/1;
 7/8=1,10=1,12=6,13=8,14=1,25=1,44=2/1,2,3,16;
 1/8=3,10=4,30=1/3;
 99//99;
 Leave Link    1 at Wed Aug 12 16:08:25 2026, MaxMem=   104857600 cpu:               0.0 elap:               0.0
 (Enter /opt/packages/gaussian/g16RevC.01/g16/l101.exe)
 Structure from the checkpoint file:  "mono_s1_planar_opt.chk"
 -----------------------------
 S1 excited-state optimization
 -----------------------------
 Charge =  1 Multiplicity = 1
 Redundant internal coordinates found in file.  (old form).
 C,0,-2.4928649682,0.2446072153,-0.0252095779
 C,0,-1.8680188834,-1.0194983461,0.0896196653
 C,0,-0.4886075978,-1.0953831945,0.1052990603
 C,0,0.3350110677,0.0918971167,-0.010543098
 C,0,-0.3198452789,1.3531308111,-0.1310968885
 C,0,-1.6965893469,1.4346072496,-0.1310668316
 H,0,-2.2060878177,2.3899613184,-0.212140934
 H,0,-2.458813538,-1.9256904981,0.1639275626
 H,0,-0.0249323326,-2.0702008447,0.2135530609
 H,0,0.267021877,2.2607901411,-0.2231017384
 O,0,-3.8142946356,0.4515057992,-0.0501651531
 C,0,-4.729751087,-0.6551647782,0.059530721
 H,0,-4.5735794004,-1.1757979466,1.0105365569
 H,0,-4.5861900213,-1.342951195,-0.7811001926
 H,0,-5.7230548805,-0.2089920938,0.0241527607
 C,0,1.7753179982,0.0261759761,-0.0164730739
 C,0,2.7496541506,1.1657698159,0.0259203798
 N,0,2.4543946844,-1.1510339616,-0.0792020951
 C,0,3.8973809398,-0.9623972664,-0.2022791432
 C,0,4.0939881773,0.4641374925,0.3359914635
 H,0,2.4835105285,1.9236942703,0.7717139251
 H,0,2.7817159465,1.6781661039,-0.950650396
 H,0,4.1919465412,-1.0455075241,-1.2618051185
 H,0,4.4346784018,-1.735606332,0.3569393746
 H,0,4.2567462736,0.431526956,1.4189933442
 H,0,4.9490296385,0.9631847328,-0.126525923
 H,0,2.0191435631,-2.0356710177,-0.3268077113
 Recover connectivity data from disk.
 ITRead=  0  0  0  0  0  0  0  0  0  0  0  0  0  0  0  0  0  0  0  0
 ITRead=  0  0  0  0  0  0  0
 MicOpt= -1 -1 -1 -1 -1 -1 -1 -1 -1 -1 -1 -1 -1 -1 -1 -1 -1 -1 -1 -1
 MicOpt= -1 -1 -1 -1 -1 -1 -1
 NAtoms=     27 NQM=       27 NQMF=       0 NMMI=      0 NMMIF=      0
                NMic=       0 NMicF=      0.
                    Isotopes and Nuclear Properties:
 (Nuclear quadrupole moments (NQMom) in fm**2, nuclear magnetic moments (NMagM)
  in nuclear magnetons)

  Atom         1           2           3           4           5           6           7           8           9          10
 IAtWgt=          12          12          12          12          12          12           1           1           1           1
 AtmWgt=  12.0000000  12.0000000  12.0000000  12.0000000  12.0000000  12.0000000   1.0078250   1.0078250   1.0078250   1.0078250
 NucSpn=           0           0           0           0           0           0           1           1           1           1
 AtZEff=   3.6000000   3.6000000   3.6000000   3.6000000   3.6000000   3.6000000   1.0000000   1.0000000   1.0000000   1.0000000
 NQMom=    0.0000000   0.0000000   0.0000000   0.0000000   0.0000000   0.0000000   0.0000000   0.0000000   0.0000000   0.0000000
 NMagM=    0.0000000   0.0000000   0.0000000   0.0000000   0.0000000   0.0000000   2.7928460   2.7928460   2.7928460   2.7928460
 AtZNuc=   6.0000000   6.0000000   6.0000000   6.0000000   6.0000000   6.0000000   1.0000000   1.0000000   1.0000000   1.0000000

  Atom        11          12          13          14          15          16          17          18          19          20
 IAtWgt=          16          12           1           1           1          12          12          14          12          12
 AtmWgt=  15.9949146  12.0000000   1.0078250   1.0078250   1.0078250  12.0000000  12.0000000  14.0030740  12.0000000  12.0000000
 NucSpn=           0           0           1           1           1           0           0           2           0           0
 AtZEff=   5.6000000   3.6000000   1.0000000   1.0000000   1.0000000   3.6000000   3.6000000   4.5500000   3.6000000   3.6000000
 NQMom=    0.0000000   0.0000000   0.0000000   0.0000000   0.0000000   0.0000000   0.0000000   2.0440000   0.0000000   0.0000000
 NMagM=    0.0000000   0.0000000   2.7928460   2.7928460   2.7928460   0.0000000   0.0000000   0.4037610   0.0000000   0.0000000
 AtZNuc=   8.0000000   6.0000000   1.0000000   1.0000000   1.0000000   6.0000000   6.0000000   7.0000000   6.0000000   6.0000000

  Atom        21          22          23          24          25          26          27
 IAtWgt=           1           1           1           1           1           1           1
 AtmWgt=   1.0078250   1.0078250   1.0078250   1.0078250   1.0078250   1.0078250   1.0078250
 NucSpn=           1           1           1           1           1           1           1
 AtZEff=   1.0000000   1.0000000   1.0000000   1.0000000   1.0000000   1.0000000   1.0000000
 NQMom=    0.0000000   0.0000000   0.0000000   0.0000000   0.0000000   0.0000000   0.0000000
 NMagM=    2.7928460   2.7928460   2.7928460   2.7928460   2.7928460   2.7928460   2.7928460
 AtZNuc=   1.0000000   1.0000000   1.0000000   1.0000000   1.0000000   1.0000000   1.0000000
 Leave Link  101 at Wed Aug 12 16:08:25 2026, MaxMem=   104857600 cpu:               0.1 elap:               0.1
 (Enter /opt/packages/gaussian/g16RevC.01/g16/l103.exe)

 GradGradGradGradGradGradGradGradGradGradGradGradGradGradGradGradGradGrad
 Berny optimization.
 Initialization pass.
                           ----------------------------
                           !    Initial Parameters    !
                           ! (Angstroms and Degrees)  !
 --------------------------                            --------------------------
 ! Name  Definition              Value          Derivative Info.                !
 --------------------------------------------------------------------------------
 ! R1    R(1,2)                  1.4148         calculate D2E/DX2 analytically  !
 ! R2    R(1,6)                  1.4357         calculate D2E/DX2 analytically  !
 ! R3    R(1,11)                 1.3378         calculate D2E/DX2 analytically  !
 ! R4    R(2,3)                  1.3816         calculate D2E/DX2 analytically  !
 ! R5    R(2,8)                  1.0843         calculate D2E/DX2 analytically  !
 ! R6    R(3,4)                  1.4496         calculate D2E/DX2 analytically  !
 ! R7    R(3,9)                  1.0849         calculate D2E/DX2 analytically  !
 ! R8    R(4,5)                  1.4262         calculate D2E/DX2 analytically  !
 ! R9    R(4,16)                 1.4418         calculate D2E/DX2 analytically  !
 ! R10   R(5,6)                  1.3792         calculate D2E/DX2 analytically  !
 ! R11   R(5,10)                 1.0848         calculate D2E/DX2 analytically  !
 ! R12   R(6,7)                  1.0858         calculate D2E/DX2 analytically  !
 ! R13   R(11,12)                1.4404         calculate D2E/DX2 analytically  !
 ! R14   R(12,13)                1.0954         calculate D2E/DX2 analytically  !
 ! R15   R(12,14)                1.0956         calculate D2E/DX2 analytically  !
 ! R16   R(12,15)                1.0895         calculate D2E/DX2 analytically  !
 ! R17   R(16,17)                1.4999         calculate D2E/DX2 analytically  !
 ! R18   R(16,18)                1.3605         calculate D2E/DX2 analytically  !
 ! R19   R(17,20)                1.5478         calculate D2E/DX2 analytically  !
 ! R20   R(17,21)                1.0961         calculate D2E/DX2 analytically  !
 ! R21   R(17,22)                1.1033         calculate D2E/DX2 analytically  !
 ! R22   R(18,19)                1.4605         calculate D2E/DX2 analytically  !
 ! R23   R(18,27)                1.0165         calculate D2E/DX2 analytically  !
 ! R24   R(19,20)                1.5373         calculate D2E/DX2 analytically  !
 ! R25   R(19,23)                1.1028         calculate D2E/DX2 analytically  !
 ! R26   R(19,24)                1.0951         calculate D2E/DX2 analytically  !
 ! R27   R(20,25)                1.0956         calculate D2E/DX2 analytically  !
 ! R28   R(20,26)                1.0927         calculate D2E/DX2 analytically  !
 ! A1    A(2,1,6)              120.1064         calculate D2E/DX2 analytically  !
 ! A2    A(2,1,11)             125.1676         calculate D2E/DX2 analytically  !
 ! A3    A(6,1,11)             114.7256         calculate D2E/DX2 analytically  !
 ! A4    A(1,2,3)              119.4038         calculate D2E/DX2 analytically  !
 ! A5    A(1,2,8)              120.7736         calculate D2E/DX2 analytically  !
 ! A6    A(3,2,8)              119.8226         calculate D2E/DX2 analytically  !
 ! A7    A(2,3,4)              121.4245         calculate D2E/DX2 analytically  !
 ! A8    A(2,3,9)              118.5032         calculate D2E/DX2 analytically  !
 ! A9    A(4,3,9)              120.0712         calculate D2E/DX2 analytically  !
 ! A10   A(3,4,5)              118.045          calculate D2E/DX2 analytically  !
 ! A11   A(3,4,16)             122.0434         calculate D2E/DX2 analytically  !
 ! A12   A(5,4,16)             119.91           calculate D2E/DX2 analytically  !
 ! A13   A(4,5,6)              120.7036         calculate D2E/DX2 analytically  !
 ! A14   A(4,5,10)             119.9142         calculate D2E/DX2 analytically  !
 ! A15   A(6,5,10)             119.3821         calculate D2E/DX2 analytically  !
 ! A16   A(1,6,5)              120.3098         calculate D2E/DX2 analytically  !
 ! A17   A(1,6,7)              118.3298         calculate D2E/DX2 analytically  !
 ! A18   A(5,6,7)              121.3603         calculate D2E/DX2 analytically  !
 ! A19   A(1,11,12)            120.5003         calculate D2E/DX2 analytically  !
 ! A20   A(11,12,13)           109.9181         calculate D2E/DX2 analytically  !
 ! A21   A(11,12,14)           109.9138         calculate D2E/DX2 analytically  !
 ! A22   A(11,12,15)           105.2084         calculate D2E/DX2 analytically  !
 ! A23   A(13,12,14)           110.4317         calculate D2E/DX2 analytically  !
 ! A24   A(13,12,15)           110.6603         calculate D2E/DX2 analytically  !
 ! A25   A(14,12,15)           110.5879         calculate D2E/DX2 analytically  !
 ! A26   A(4,16,17)            127.8907         calculate D2E/DX2 analytically  !
 ! A27   A(4,16,18)            122.5648         calculate D2E/DX2 analytically  !
 ! A28   A(17,16,18)           109.541          calculate D2E/DX2 analytically  !
 ! A29   A(16,17,20)           103.0293         calculate D2E/DX2 analytically  !
 ! A30   A(16,17,21)           112.7588         calculate D2E/DX2 analytically  !
 ! A31   A(16,17,22)           110.2862         calculate D2E/DX2 analytically  !
 ! A32   A(20,17,21)           112.8319         calculate D2E/DX2 analytically  !
 ! A33   A(20,17,22)           111.2605         calculate D2E/DX2 analytically  !
 ! A34   A(21,17,22)           106.7482         calculate D2E/DX2 analytically  !
 ! A35   A(16,18,19)           112.6621         calculate D2E/DX2 analytically  !
 ! A36   A(16,18,27)           123.4034         calculate D2E/DX2 analytically  !
 ! A37   A(19,18,27)           120.9926         calculate D2E/DX2 analytically  !
 ! A38   A(18,19,20)           102.5156         calculate D2E/DX2 analytically  !
 ! A39   A(18,19,23)           109.5804         calculate D2E/DX2 analytically  !
 ! A40   A(18,19,24)           110.5199         calculate D2E/DX2 analytically  !
 ! A41   A(20,19,23)           111.8482         calculate D2E/DX2 analytically  !
 ! A42   A(20,19,24)           114.4329         calculate D2E/DX2 analytically  !
 ! A43   A(23,19,24)           107.8386         calculate D2E/DX2 analytically  !
 ! A44   A(17,20,19)           103.8523         calculate D2E/DX2 analytically  !
 ! A45   A(17,20,25)           109.9094         calculate D2E/DX2 analytically  !
 ! A46   A(17,20,26)           112.8178         calculate D2E/DX2 analytically  !
 ! A47   A(19,20,25)           109.7228         calculate D2E/DX2 analytically  !
 ! A48   A(19,20,26)           112.0646         calculate D2E/DX2 analytically  !
 ! A49   A(25,20,26)           108.4053         calculate D2E/DX2 analytically  !
 ! D1    D(6,1,2,3)              0.3136         calculate D2E/DX2 analytically  !
 ! D2    D(6,1,2,8)           -179.6124         calculate D2E/DX2 analytically  !
 ! D3    D(11,1,2,3)          -179.9049         calculate D2E/DX2 analytically  !
 ! D4    D(11,1,2,8)             0.1691         calculate D2E/DX2 analytically  !
 ! D5    D(2,1,6,5)              0.4598         calculate D2E/DX2 analytically  !
 ! D6    D(2,1,6,7)           -179.6555         calculate D2E/DX2 analytically  !
 ! D7    D(11,1,6,5)          -179.3435         calculate D2E/DX2 analytically  !
 ! D8    D(11,1,6,7)             0.5412         calculate D2E/DX2 analytically  !
 ! D9    D(2,1,11,12)            0.7615         calculate D2E/DX2 analytically  !
 ! D10   D(6,1,11,12)         -179.4467         calculate D2E/DX2 analytically  !
 ! D11   D(1,2,3,4)             -0.7949         calculate D2E/DX2 analytically  !
 ! D12   D(1,2,3,9)            178.8132         calculate D2E/DX2 analytically  !
 ! D13   D(8,2,3,4)            179.1318         calculate D2E/DX2 analytically  !
 ! D14   D(8,2,3,9)             -1.2601         calculate D2E/DX2 analytically  !
 ! D15   D(2,3,4,5)              0.5137         calculate D2E/DX2 analytically  !
 ! D16   D(2,3,4,16)          -179.0238         calculate D2E/DX2 analytically  !
 ! D17   D(9,3,4,5)           -179.0883         calculate D2E/DX2 analytically  !
 ! D18   D(9,3,4,16)             1.3741         calculate D2E/DX2 analytically  !
 ! D19   D(3,4,5,6)              0.2709         calculate D2E/DX2 analytically  !
 ! D20   D(3,4,5,10)          -179.7868         calculate D2E/DX2 analytically  !
 ! D21   D(16,4,5,6)           179.8187         calculate D2E/DX2 analytically  !
 ! D22   D(16,4,5,10)           -0.239          calculate D2E/DX2 analytically  !
 ! D23   D(3,4,16,17)         -172.5025         calculate D2E/DX2 analytically  !
 ! D24   D(3,4,16,18)            8.247          calculate D2E/DX2 analytically  !
 ! D25   D(5,4,16,17)            7.9683         calculate D2E/DX2 analytically  !
 ! D26   D(5,4,16,18)         -171.2821         calculate D2E/DX2 analytically  !
 ! D27   D(4,5,6,1)             -0.744          calculate D2E/DX2 analytically  !
 ! D28   D(4,5,6,7)            179.3749         calculate D2E/DX2 analytically  !
 ! D29   D(10,5,6,1)           179.3134         calculate D2E/DX2 analytically  !
 ! D30   D(10,5,6,7)            -0.5676         calculate D2E/DX2 analytically  !
 ! D31   D(1,11,12,13)          60.1303         calculate D2E/DX2 analytically  !
 ! D32   D(1,11,12,14)         -61.6177         calculate D2E/DX2 analytically  !
 ! D33   D(1,11,12,15)         179.3002         calculate D2E/DX2 analytically  !
 ! D34   D(4,16,17,20)         166.9523         calculate D2E/DX2 analytically  !
 ! D35   D(4,16,17,21)          45.015          calculate D2E/DX2 analytically  !
 ! D36   D(4,16,17,22)         -74.2094         calculate D2E/DX2 analytically  !
 ! D37   D(18,16,17,20)        -13.718          calculate D2E/DX2 analytically  !
 ! D38   D(18,16,17,21)       -135.6553         calculate D2E/DX2 analytically  !
 ! D39   D(18,16,17,22)        105.1203         calculate D2E/DX2 analytically  !
 ! D40   D(4,16,18,19)         174.4533         calculate D2E/DX2 analytically  !
 ! D41   D(4,16,18,27)          13.7586         calculate D2E/DX2 analytically  !
 ! D42   D(17,16,18,19)         -4.919          calculate D2E/DX2 analytically  !
 ! D43   D(17,16,18,27)       -165.6137         calculate D2E/DX2 analytically  !
 ! D44   D(16,17,20,19)         25.7548         calculate D2E/DX2 analytically  !
 ! D45   D(16,17,20,25)        -91.5668         calculate D2E/DX2 analytically  !
 ! D46   D(16,17,20,26)        147.3223         calculate D2E/DX2 analytically  !
 ! D47   D(21,17,20,19)        147.6427         calculate D2E/DX2 analytically  !
 ! D48   D(21,17,20,25)         30.3211         calculate D2E/DX2 analytically  !
 ! D49   D(21,17,20,26)        -90.7899         calculate D2E/DX2 analytically  !
 ! D50   D(22,17,20,19)        -92.4028         calculate D2E/DX2 analytically  !
 ! D51   D(22,17,20,25)        150.2755         calculate D2E/DX2 analytically  !
 ! D52   D(22,17,20,26)         29.1646         calculate D2E/DX2 analytically  !
 ! D53   D(16,18,19,20)         21.4039         calculate D2E/DX2 analytically  !
 ! D54   D(16,18,19,23)        -97.5144         calculate D2E/DX2 analytically  !
 ! D55   D(16,18,19,24)        143.7807         calculate D2E/DX2 analytically  !
 ! D56   D(27,18,19,20)       -177.3773         calculate D2E/DX2 analytically  !
 ! D57   D(27,18,19,23)         63.7044         calculate D2E/DX2 analytically  !
 ! D58   D(27,18,19,24)        -55.0005         calculate D2E/DX2 analytically  !
 ! D59   D(18,19,20,17)        -28.2933         calculate D2E/DX2 analytically  !
 ! D60   D(18,19,20,25)         89.158          calculate D2E/DX2 analytically  !
 ! D61   D(18,19,20,26)       -150.3622         calculate D2E/DX2 analytically  !
 ! D62   D(23,19,20,17)         89.0199         calculate D2E/DX2 analytically  !
 ! D63   D(23,19,20,25)       -153.5288         calculate D2E/DX2 analytically  !
 ! D64   D(23,19,20,26)        -33.0489         calculate D2E/DX2 analytically  !
 ! D65   D(24,19,20,17)       -147.9785         calculate D2E/DX2 analytically  !
 ! D66   D(24,19,20,25)        -30.5271         calculate D2E/DX2 analytically  !
 ! D67   D(24,19,20,26)         89.9527         calculate D2E/DX2 analytically  !
 --------------------------------------------------------------------------------
 Trust Radius=3.00D-02 FncErr=1.00D-07 GrdErr=1.00D-07 EigMax=2.50D+02 EigMin=1.00D-04
 Number of steps in this run=      2 maximum allowed number of steps=      2.
 GradGradGradGradGradGradGradGradGradGradGradGradGradGradGradGradGradGrad

 Leave Link  103 at Wed Aug 12 16:08:25 2026, MaxMem=   104857600 cpu:               0.0 elap:               0.0
 (Enter /opt/packages/gaussian/g16RevC.01/g16/l202.exe)
                          Input orientation:                          
 ---------------------------------------------------------------------
 Center     Atomic      Atomic             Coordinates (Angstroms)
 Number     Number       Type             X           Y           Z
 ---------------------------------------------------------------------
      1          6           0       -2.492865    0.244607   -0.025210
      2          6           0       -1.868019   -1.019498    0.089620
      3          6           0       -0.488608   -1.095383    0.105299
      4          6           0        0.335011    0.091897   -0.010543
      5          6           0       -0.319845    1.353131   -0.131097
      6          6           0       -1.696589    1.434607   -0.131067
      7          1           0       -2.206088    2.389961   -0.212141
      8          1           0       -2.458814   -1.925690    0.163928
      9          1           0       -0.024932   -2.070201    0.213553
     10          1           0        0.267022    2.260790   -0.223102
     11          8           0       -3.814295    0.451506   -0.050165
     12          6           0       -4.729751   -0.655165    0.059531
     13          1           0       -4.573579   -1.175798    1.010537
     14          1           0       -4.586190   -1.342951   -0.781100
     15          1           0       -5.723055   -0.208992    0.024153
     16          6           0        1.775318    0.026176   -0.016473
     17          6           0        2.749654    1.165770    0.025920
     18          7           0        2.454395   -1.151034   -0.079202
     19          6           0        3.897381   -0.962397   -0.202279
     20          6           0        4.093988    0.464137    0.335991
     21          1           0        2.483511    1.923694    0.771714
     22          1           0        2.781716    1.678166   -0.950650
     23          1           0        4.191947   -1.045508   -1.261805
     24          1           0        4.434678   -1.735606    0.356939
     25          1           0        4.256746    0.431527    1.418993
     26          1           0        4.949030    0.963185   -0.126526
     27          1           0        2.019144   -2.035671   -0.326808
 ---------------------------------------------------------------------
                    Distance matrix (angstroms):
                    1          2          3          4          5
     1  C    0.000000
     2  C    1.414773   0.000000
     3  C    2.414468   1.381586   0.000000
     4  C    2.832034   2.469529   1.449621   0.000000
     5  C    2.441731   2.841642   2.465681   1.426212   0.000000
     6  C    1.435744   2.469965   2.813528   2.438195   1.379153
     7  H    2.172494   3.439443   3.898478   3.432044   2.153949
     8  H    2.178790   1.084317   2.138822   3.450588   3.925926
     9  H    3.392055   2.125160   1.084889   2.203281   3.453253
    10  H    3.423614   3.926383   3.455824   2.180344   1.084769
    11  O    1.337762   2.443641   3.671135   4.165048   3.609800
    12  C    2.412557   2.884988   4.264175   5.120042   4.849418
    13  H    2.723911   2.862267   4.184844   5.171452   5.078687
    14  H    2.733811   2.872495   4.199664   5.183702   5.088522
    15  H    3.262256   3.939862   5.309587   6.065633   5.626633
    16  C    4.273778   3.791912   2.529443   1.441818   2.482671
    17  C    5.323078   5.109047   3.950374   2.642921   3.079218
    18  N    5.140633   4.327709   2.949305   2.457922   3.737639
    19  C    6.505648   5.773067   4.398771   3.720051   4.811625
    20  C    6.600401   6.148772   4.846185   3.793225   4.526633
    21  H    5.312131   5.297494   4.288639   2.929754   2.999902
    22  H    5.543711   5.475362   4.416177   3.063726   3.224438
    23  H    6.919557   6.208881   4.876377   4.211330   5.233377
    24  H    7.215133   6.348879   4.971112   4.503564   5.690692
    25  H    6.904919   6.433153   5.155156   4.187951   4.919078
    26  H    7.477193   7.102809   5.818878   4.696995   5.283287
    27  H    5.064469   4.039313   2.712872   2.731826   4.122275
                    6          7          8          9         10
     6  C    0.000000
     7  H    1.085755   0.000000
     8  H    3.458267   4.339372   0.000000
     9  H    3.898318   4.983142   2.438673   0.000000
    10  H    2.132327   2.476505   5.010648   4.362727   0.000000
    11  O    2.336174   2.523921   2.744855   4.559366   4.467724
    12  C    3.688298   3.964275   2.604283   4.915422   5.792272
    13  H    4.049018   4.451359   2.398191   4.703757   6.063285
    14  H    4.060439   4.463545   2.399665   4.724754   6.070583
    15  H    4.351774   4.379435   3.690781   5.997380   6.483979
    16  C    3.748460   4.634367   4.665854   2.772834   2.703914
    17  C    4.457129   5.110254   6.058408   4.266737   2.724802
    18  N    4.890695   5.854607   4.979841   2.660383   4.055348
    19  C    6.086313   6.963529   6.439196   4.096912   4.854779
    20  C    5.889885   6.610613   6.977112   4.837703   4.264530
    21  H    4.304353   4.814323   6.293944   4.749213   2.452777
    22  H    4.559195   5.092174   6.457028   4.825236   2.681877
    23  H    6.488790   7.337512   6.858575   4.583530   5.235985
    24  H    6.919599   7.838618   6.898813   4.474443   5.803188
    25  H    6.233062   6.947250   7.227061   5.103381   4.686212
    26  H    6.662320   7.296487   7.956513   5.835870   4.859455
    27  H    5.088007   6.119800   4.506109   2.114575   4.641149
                   11         12         13         14         15
    11  O    0.000000
    12  C    1.440421   0.000000
    13  H    2.085598   1.095381   0.000000
    14  H    2.085705   1.095591   1.799461   0.000000
    15  H    2.021174   1.089483   1.796931   1.796318   0.000000
    16  C    5.605873   6.541095   6.542781   6.551942   7.502170
    17  C    6.603135   7.697950   7.751268   7.794843   8.583517
    18  N    6.470351   7.202575   7.112001   7.078088   8.232181
    19  C    7.841696   8.636570   8.560002   8.511805   9.652548
    20  C    7.917715   8.898744   8.847097   8.936384   9.845033
    21  H    6.519599   7.693430   7.711446   7.941213   8.512045
    22  H    6.769263   7.930135   8.129682   7.965045   8.765999
    23  H    8.234623   9.027457   9.056211   8.796319  10.032981
    24  H    8.543696   9.232690   9.049270   9.100845  10.277200
    25  H    8.203690   9.153479   8.984708   9.283680  10.097142
    26  H    8.778582   9.814911   9.825896   9.831945  10.737322
    27  H    6.347565   6.899466   6.781730   6.657077   7.962510
                   16         17         18         19         20
    16  C    0.000000
    17  C    1.499934   0.000000
    18  N    1.360479   2.337907   0.000000
    19  C    2.348394   2.428672   1.460459   0.000000
    20  C    2.385848   1.547794   2.338682   1.537332   0.000000
    21  H    2.173327   1.096125   3.190432   3.358157   2.216709
    22  H    2.148161   1.103299   2.978411   2.962658   2.202583
    23  H    2.922234   2.937378   2.104465   1.102847   2.200359
    24  H    3.211777   3.371478   2.110324   1.095110   2.226069
    25  H    2.895230   2.179700   2.827996   2.168108   1.095649
    26  H    3.310973   2.213941   3.270377   2.195352   1.092733
    27  H    2.099279   3.302618   1.016531   2.166841   3.315618
                   21         22         23         24         25
    21  H    0.000000
    22  H    1.765149   0.000000
    23  H    3.983731   3.082850   0.000000
    24  H    4.167682   4.011972   1.776370   0.000000
    25  H    2.406221   3.056965   3.061456   2.419935   0.000000
    26  H    2.794315   2.426444   2.428349   2.789582   1.774978
    27  H    4.135089   3.842302   2.564316   2.528311   3.760552
                   26         27
    26  H    0.000000
    27  H    4.197318   0.000000
 Stoichiometry    C11H14NO(1+)
 Framework group  C1[X(C11H14NO)]
 Deg. of freedom    75
 Full point group                 C1      NOp   1
 RotChk:  IX=0 Diff= 3.46D-16
 Largest Abelian subgroup         C1      NOp   1
 Largest concise Abelian subgroup C1      NOp   1
                         Standard orientation:                         
 ---------------------------------------------------------------------
 Center     Atomic      Atomic             Coordinates (Angstroms)
 Number     Number       Type             X           Y           Z
 ---------------------------------------------------------------------
      1          6           0       -2.492994    0.245734   -0.013022
      2          6           0       -1.868071   -1.019742    0.085077
      3          6           0       -0.488637   -1.095998    0.096359
      4          6           0        0.334884    0.092473   -0.007336
      5          6           0       -0.320064    1.355149   -0.111118
      6          6           0       -1.696790    1.436808   -0.106631
      7          1           0       -2.206332    2.393134   -0.174967
      8          1           0       -2.458827   -1.926679    0.150019
      9          1           0       -0.024853   -2.072105    0.191756
     10          1           0        0.266720    2.263765   -0.193727
     11          8           0       -3.814448    0.453097   -0.032156
     12          6           0       -4.729809   -0.654683    0.066590
     13          1           0       -4.571322   -1.186692    1.010894
     14          1           0       -4.588487   -1.332370   -0.782579
     15          1           0       -5.723125   -0.207983    0.039071
     16          6           0        1.775161    0.026630   -0.017694
     17          6           0        2.749791    1.165502    0.035883
     18          7           0        2.453880   -1.149836   -0.096236
     19          6           0        3.896582   -0.959936   -0.220693
     20          6           0        4.094787    0.460022    0.334127
     21          1           0        2.485659    1.914474    0.791372
     22          1           0        2.779471    1.689554   -0.934559
     23          1           0        4.188456   -1.030389   -1.281880
     24          1           0        4.435162   -1.739862    0.327863
     25          1           0        4.260275    0.414419    1.416246
     26          1           0        4.948740    0.964457   -0.124540
     27          1           0        2.017857   -2.031385   -0.353319
 ---------------------------------------------------------------------
 Rotational constants (GHZ):           2.8187001           0.3488643           0.3142416
 Leave Link  202 at Wed Aug 12 16:08:25 2026, MaxMem=   104857600 cpu:               0.0 elap:               0.0
 (Enter /opt/packages/gaussian/g16RevC.01/g16/l301.exe)
 Standard basis: 6-31+G(d) (6D, 7F)
 Ernie: Thresh=  0.10000D-02 Tol=  0.10000D-05 Strict=F.
 There are   275 symmetry adapted cartesian basis functions of A   symmetry.
 There are   275 symmetry adapted basis functions of A   symmetry.
   275 basis functions,   472 primitive gaussians,   275 cartesian basis functions
    47 alpha electrons       47 beta electrons
       nuclear repulsion energy       751.9387321928 Hartrees.
 IExCor=  402 DFT=T Ex+Corr=B3LYP ExCW=0 ScaHFX=  0.200000
 ScaDFX=  0.800000  0.720000  1.000000  0.810000 ScalE2=  1.000000  1.000000
 IRadAn=      5 IRanWt=     -1 IRanGd=            0 ICorTp=0 IEmpDi=  4
 NAtoms=   27 NActive=   27 NUniq=   27 SFac= 1.00D+00 NAtFMM=   60 NAOKFM=F Big=F
 Integral buffers will be    131072 words long.
 Raffenetti 1 integral format.
 Two-electron integral symmetry is turned on.
 Force inversion solution in PCM.
 ------------------------------------------------------------------------------
 Polarizable Continuum Model (PCM)
 =================================
 Model                : PCM.
 Atomic radii         : SMD-Coulomb.
 Polarization charges : Total charges.
 Charge compensation  : None.
 Solution method      : Matrix inversion.
 Cavity type          : VdW (van der Waals Surface) (Alpha=1.000).
 Cavity algorithm     : GePol (No added spheres)
                        Default sphere list used, NSphG=   27.
                        Lebedev-Laikov grids with approx.  5.0 points / Ang**2.
                        Smoothing algorithm: York/Karplus (Gamma=1.0000).
                        Polarization charges: spherical gaussians, with
                                              point-specific exponents (IZeta= 3).
                        Self-potential: point-specific (ISelfS= 7).
                        Self-field    : sphere-specific E.n sum rule (ISelfD= 2).
 1st derivatives      : Analytical E(r).r(x)/FMM algorithm (CHGder, D1EAlg=3).
                        Cavity 1st derivative terms included.
 2nd derivatives      : Analytical E(r).r(xy)/FMM algorithm (CHGder, D2EAlg=3).
                        Cavity 2nd derivative terms included.
 Solvent              : Methanol, Eps=  32.613000 Eps(inf)=   1.765709
 ------------------------------------------------------------------------------
 GePol: Number of generator spheres                  =      27
 GePol: Total number of spheres                      =      27
 GePol: Number of exposed spheres                    =      27 (100.00%)
 GePol: Number of points                             =    2000
 GePol: Average weight of points                     =       0.11
 GePol: Minimum weight of points                     =   0.53D-10
 GePol: Maximum weight of points                     =    0.21991
 GePol: Number of points with low weight             =     108
 GePol: Fraction of low-weight points (<1% of avg)   =       5.40%
 GePol: Cavity surface area                          =    217.072 Ang**2
 GePol: Cavity volume                                =    192.652 Ang**3
 ------------------------------------------------------------------------------
 Atomic radii for non-electrostatic terms: SMD-CDS.
 ------------------------------------------------------------------------------
 PCM non-electrostatic energy =        -0.0004213278 Hartrees.
 Nuclear repulsion after PCM non-electrostatic terms =      751.9383108650 Hartrees.
 Leave Link  301 at Wed Aug 12 16:08:25 2026, MaxMem=   104857600 cpu:               0.1 elap:               0.1
 (Enter /opt/packages/gaussian/g16RevC.01/g16/l302.exe)
 NPDir=0 NMtPBC=     1 NCelOv=     1 NCel=       1 NClECP=     1 NCelD=      1
         NCelK=      1 NCelE2=     1 NClLst=     1 CellRange=     0.0.
 One-electron integrals computed using PRISM.
 One-electron integral symmetry used in STVInt
 NBasis=   275 RedAO= T EigKep=  1.12D-06  NBF=   275
 NBsUse=   274 1.00D-06 EigRej=  4.70D-07 NBFU=   274
 Precomputing XC quadrature grid using
 IXCGrd= 4 IRadAn=           5 IRanWt=          -1 IRanGd=           0 AccXCQ= 0.00D+00.
 Generated NRdTot=       0 NPtTot=           0 NUsed=           0 NTot=          32
 NSgBfM=   274   274   274   274   274 MxSgAt=    27 MxSgA2=    27.
 Leave Link  302 at Wed Aug 12 16:08:26 2026, MaxMem=   104857600 cpu:               0.6 elap:               0.6
 (Enter /opt/packages/gaussian/g16RevC.01/g16/l303.exe)
 DipDrv:  MaxL=1.
 Leave Link  303 at Wed Aug 12 16:08:26 2026, MaxMem=   104857600 cpu:               0.0 elap:               0.0
 (Enter /opt/packages/gaussian/g16RevC.01/g16/l308.exe)
 Leave Link  308 at Wed Aug 12 16:08:26 2026, MaxMem=   104857600 cpu:               0.0 elap:               0.0
 (Enter /opt/packages/gaussian/g16RevC.01/g16/l401.exe)
 Initial guess from the checkpoint file:  "mono_s1_planar_opt.chk"
 B after Tr=    -0.000000    0.000000   -0.000000
         Rot=    1.000000   -0.000000   -0.000000    0.000000 Ang=   0.00 deg.
 Guess basis will be translated and rotated to current coordinates.
 JPrj=2 DoOrth=T DoCkMO=T.
 Leave Link  401 at Wed Aug 12 16:08:26 2026, MaxMem=   104857600 cpu:               0.1 elap:               0.1
 (Enter /opt/packages/gaussian/g16RevC.01/g16/l502.exe)
 Integral symmetry usage will be decided dynamically.
 Closed shell SCF:
 Using DIIS extrapolation, IDIIS=  1040.
 NGot=   104857600 LenX=   104701058 LenY=   104624992
 Requested convergence on RMS density matrix=1.00D-08 within 128 cycles.
 Requested convergence on MAX density matrix=1.00D-06.
 Requested convergence on             energy=1.00D-06.
 No special actions if energy rises.
 Fock matrices will be formed incrementally for  20 cycles.

 Cycle   1  Pass 1  IDiag  1:
 FoFJK:  IHMeth= 1 ICntrl=       0 DoSepK=F KAlg= 0 I1Cent=           0 FoldK=F
 IRaf= 880000000 NMat=       1 IRICut=       1 DoRegI=T DoRafI=F ISym2E= 0 IDoP0=0 IntGTp=1.
 FoFCou: FMM=F IPFlag=           0 FMFlag=      100000 FMFlg1=           0
         NFxFlg=           0 DoJE=F BraDBF=F KetDBF=F FulRan=T
         wScrn=  0.000000 ICntrl=         0 IOpCl=  0 I1Cent=           0 NGrid=           0
         NMat0=    1 NMatS0=      1 NMatT0=    0 NMatD0=    1 NMtDS0=    0 NMtDT0=    0
 Symmetry not used in FoFCou.
 Inv3:  Mode=1 IEnd=    12000000.
 Iteration    1 A*A^-1 deviation from unit magnitude is 3.33D-15 for   1099.
 Iteration    1 A*A^-1 deviation from orthogonality  is 3.68D-15 for    769    602.
 Iteration    1 A^-1*A deviation from unit magnitude is 3.33D-15 for   1457.
 Iteration    1 A^-1*A deviation from orthogonality  is 2.08D-14 for    810    808.
 E= -557.455027483592    
 DIIS: error= 4.34D-09 at cycle   1 NSaved=   1.
 NSaved= 1 IEnMin= 1 EnMin= -557.455027483592     IErMin= 1 ErrMin= 4.34D-09
 ErrMax= 4.34D-09  0.00D+00 EMaxC= 1.00D-01 BMatC= 9.09D-15 BMatP= 9.09D-15
 IDIUse=1 WtCom= 1.00D+00 WtEn= 0.00D+00
 Coeff-Com:  0.100D+01
 Coeff:      0.100D+01
 Gap=     0.147 Goal=   None    Shift=    0.000
 RMSDP=5.74D-09 MaxDP=4.30D-07              OVMax= 9.04D-08

 Error on total polarization charges =  0.05314
 SCF Done:  E(RB3LYP) =  -557.455027484     A.U. after    1 cycles
            NFock=  1  Conv=0.57D-08     -V/T= 2.0104
 KE= 5.517333756493D+02 PE=-2.781644835723D+03 EE= 9.205181217254D+02
 SMD-CDS (non-electrostatic) energy       (kcal/mol) =      -0.26
 (included in total energy above)
 Leave Link  502 at Wed Aug 12 16:08:45 2026, MaxMem=   104857600 cpu:              18.6 elap:              18.7
 (Enter /opt/packages/gaussian/g16RevC.01/g16/l801.exe)
 DoSCS=F DFT=T ScalE2(SS,OS)=  1.000000  1.000000
 ExpMin= 4.38D-02 ExpMax= 5.48D+03 ExpMxC= 8.25D+02 IAcc=3 IRadAn=         5 AccDes= 0.00D+00
 HarFok:  IExCor=  205 AccDes= 0.00D+00 IRadAn=         5 IDoV=-2 UseB2=F ITyADJ=14
 ICtDFT= 12500011 ScaDFX=  1.000000  1.000000  1.000000  1.000000
 Largest valence mixing into a core orbital is  5.49D-05
 Largest core mixing into a valence orbital is  1.18D-05
 Range of M.O.s used for correlation:    14   274
 NBasis=   275 NAE=    47 NBE=    47 NFC=    13 NFV=     0
 NROrb=    261 NOA=    34 NOB=    34 NVA=   227 NVB=   227

 **** Warning!!: The largest alpha MO coefficient is  0.21562847D+03

 Leave Link  801 at Wed Aug 12 16:08:46 2026, MaxMem=   104857600 cpu:               0.5 elap:               0.6
 (Enter /opt/packages/gaussian/g16RevC.01/g16/l914.exe)
 RHF ground state
 Two-electron integrals replicated using symmetry.
 MDV=   104857600 DFT=T DoStab=F Mixed=T DoRPA=T DoScal=F NonHer=T
 NEqPCM:  Using equilibrium solvation (IEInf=0, Eps=  32.6130, EpsInf=   1.7657)
 Making orbital integer symmetry assigments:
 Orbital symmetries:
       Occupied  (A) (A) (A) (A) (A) (A) (A) (A) (A) (A) (A) (A)
                 (A) (A) (A) (A) (A) (A) (A) (A) (A) (A) (A) (A)
                 (A) (A) (A) (A) (A) (A) (A) (A) (A) (A) (A) (A)
                 (A) (A) (A) (A) (A) (A) (A) (A) (A) (A) (A)
       Virtual   (A) (A) (A) (A) (A) (A) (A) (A) (A) (A) (A) (A)
                 (A) (A) (A) (A) (A) (A) (A) (A) (A) (A) (A) (A)
                 (A) (A) (A) (A) (A) (A) (A) (A) (A) (A) (A) (A)
                 (A) (A) (A) (A) (A) (A) (A) (A) (A) (A) (A) (A)
                 (A) (A) (A) (A) (A) (A) (A) (A) (A) (A) (A) (A)
                 (A) (A) (A) (A) (A) (A) (A) (A) (A) (A) (A) (A)
                 (A) (A) (A) (A) (A) (A) (A) (A) (A) (A) (A) (A)
                 (A) (A) (A) (A) (A) (A) (A) (A) (A) (A) (A) (A)
                 (A) (A) (A) (A) (A) (A) (A) (A) (A) (A) (A) (A)
                 (A) (A) (A) (A) (A) (A) (A) (A) (A) (A) (A) (A)
                 (A) (A) (A) (A) (A) (A) (A) (A) (A) (A) (A) (A)
                 (A) (A) (A) (A) (A) (A) (A) (A) (A) (A) (A) (A)
                 (A) (A) (A) (A) (A) (A) (A) (A) (A) (A) (A) (A)
                 (A) (A) (A) (A) (A) (A) (A) (A) (A) (A) (A) (A)
                 (A) (A) (A) (A) (A) (A) (A) (A) (A) (A) (A) (A)
                 (A) (A) (A) (A) (A) (A) (A) (A) (A) (A) (A) (A)
                 (A) (A) (A) (A) (A) (A) (A) (A) (A) (A) (A) (A)
                 (A) (A) (A) (A) (A) (A) (A) (A) (A) (A) (A) (A)
                 (A) (A) (A) (A) (A) (A) (A) (A) (A) (A) (A)
 Generating guess from checkpoint file densities.
 Convergence on wavefunction:    0.000001000000000
 Davidson Disk Diagonalization:  ConvIn= 1.00D-06 SkipCon=T Conv= 1.00D-06.
 Max sub-space:  2000 roots to seek:     5 dimension of matrix:        15436
 Iteration     1 Dimension    10 NMult     0 NNew     10
 CISAX will form    10 AO SS matrices at one time.
 NMat=    10 NSing=    10 JSym2X= 0.
 FoFJK:  IHMeth= 1 ICntrl=       0 DoSepK=F KAlg= 0 I1Cent=           0 FoldK=F
 IRaf= 880000000 NMat=      20 IRICut=      25 DoRegI=T DoRafI=T ISym2E= 0 IDoP0=0 IntGTp=1.
 FoFCou: FMM=F IPFlag=           0 FMFlag=      100000 FMFlg1=           0
         NFxFlg=           0 DoJE=F BraDBF=F KetDBF=F FulRan=T
         wScrn=  0.000000 ICntrl=         0 IOpCl=  0 I1Cent=           0 NGrid=           0
         NMat0=   20 NMatS0=     10 NMatT0=    0 NMatD0=   20 NMtDS0=    0 NMtDT0=    0
 Symmetry not used in FoFCou.
 Raff kept on since  87.67% of shell-pairs survive, threshold=   0.20 IRatSp=88.
 Excitation Energies [eV] at current iteration:
 Root      1 :     3.515943687321883
 Root      2 :     4.224715985058912
 Root      3 :     5.158121103500426
 Root      4 :     5.293461007720622
 Root      5 :     5.729805182963141
 Iteration     2 Dimension    20 NMult    10 NNew     10
 CISAX will form    10 AO SS matrices at one time.
 NMat=    10 NSing=    10 JSym2X= 0.
 Root      1 has converged.
 Root      2 has converged.
 Root      3 has converged.
 Root      4 has converged.
 Root      5 has converged.
 Excitation Energies [eV] at current iteration:
 Root      1 :     3.515943685163831   Change is   -0.000000002158052
 Root      2 :     4.224715982024404   Change is   -0.000000003034508
 Root      3 :     5.158121101067025   Change is   -0.000000002433400
 Root      4 :     5.293461005710091   Change is   -0.000000002010531
 Root      5 :     5.729805179076028   Change is   -0.000000003887113
 Convergence achieved on expansion vectors.
 ***********************************************************************
 Excited states from <AA,BB:AA,BB> singles matrix:
 ***********************************************************************
 
 1PDM for each excited state written to RWF  633
 Ground to excited state transition densities written to RWF  633
 Ground to excited state transition electric dipole moments (Au):
       state          X           Y           Z        Dip. S.      Osc.
         1         3.1647     -0.1305     -0.0768     10.0381      0.8647
         2         0.5290     -0.6324      0.0376      0.6812      0.0705
         3        -0.6414      1.2954     -0.0877      2.0971      0.2650
         4         0.2026     -0.8767     -0.0603      0.8134      0.1055
         5        -0.1444      0.0373     -0.0303      0.0232      0.0033
 Ground to excited state transition velocity dipole moments (Au):
       state          X           Y           Z        Dip. S.      Osc.
         1        -0.3974      0.0138      0.0106      0.1582      0.8163
         2        -0.0805      0.0955     -0.0058      0.0156      0.0671
         3         0.1119     -0.2416      0.0158      0.0711      0.2502
         4        -0.0426      0.1655      0.0123      0.0293      0.1006
         5         0.0299     -0.0081      0.0066      0.0010      0.0032
 Ground to excited state transition magnetic dipole moments (Au):
       state          X           Y           Z
         1         0.0200     -0.0189      0.4054
         2         0.0017     -0.0609     -0.6706
         3        -0.0043      0.0294      0.1924
         4         0.0371     -0.0554      0.1542
         5         0.1380     -0.0112     -0.0042
 Ground to excited state transition velocity quadrupole moments (Au):
       state          XX          YY          ZZ          XY          XZ          YZ
         1         0.2301     -0.0865     -0.0209      0.2826      0.0532     -0.0149
         2         0.0739      0.0257     -0.0025      0.0103      0.0141     -0.0058
         3        -0.0515     -0.1458      0.0190      0.5919     -0.0633      0.0150
         4        -1.5184      0.0963      0.0071      0.7099      0.1372     -0.0733
         5        -0.0333     -0.0073      0.0039     -0.0393      0.0197      0.0371
 <0|del|b> * <b|rxdel|0> + <0|del|b> * <b|delr+rdel|0>
 Rotatory Strengths (R) in cgs (10**-40 erg-esu-cm/Gauss)
       state          XX          YY          ZZ    R(velocity)    E-M Angle
         1        17.1685     -2.0424    -36.6874     -7.1871       91.40
         2        -7.5516      9.7845    -11.5638     -3.1103       91.39
         3       -18.6227     -9.5666     11.2421     -5.6491       95.02
         4       -38.6615     -9.5754     16.0647    -10.7241      107.91
         5        -0.0603      9.1753      4.9458      4.6869       17.28
 1/2[<0|r|b>*<b|rxdel|0> + (<0|rxdel|b>*<b|r|0>)*]
 Rotatory Strengths (R) in cgs (10**-40 erg-esu-cm/Gauss)
       state          XX          YY          ZZ     R(length)
         1       -44.8356     -1.7406     22.0279     -8.1828
         2        -0.6283    -27.2424     17.8527     -3.3393
         3        -1.9358    -26.9670     11.9334     -5.6565
         4        -5.3111    -34.3304      6.5807    -11.0203
         5        14.0959      0.2961     -0.0893      4.7676
  1/2[<0|del|b>*<b|r|0> + (<0|r|b>*<b|del|0>)*] (Au)
       state          X           Y           Z        Dip. S.   Osc.(frdel)
         1        -1.2576     -0.0018     -0.0008      1.2602      0.8401
         2        -0.0426     -0.0604     -0.0002      0.1032      0.0688
         3        -0.0717     -0.3130     -0.0014      0.3861      0.2574
         4        -0.0086     -0.1451     -0.0007      0.1544      0.1030
         5        -0.0043     -0.0003     -0.0002      0.0048      0.0032

 Excitation energies and oscillator strengths:
 
 Excited State   1:      Singlet-A      3.5159 eV  352.63 nm  f=0.8647  <S**2>=0.000
      47 -> 48         0.70442
 This state for optimization and/or second-order correction.
 Total Energy, E(TD-HF/TD-DFT) =  -557.325818931    
 Copying the excited state density for this state as the 1-particle RhoCI density.
 
 Excited State   2:      Singlet-A      4.2247 eV  293.47 nm  f=0.0705  <S**2>=0.000
      46 -> 48         0.68510
      47 -> 49        -0.16686
 
 Excited State   3:      Singlet-A      5.1581 eV  240.37 nm  f=0.2650  <S**2>=0.000
      46 -> 48        -0.16486
      47 -> 49        -0.67479
 
 Excited State   4:      Singlet-A      5.2935 eV  234.22 nm  f=0.1055  <S**2>=0.000
      45 -> 48         0.69704
 
 Excited State   5:      Singlet-A      5.7298 eV  216.38 nm  f=0.0033  <S**2>=0.000
      41 -> 48         0.11831
      44 -> 48         0.68942
 SavETr:  write IOETrn=   770 NScale= 10 NData=  16 NLR=1 NState=    5 LETran=     100.
 The selected state is a singlet.
 CISGrd: IGrad=3 NXY=2 DFT=T
 CISAX will form     1 AO SS matrices at one time.
 NMat=     1 NSing=     1 JSym2X= 0.
 GePol: Maximum number of non-zero 1st derivatives   =     254
 GePol: Maximum number of non-zero 2nd derivatives   =     254
 Leave Link  914 at Wed Aug 12 16:12:40 2026, MaxMem=   104857600 cpu:             233.7 elap:             234.7
 (Enter /opt/packages/gaussian/g16RevC.01/g16/l1002.exe)
 Minotr:  Closed shell wavefunction.
          Computing CIS/TDA/TD derivatives.
          Using Z-Vector for PSCF gradient.
          Skipping F1 and S1 gradient terms here.
          IDoAtm=111111111111111111111111111
 NEqPCM:  Using equilibrium solvation (IEInf=0, Eps=  32.6130, EpsInf=   1.7657)
          Frozen-core window.
          Direct CPHF calculation.
          Differentiating once with respect to electric field.
                with respect to dipole field.
          Differentiating once with respect to nuclear coordinates.
          Requested convergence is 1.0D-10 RMS, and 1.0D-09 maximum.
          NewPWx=F KeepS1=T KeepF1=T KeepIn=T MapXYZ=F SortEE=F KeepMc=T.
 Two-electron integral symmetry used by symmetrizing perturbed Fock matrices.
          MDV=     104857600 using IRadAn=       5.
          Solving linear equations separately, MaxMat=     384.
          There are     1 degrees of freedom in the 1st order CPHF.  IDoFFX=0 NUNeed=     1.
 FoFJK:  IHMeth= 1 ICntrl=       0 DoSepK=F KAlg= 0 I1Cent=           0 FoldK=F
 IRaf= 900000000 NMat=       1 IRICut=       1 DoRegI=T DoRafI=F ISym2E=-1 IDoP0=0 IntGTp=1.
 FoFCou: FMM=F IPFlag=           0 FMFlag=      100000 FMFlg1=           0
         NFxFlg=           0 DoJE=F BraDBF=F KetDBF=F FulRan=T
         wScrn=  0.000000 ICntrl=         0 IOpCl=  0 I1Cent=           0 NGrid=           0
         NMat0=    1 NMatS0=      1 NMatT0=    0 NMatD0=    1 NMtDS0=    0 NMtDT0=    0
 Petite list used in FoFCou.
 LinEq1:  Iter=  0 NonCon=     1 RMS=9.60D-03 Max=6.56D-01 NDo=     1
 AX will form     1 AO Fock derivatives at one time.
 LinEq1:  Iter=  1 NonCon=     1 RMS=3.75D-03 Max=2.62D-01 NDo=     1
 LinEq1:  Iter=  2 NonCon=     1 RMS=2.86D-03 Max=1.37D-01 NDo=     1
 LinEq1:  Iter=  3 NonCon=     1 RMS=6.72D-04 Max=2.14D-02 NDo=     1
 LinEq1:  Iter=  4 NonCon=     1 RMS=4.37D-04 Max=1.39D-02 NDo=     1
 LinEq1:  Iter=  5 NonCon=     1 RMS=2.13D-04 Max=8.56D-03 NDo=     1
 LinEq1:  Iter=  6 NonCon=     1 RMS=9.66D-05 Max=2.58D-03 NDo=     1
 LinEq1:  Iter=  7 NonCon=     1 RMS=5.49D-05 Max=1.92D-03 NDo=     1
 LinEq1:  Iter=  8 NonCon=     1 RMS=3.34D-05 Max=9.36D-04 NDo=     1
 LinEq1:  Iter=  9 NonCon=     1 RMS=1.51D-05 Max=5.73D-04 NDo=     1
 LinEq1:  Iter= 10 NonCon=     1 RMS=1.06D-05 Max=3.48D-04 NDo=     1
 LinEq1:  Iter= 11 NonCon=     1 RMS=4.16D-06 Max=1.26D-04 NDo=     1
 LinEq1:  Iter= 12 NonCon=     1 RMS=1.92D-06 Max=4.31D-05 NDo=     1
 LinEq1:  Iter= 13 NonCon=     1 RMS=7.06D-07 Max=1.61D-05 NDo=     1
 LinEq1:  Iter= 14 NonCon=     1 RMS=4.09D-07 Max=8.84D-06 NDo=     1
 LinEq1:  Iter= 15 NonCon=     1 RMS=1.11D-07 Max=2.52D-06 NDo=     1
 LinEq1:  Iter= 16 NonCon=     1 RMS=5.50D-08 Max=1.48D-06 NDo=     1
 LinEq1:  Iter= 17 NonCon=     1 RMS=2.06D-08 Max=4.94D-07 NDo=     1
 LinEq1:  Iter= 18 NonCon=     1 RMS=8.96D-09 Max=1.93D-07 NDo=     1
 LinEq1:  Iter= 19 NonCon=     1 RMS=3.64D-09 Max=5.04D-08 NDo=     1
 LinEq1:  Iter= 20 NonCon=     1 RMS=1.44D-09 Max=6.91D-08 NDo=     1
 LinEq1:  Iter= 21 NonCon=     1 RMS=8.48D-10 Max=2.73D-08 NDo=     1
 LinEq1:  Iter= 22 NonCon=     1 RMS=2.53D-10 Max=7.84D-09 NDo=     1
 LinEq1:  Iter= 23 NonCon=     1 RMS=1.08D-10 Max=2.29D-09 NDo=     1
 LinEq1:  Iter= 24 NonCon=     1 RMS=3.92D-11 Max=1.15D-09 NDo=     1
 LinEq1:  Iter= 25 NonCon=     0 RMS=1.53D-11 Max=2.64D-10 NDo=     1
 Linear equations converged to 1.000D-10 1.000D-09 after    25 iterations.
          There are     1 degrees of freedom in the 1st order CPHF.  IDoFFX=0 NUNeed=     1.
 End of Minotr F.D. properties file   721 does not exist.
 End of Minotr F.D. properties file   722 does not exist.
 End of Minotr F.D. properties file   788 does not exist.
 Leave Link 1002 at Wed Aug 12 16:19:43 2026, MaxMem=   104857600 cpu:             421.6 elap:             423.0
 (Enter /opt/packages/gaussian/g16RevC.01/g16/l1101.exe)
 Using compressed Sx but separate Hx and Fx, NAtomX=    27.
 Will process     28 centers per pass.
 Leave Link 1101 at Wed Aug 12 16:19:44 2026, MaxMem=   104857600 cpu:               0.2 elap:               0.2
 (Enter /opt/packages/gaussian/g16RevC.01/g16/l1102.exe)
 Use density number 6.
 Symmetrizing basis deriv contribution to polar:
 IMax=3 JMax=2 DiffMx= 0.00D+00
 Leave Link 1102 at Wed Aug 12 16:19:44 2026, MaxMem=   104857600 cpu:               0.0 elap:               0.1
 (Enter /opt/packages/gaussian/g16RevC.01/g16/l1110.exe)
 Forming Gx(P) for the SCF density, NAtomX=    27.
 Integral derivatives from FoFJK, PRISM(SPDF).
 Do as many integral derivatives as possible in FoFJK.
 G2DrvN: MDV=     104854683.
 G2DrvN: will do    28 centers at a time, making    1 passes.
 Calling FoFCou, ICntrl=  3107 FMM=F I1Cent=   0 AccDes= 0.00D+00.
 FoFJK:  IHMeth= 1 ICntrl=    3107 DoSepK=F KAlg= 0 I1Cent=           0 FoldK=F
 IRaf=         0 NMat=       1 IRICut=       1 DoRegI=T DoRafI=F ISym2E= 0 IDoP0=0 IntGTp=1.
 FoFCou: FMM=F IPFlag=           0 FMFlag=      100000 FMFlg1=           0
         NFxFlg=           0 DoJE=F BraDBF=F KetDBF=F FulRan=T
         wScrn=  0.000000 ICntrl=      3107 IOpCl=  0 I1Cent=           0 NGrid=           0
         NMat0=    1 NMatS0=      1 NMatT0=    0 NMatD0=    1 NMtDS0=    0 NMtDT0=    0
 Symmetry not used in FoFCou.
 NEqPCM:  Using equilibrium solvation (IEInf=0, Eps=  32.6130, EpsInf=   1.7657)
 G2PCM: DoFxE=T DoFxN=T DoGrad=T DoDP/DQ/DG/TGxP=FFFF NFrqRd=   0 IEInf=0 SqF1=F DoCFld=F IF1Alg=4.
 Forming Gx(P) for generalized density number  6 NAtomX=    27.
 Integral derivatives from FoFJK, PRISM(SPDF).
 Do as many integral derivatives as possible in FoFJK.
 G2DrvN: MDV=     104854683.
 G2DrvN: will do    28 centers at a time, making    1 passes.
 Calling FoFCou, ICntrl=  3107 FMM=F I1Cent=   0 AccDes= 0.00D+00.
 NEqPCM:  Using equilibrium solvation (IEInf=0, Eps=  32.6130, EpsInf=   1.7657)
 G2PCM: DoFxE=T DoFxN=F DoGrad=F DoDP/DQ/DG/TGxP=FFFF NFrqRd=   0 IEInf=0 SqF1=F DoCFld=F IF1Alg=4.
 Forming Gx(T) for CIS/TDA/TD state  1 NAtomX=    27.
 Integral derivatives from FoFJK, PRISM(SPDF).
 Do as many integral derivatives as possible in FoFJK.
 G2DrvN: MDV=     104854683.
 G2DrvN: will do    28 centers at a time, making    1 passes.
 Calling FoFCou, ICntrl=  3107 FMM=F I1Cent=   0 AccDes= 0.00D+00.
 NEqPCM:  Using equilibrium solvation (IEInf=0, Eps=  32.6130, EpsInf=   1.7657)
 G2PCM: DoFxE=T DoFxN=F DoGrad=F DoDP/DQ/DG/TGxP=FFFF NFrqRd=   0 IEInf=0 SqF1=T DoCFld=F IF1Alg=4.
 End of G2Drv F.D. properties file   721 does not exist.
 End of G2Drv F.D. properties file   722 does not exist.
 End of G2Drv F.D. properties file   788 does not exist.
 Leave Link 1110 at Wed Aug 12 16:37:06 2026, MaxMem=   104857600 cpu:            1035.4 elap:            1039.8
 (Enter /opt/packages/gaussian/g16RevC.01/g16/l1002.exe)
 Minotr:  Closed shell wavefunction.
          IDoAtm=111111111111111111111111111
 NEqPCM:  Using equilibrium solvation (IEInf=0, Eps=  32.6130, EpsInf=   1.7657)
          Frozen-core window.
          Direct CPHF calculation.
          Differentiating once with respect to electric field.
                with respect to dipole field.
          Differentiating once with respect to nuclear coordinates.
          Requested convergence is 1.0D-08 RMS, and 1.0D-07 maximum.
          Secondary convergence is 1.0D-12 RMS, and 1.0D-12 maximum.
          NewPWx=T KeepS1=T KeepF1=T KeepIn=T MapXYZ=F SortEE=F KeepMc=T.
         8348 words used for storage of precomputed grid.
 Two-electron integrals replicated using symmetry.
          MDV=     104857600 using IRadAn=       1.
          Solving linear equations simultaneously, MaxMat=     384.
 FoF2E skips out because all densities are zero.
 CalDSu exits because no D1Ps are significant.
 FoFJK:  IHMeth= 1 ICntrl=       0 DoSepK=F KAlg= 0 I1Cent=           0 FoldK=F
 IRaf= 880000000 NMat=      81 IRICut=     202 DoRegI=T DoRafI=T ISym2E= 2 IDoP0=0 IntGTp=1.
          There are    84 degrees of freedom in the 1st order CPHF.  IDoFFX=6 NUNeed=    84.
     81 vectors produced by pass  0 Test12= 1.27D-14 1.19D-09 XBig12= 3.86D+02 1.69D+01.
 AX will form    81 AO Fock derivatives at one time.
     81 vectors produced by pass  1 Test12= 1.27D-14 1.19D-09 XBig12= 5.36D+01 2.24D+00.
     81 vectors produced by pass  2 Test12= 1.27D-14 1.19D-09 XBig12= 3.17D-01 7.62D-02.
     81 vectors produced by pass  3 Test12= 1.27D-14 1.19D-09 XBig12= 7.14D-04 2.12D-03.
     81 vectors produced by pass  4 Test12= 1.27D-14 1.19D-09 XBig12= 1.73D-06 1.14D-04.
     63 vectors produced by pass  5 Test12= 1.27D-14 1.19D-09 XBig12= 2.13D-09 4.11D-06.
     11 vectors produced by pass  6 Test12= 1.27D-14 1.19D-09 XBig12= 2.12D-12 1.30D-07.
      2 vectors produced by pass  7 Test12= 1.27D-14 1.19D-09 XBig12= 1.94D-15 4.07D-09.
 InvSVY:  IOpt=1 It=  1 EMax= 1.78D-14
 Solved reduced A of dimension   481 with    84 vectors.
 FullF1:  Do perturbations      1 to      84.
 Isotropic polarizability for W=    0.000000      216.38 Bohr**3.
 Saving first derivative matrices.
 End of Minotr F.D. properties file   721 does not exist.
 End of Minotr F.D. properties file   722 does not exist.
 End of Minotr F.D. properties file   788 does not exist.
 Leave Link 1002 at Wed Aug 12 16:50:06 2026, MaxMem=   104857600 cpu:             777.5 elap:             780.4
 (Enter /opt/packages/gaussian/g16RevC.01/g16/l1014.exe)
 This link is doing    84 degrees of freedom
 Form MO integral derivatives with frozen-active canonical formalism.
 CISSec: MDV=     104844524
 Doing TD-HF/TD-DFT second derivatives, IDoFFX=6 IOneXC=4 IRadAn=         1.
 Frozen orbitals handled with amplitudes over full window.
 Frozen-core window:  NFC=  13 NFV=   0.
 Symmetry is being used.
 Would need an additional          2066200000 words for in-memory AO integral storage.
 The selected state is a singlet.
 CISGrX: IGrad=3 NXY=2 DFT=T
 CISAX will form    84 AO SS matrices at one time.
 NMat=    84 NSing=    84 JSym2X= 0.
 FoFJK:  IHMeth= 1 ICntrl=       0 DoSepK=F KAlg= 0 I1Cent=           0 FoldK=F
 IRaf= 880000000 NMat=     168 IRICut=     210 DoRegI=T DoRafI=T ISym2E= 0 IDoP0=0 IntGTp=1.
 FoFCou: FMM=F IPFlag=           0 FMFlag=      100000 FMFlg1=           0
         NFxFlg=           0 DoJE=F BraDBF=F KetDBF=F FulRan=T
         wScrn=  0.000000 ICntrl=         0 IOpCl=  0 I1Cent=           0 NGrid=           0
         NMat0=  168 NMatS0=     84 NMatT0=    0 NMatD0=  168 NMtDS0=    0 NMtDT0=    0
 Symmetry not used in FoFCou.
 Raff kept on since  90.03% of shell-pairs survive, threshold=   0.20 IRatSp=90.
     81 vectors produced by pass  0 Test12= 1.84D-14 1.19D-09 XBig12= 5.45D+02 1.38D+01.
 AX will form    81 AO Fock derivatives at one time.
     81 vectors produced by pass  1 Test12= 1.84D-14 1.19D-09 XBig12= 3.18D+04 7.56D+01.
     81 vectors produced by pass  2 Test12= 1.84D-14 1.19D-09 XBig12= 1.50D+03 6.93D+00.
     81 vectors produced by pass  3 Test12= 1.84D-14 1.19D-09 XBig12= 6.75D+00 3.96D-01.
     81 vectors produced by pass  4 Test12= 1.84D-14 1.19D-09 XBig12= 2.40D-02 1.47D-02.
     67 vectors produced by pass  5 Test12= 1.84D-14 1.19D-09 XBig12= 4.43D-05 5.35D-04.
     21 vectors produced by pass  6 Test12= 1.84D-14 1.19D-09 XBig12= 6.10D-08 2.13D-05.
      2 vectors produced by pass  7 Test12= 1.84D-14 1.19D-09 XBig12= 8.37D-11 7.68D-07.
      1 vectors produced by pass  8 Test12= 1.84D-14 1.19D-09 XBig12= 1.23D-13 2.37D-08.
      1 vectors produced by pass  9 Test12= 1.84D-14 1.19D-09 XBig12= 1.84D-16 1.21D-09.
 InvSVY:  IOpt=1 It=  1 EMax= 4.97D-14
 Solved reduced A of dimension   497 with    84 vectors.
 Tx.T = -2.08D-05 for pert.     1
 Tx.T =  7.10D-06 for pert.    12
 Tx.T = -3.41D-06 for pert.     3
 Tx.T = -3.25D-06 for pert.    15
 Tx.T = -2.78D-06 for pert.     9
 Tx.T = -1.68D-06 for pert.    18
 Tx.T = -1.53D-06 for pert.     2
 Tx.T =  1.25D-06 for pert.    51
 Tx.T =  1.22D-06 for pert.    49
 Tx.T = -1.11D-06 for pert.    13
 SavDET:  read IOETrn=   770 NScale= 10 NData=  16 NLR=1 NState=    5 NDeriv=    0 LETran=     100.
 SavDET: write IOETrn=   770 NScale= 10 NData=  16 NLR=1 NState=    5 NDeriv=   84 LETran=    1444.
 TDDxLx will form    84 C1x/S1x matrices at one time.
 Interchange theorem applied.
 D1PCM: PCM CHGder 1st derivatives, ID1Alg=3 FixD1E=F DoIter=F DoCFld=F I1PDM=6.
 Leave Link 1014 at Wed Aug 12 17:13:18 2026, MaxMem=   104857600 cpu:            1368.4 elap:            1391.0
 (Enter /opt/packages/gaussian/g16RevC.01/g16/l601.exe)
 Copying SCF densities to generalized density rwf, IOpCl= 0 IROHF=0.

 **********************************************************************

            Population analysis using the SCF Density.

 **********************************************************************

 Orbital symmetries:
       Occupied  (A) (A) (A) (A) (A) (A) (A) (A) (A) (A) (A) (A)
                 (A) (A) (A) (A) (A) (A) (A) (A) (A) (A) (A) (A)
                 (A) (A) (A) (A) (A) (A) (A) (A) (A) (A) (A) (A)
                 (A) (A) (A) (A) (A) (A) (A) (A) (A) (A) (A)
       Virtual   (A) (A) (A) (A) (A) (A) (A) (A) (A) (A) (A) (A)
                 (A) (A) (A) (A) (A) (A) (A) (A) (A) (A) (A) (A)
                 (A) (A) (A) (A) (A) (A) (A) (A) (A) (A) (A) (A)
                 (A) (A) (A) (A) (A) (A) (A) (A) (A) (A) (A) (A)
                 (A) (A) (A) (A) (A) (A) (A) (A) (A) (A) (A) (A)
                 (A) (A) (A) (A) (A) (A) (A) (A) (A) (A) (A) (A)
                 (A) (A) (A) (A) (A) (A) (A) (A) (A) (A) (A) (A)
                 (A) (A) (A) (A) (A) (A) (A) (A) (A) (A) (A) (A)
                 (A) (A) (A) (A) (A) (A) (A) (A) (A) (A) (A) (A)
                 (A) (A) (A) (A) (A) (A) (A) (A) (A) (A) (A) (A)
                 (A) (A) (A) (A) (A) (A) (A) (A) (A) (A) (A) (A)
                 (A) (A) (A) (A) (A) (A) (A) (A) (A) (A) (A) (A)
                 (A) (A) (A) (A) (A) (A) (A) (A) (A) (A) (A) (A)
                 (A) (A) (A) (A) (A) (A) (A) (A) (A) (A) (A) (A)
                 (A) (A) (A) (A) (A) (A) (A) (A) (A) (A) (A) (A)
                 (A) (A) (A) (A) (A) (A) (A) (A) (A) (A) (A) (A)
                 (A) (A) (A) (A) (A) (A) (A) (A) (A) (A) (A) (A)
                 (A) (A) (A) (A) (A) (A) (A) (A) (A) (A) (A) (A)
                 (A) (A) (A) (A) (A) (A) (A) (A) (A) (A) (A)
 The electronic state is 1-A.
 Alpha  occ. eigenvalues --  -19.21226 -14.41588 -10.30283 -10.28827 -10.24158
 Alpha  occ. eigenvalues --  -10.23593 -10.23010 -10.22948 -10.22328 -10.21408
 Alpha  occ. eigenvalues --  -10.21365 -10.21020 -10.20086  -1.09589  -0.99836
 Alpha  occ. eigenvalues --   -0.87687  -0.80543  -0.79815  -0.77604  -0.74903
 Alpha  occ. eigenvalues --   -0.70634  -0.64403  -0.63202  -0.61461  -0.60573
 Alpha  occ. eigenvalues --   -0.56444  -0.54140  -0.51140  -0.50145  -0.48142
 Alpha  occ. eigenvalues --   -0.47458  -0.45825  -0.45228  -0.44008  -0.43038
 Alpha  occ. eigenvalues --   -0.42587  -0.41153  -0.40635  -0.38987  -0.38379
 Alpha  occ. eigenvalues --   -0.37410  -0.36771  -0.34661  -0.34459  -0.31610
 Alpha  occ. eigenvalues --   -0.28230  -0.24507
 Alpha virt. eigenvalues --   -0.09789  -0.02900   0.00213   0.00951   0.01590
 Alpha virt. eigenvalues --    0.02203   0.02839   0.03052   0.03367   0.04223
 Alpha virt. eigenvalues --    0.04866   0.05135   0.05286   0.06461   0.06986
 Alpha virt. eigenvalues --    0.07370   0.07900   0.08200   0.09451   0.09930
 Alpha virt. eigenvalues --    0.10613   0.11195   0.11488   0.12122   0.12303
 Alpha virt. eigenvalues --    0.12517   0.13145   0.13741   0.14006   0.14208
 Alpha virt. eigenvalues --    0.14778   0.15107   0.15599   0.16179   0.16739
 Alpha virt. eigenvalues --    0.17329   0.17985   0.18132   0.18630   0.19352
 Alpha virt. eigenvalues --    0.19817   0.20227   0.20738   0.20972   0.21327
 Alpha virt. eigenvalues --    0.22075   0.22533   0.23133   0.23695   0.23902
 Alpha virt. eigenvalues --    0.24284   0.25039   0.25178   0.25824   0.26112
 Alpha virt. eigenvalues --    0.26624   0.27191   0.28115   0.28314   0.28777
 Alpha virt. eigenvalues --    0.29686   0.29801   0.30130   0.30772   0.30892
 Alpha virt. eigenvalues --    0.31564   0.31826   0.32903   0.33305   0.34082
 Alpha virt. eigenvalues --    0.35136   0.35552   0.36208   0.37759   0.39266
 Alpha virt. eigenvalues --    0.40254   0.42234   0.42749   0.44436   0.45531
 Alpha virt. eigenvalues --    0.46085   0.55133   0.58137   0.62907   0.65295
 Alpha virt. eigenvalues --    0.66014   0.66374   0.66750   0.67712   0.68123
 Alpha virt. eigenvalues --    0.68623   0.68811   0.69720   0.70872   0.71774
 Alpha virt. eigenvalues --    0.71869   0.72598   0.74268   0.74889   0.75124
 Alpha virt. eigenvalues --    0.75640   0.77379   0.79417   0.82586   0.83460
 Alpha virt. eigenvalues --    0.85149   0.87539   0.90101   0.91586   0.92160
 Alpha virt. eigenvalues --    0.92724   0.94241   0.95101   0.96169   0.96869
 Alpha virt. eigenvalues --    0.97808   0.98386   1.00619   1.02957   1.03502
 Alpha virt. eigenvalues --    1.05247   1.05981   1.06926   1.08840   1.09548
 Alpha virt. eigenvalues --    1.10556   1.12593   1.13428   1.14933   1.15355
 Alpha virt. eigenvalues --    1.17821   1.19768   1.20904   1.21779   1.22166
 Alpha virt. eigenvalues --    1.24739   1.26725   1.28245   1.28845   1.32911
 Alpha virt. eigenvalues --    1.33065   1.35323   1.38817   1.40727   1.41702
 Alpha virt. eigenvalues --    1.42714   1.43220   1.44395   1.47234   1.48107
 Alpha virt. eigenvalues --    1.53193   1.54382   1.54787   1.60080   1.63742
 Alpha virt. eigenvalues --    1.70336   1.72850   1.75188   1.77648   1.80146
 Alpha virt. eigenvalues --    1.81399   1.82607   1.86138   1.87202   1.88325
 Alpha virt. eigenvalues --    1.91439   1.93126   1.93352   1.96247   1.98034
 Alpha virt. eigenvalues --    1.99703   2.01104   2.02072   2.04114   2.05828
 Alpha virt. eigenvalues --    2.08356   2.09674   2.10225   2.11797   2.13710
 Alpha virt. eigenvalues --    2.17072   2.19076   2.19934   2.21527   2.23045
 Alpha virt. eigenvalues --    2.27423   2.29186   2.29307   2.30132   2.33514
 Alpha virt. eigenvalues --    2.36667   2.36931   2.41674   2.45703   2.49193
 Alpha virt. eigenvalues --    2.52274   2.53628   2.56505   2.58647   2.60967
 Alpha virt. eigenvalues --    2.62208   2.66584   2.69151   2.74303   2.75591
 Alpha virt. eigenvalues --    2.77922   2.81292   2.82383   2.87035   3.01770
 Alpha virt. eigenvalues --    3.02423   3.09515   3.22609   3.38406   4.08057
 Alpha virt. eigenvalues --    4.22277   4.24549   4.25237   4.27666   4.31341
 Alpha virt. eigenvalues --    4.35442   4.37293   4.42907   4.48795   4.56470
 Alpha virt. eigenvalues --    4.62821   4.77822
          Condensed to atoms (all electrons):
               1          2          3          4          5          6
     1  C    6.812070  -0.002941   0.366106  -1.120240  -0.044546  -0.141346
     2  C   -0.002941  13.388755  -7.203128   0.422371   0.894227  -1.301585
     3  C    0.366106  -7.203128  19.154884  -2.825953  -4.826137  -0.386698
     4  C   -1.120240   0.422371  -2.825953   9.950161  -1.102460   1.295819
     5  C   -0.044546   0.894227  -4.826137  -1.102460  14.269357  -2.673826
     6  C   -0.141346  -1.301585  -0.386698   1.295819  -2.673826  10.887685
     7  H   -0.065069   0.023489  -0.022777   0.040463  -0.076548   0.408395
     8  H   -0.036238   0.236359   0.083404   0.027448  -0.017101   0.022115
     9  H    0.005271  -0.004656   0.283762  -0.051374   0.023905  -0.027261
    10  H    0.030299  -0.028516   0.034051  -0.040678   0.316748  -0.021409
    11  O    0.408966   0.233731  -0.078310  -0.026484   0.012204  -0.559755
    12  C   -0.127183  -0.178149   0.041623  -0.024361   0.017086   0.092120
    13  H   -0.050328   0.008316   0.035693  -0.001038  -0.001081  -0.001934
    14  H   -0.053967   0.011444   0.034278  -0.000145   0.001890  -0.004607
    15  H    0.034126  -0.036608  -0.012396  -0.000160   0.000335   0.022083
    16  C    0.056766  -0.831435   0.952693  -0.556349   1.032544  -0.527001
    17  C    0.043109  -0.564272   1.041084  -0.667726  -0.898455  -0.332387
    18  N   -0.020940   0.199386  -0.188212   0.217016  -0.032569   0.032569
    19  C    0.000586  -0.000095  -0.183727  -0.046776   0.119347  -0.047184
    20  C   -0.002011   0.031908   0.170733   0.019696  -0.165391  -0.025705
    21  H   -0.000847   0.001844  -0.004904  -0.030372  -0.005672   0.002722
    22  H   -0.000427   0.008357   0.002734  -0.008059   0.000282  -0.005872
    23  H   -0.000228   0.003248   0.011427  -0.007490  -0.007049   0.000301
    24  H    0.000035  -0.002437  -0.007083   0.001277   0.001714  -0.000096
    25  H   -0.000059   0.001625   0.010111   0.001948  -0.007818  -0.000265
    26  H    0.000058  -0.000446   0.000075   0.001197  -0.001530  -0.000545
    27  H    0.001358   0.046879   0.062533  -0.057685  -0.031483  -0.001382
               7          8          9         10         11         12
     1  C   -0.065069  -0.036238   0.005271   0.030299   0.408966  -0.127183
     2  C    0.023489   0.236359  -0.004656  -0.028516   0.233731  -0.178149
     3  C   -0.022777   0.083404   0.283762   0.034051  -0.078310   0.041623
     4  C    0.040463   0.027448  -0.051374  -0.040678  -0.026484  -0.024361
     5  C   -0.076548  -0.017101   0.023905   0.316748   0.012204   0.017086
     6  C    0.408395   0.022115  -0.027261  -0.021409  -0.559755   0.092120
     7  H    0.465657  -0.000097   0.000011  -0.003658  -0.003430  -0.001223
     8  H   -0.000097   0.463928  -0.004058   0.000012  -0.010822  -0.002688
     9  H    0.000011  -0.004058   0.475286  -0.000096  -0.000631   0.000622
    10  H   -0.003658   0.000012  -0.000096   0.466205  -0.000437   0.000294
    11  O   -0.003430  -0.010822  -0.000631  -0.000437   8.479796   0.066645
    12  C   -0.001223  -0.002688   0.000622   0.000294   0.066645   5.291457
    13  H    0.000001  -0.000713   0.000003   0.000000  -0.033499   0.384658
    14  H    0.000002  -0.000809   0.000002   0.000000  -0.032882   0.384344
    15  H   -0.000007   0.000112  -0.000000  -0.000000  -0.051682   0.392939
    16  C   -0.002511  -0.002438   0.040261  -0.001208  -0.004563   0.002917
    17  C    0.000522  -0.000042   0.015104   0.002197  -0.001016  -0.000109
    18  N    0.000082   0.000399   0.000733   0.000131  -0.000017  -0.000076
    19  C   -0.000002   0.000055   0.006743   0.000787  -0.000064   0.000188
    20  C   -0.000055  -0.000013  -0.001019  -0.000027   0.000088  -0.000099
    21  H    0.000001  -0.000000   0.000000  -0.000224   0.000001  -0.000008
    22  H   -0.000000  -0.000000  -0.000002  -0.000761  -0.000000   0.000004
    23  H    0.000000   0.000000  -0.000002  -0.000000   0.000000   0.000000
    24  H    0.000000   0.000000   0.000001   0.000000  -0.000000  -0.000000
    25  H    0.000000   0.000000  -0.000001  -0.000004   0.000000   0.000000
    26  H    0.000000   0.000000   0.000000   0.000001  -0.000000  -0.000000
    27  H    0.000000  -0.000001   0.003933  -0.000001  -0.000002   0.000015
              13         14         15         16         17         18
     1  C   -0.050328  -0.053967   0.034126   0.056766   0.043109  -0.020940
     2  C    0.008316   0.011444  -0.036608  -0.831435  -0.564272   0.199386
     3  C    0.035693   0.034278  -0.012396   0.952693   1.041084  -0.188212
     4  C   -0.001038  -0.000145  -0.000160  -0.556349  -0.667726   0.217016
     5  C   -0.001081   0.001890   0.000335   1.032544  -0.898455  -0.032569
     6  C   -0.001934  -0.004607   0.022083  -0.527001  -0.332387   0.032569
     7  H    0.000001   0.000002  -0.000007  -0.002511   0.000522   0.000082
     8  H   -0.000713  -0.000809   0.000112  -0.002438  -0.000042   0.000399
     9  H    0.000003   0.000002  -0.000000   0.040261   0.015104   0.000733
    10  H    0.000000   0.000000  -0.000000  -0.001208   0.002197   0.000131
    11  O   -0.033499  -0.032882  -0.051682  -0.004563  -0.001016  -0.000017
    12  C    0.384658   0.384344   0.392939   0.002917  -0.000109  -0.000076
    13  H    0.478654  -0.035599  -0.024457   0.000450   0.000020  -0.000001
    14  H   -0.035599   0.478660  -0.024747   0.000579   0.000011   0.000004
    15  H   -0.024457  -0.024747   0.461465  -0.000132  -0.000005  -0.000000
    16  C    0.000450   0.000579  -0.000132   6.838484  -1.471715   0.295995
    17  C    0.000020   0.000011  -0.000005  -1.471715   9.438384  -0.382391
    18  N   -0.000001   0.000004  -0.000000   0.295995  -0.382391   6.992739
    19  C   -0.000004   0.000005  -0.000000  -0.449640   0.345325   0.078798
    20  C    0.000004  -0.000004   0.000000   0.264997  -0.909386  -0.063811
    21  H    0.000000  -0.000000   0.000000  -0.098013   0.445515   0.010382
    22  H   -0.000000   0.000000   0.000000   0.022492   0.292695   0.004049
    23  H    0.000000  -0.000000   0.000000  -0.006246   0.005015  -0.037657
    24  H   -0.000000   0.000000  -0.000000  -0.014817   0.048031  -0.041232
    25  H   -0.000000   0.000000  -0.000000   0.037463  -0.126077   0.015225
    26  H    0.000000  -0.000000   0.000000   0.013798  -0.070604   0.005528
    27  H    0.000000   0.000000  -0.000000  -0.019959  -0.017131   0.262502
              19         20         21         22         23         24
     1  C    0.000586  -0.002011  -0.000847  -0.000427  -0.000228   0.000035
     2  C   -0.000095   0.031908   0.001844   0.008357   0.003248  -0.002437
     3  C   -0.183727   0.170733  -0.004904   0.002734   0.011427  -0.007083
     4  C   -0.046776   0.019696  -0.030372  -0.008059  -0.007490   0.001277
     5  C    0.119347  -0.165391  -0.005672   0.000282  -0.007049   0.001714
     6  C   -0.047184  -0.025705   0.002722  -0.005872   0.000301  -0.000096
     7  H   -0.000002  -0.000055   0.000001  -0.000000   0.000000   0.000000
     8  H    0.000055  -0.000013  -0.000000  -0.000000   0.000000   0.000000
     9  H    0.006743  -0.001019   0.000000  -0.000002  -0.000002   0.000001
    10  H    0.000787  -0.000027  -0.000224  -0.000761  -0.000000   0.000000
    11  O   -0.000064   0.000088   0.000001  -0.000000   0.000000  -0.000000
    12  C    0.000188  -0.000099  -0.000008   0.000004   0.000000  -0.000000
    13  H   -0.000004   0.000004   0.000000  -0.000000   0.000000  -0.000000
    14  H    0.000005  -0.000004  -0.000000   0.000000  -0.000000   0.000000
    15  H   -0.000000   0.000000   0.000000   0.000000   0.000000  -0.000000
    16  C   -0.449640   0.264997  -0.098013   0.022492  -0.006246  -0.014817
    17  C    0.345325  -0.909386   0.445515   0.292695   0.005015   0.048031
    18  N    0.078798  -0.063811   0.010382   0.004049  -0.037657  -0.041232
    19  C    6.092404  -0.295674   0.027112  -0.001393   0.402339   0.426149
    20  C   -0.295674   6.827652  -0.028777  -0.009604  -0.054370  -0.085262
    21  H    0.027112  -0.028777   0.436424  -0.024700  -0.000210  -0.000042
    22  H   -0.001393  -0.009604  -0.024700   0.433274   0.001569  -0.000167
    23  H    0.402339  -0.054370  -0.000210   0.001569   0.472838  -0.033389
    24  H    0.426149  -0.085262  -0.000042  -0.000167  -0.033389   0.467673
    25  H   -0.090936   0.477985  -0.005302   0.003108   0.003198  -0.005449
    26  H   -0.044951   0.424740   0.000871  -0.004835  -0.003370   0.001156
    27  H   -0.037641   0.025017  -0.000074  -0.000197   0.000059  -0.000866
              25         26         27
     1  C   -0.000059   0.000058   0.001358
     2  C    0.001625  -0.000446   0.046879
     3  C    0.010111   0.000075   0.062533
     4  C    0.001948   0.001197  -0.057685
     5  C   -0.007818  -0.001530  -0.031483
     6  C   -0.000265  -0.000545  -0.001382
     7  H    0.000000   0.000000   0.000000
     8  H    0.000000   0.000000  -0.000001
     9  H   -0.000001   0.000000   0.003933
    10  H   -0.000004   0.000001  -0.000001
    11  O    0.000000  -0.000000  -0.000002
    12  C    0.000000  -0.000000   0.000015
    13  H   -0.000000   0.000000   0.000000
    14  H    0.000000  -0.000000   0.000000
    15  H   -0.000000   0.000000  -0.000000
    16  C    0.037463   0.013798  -0.019959
    17  C   -0.126077  -0.070604  -0.017131
    18  N    0.015225   0.005528   0.262502
    19  C   -0.090936  -0.044951  -0.037641
    20  C    0.477985   0.424740   0.025017
    21  H   -0.005302   0.000871  -0.000074
    22  H    0.003108  -0.004835  -0.000197
    23  H    0.003198  -0.003370   0.000059
    24  H   -0.005449   0.001156  -0.000866
    25  H    0.463031  -0.025193  -0.000167
    26  H   -0.025193   0.461843  -0.000082
    27  H   -0.000167  -0.000082   0.281179
 Mulliken charges:
               1
     1  C   -0.092379
     2  C    0.642329
     3  C   -0.545869
     4  C    0.589955
     5  C   -0.797971
     6  C   -0.704951
     7  H    0.236753
     8  H    0.241188
     9  H    0.233463
    10  H    0.246295
    11  O   -0.397836
    12  C   -0.341015
    13  H    0.240854
    14  H    0.241539
    15  H    0.239134
    16  C    0.426587
    17  C   -0.235697
    18  N   -0.348631
    19  C   -0.301748
    20  C   -0.601610
    21  H    0.274273
    22  H    0.287453
    23  H    0.250017
    24  H    0.244804
    25  H    0.247576
    26  H    0.242292
    27  H    0.483194
 Sum of Mulliken charges =   1.00000
 Mulliken charges with hydrogens summed into heavy atoms:
               1
     1  C   -0.092379
     2  C    0.883517
     3  C   -0.312406
     4  C    0.589955
     5  C   -0.551676
     6  C   -0.468198
    11  O   -0.397836
    12  C    0.380513
    16  C    0.426587
    17  C    0.326029
    18  N    0.134564
    19  C    0.193073
    20  C   -0.111742
 APT charges:
               1
     1  C    0.278624
     2  C    0.154306
     3  C   -0.505381
     4  C    1.321177
     5  C   -0.959713
     6  C    0.572936
     7  H    0.106685
     8  H    0.121266
     9  H    0.085361
    10  H    0.101730
    11  O   -0.861162
    12  C    0.600754
    13  H   -0.020416
    14  H   -0.019462
    15  H    0.022175
    16  C   -0.270221
    17  C    0.135641
    18  N   -0.389275
    19  C    0.160611
    20  C    0.108059
    21  H    0.004965
    22  H   -0.042358
    23  H   -0.017764
    24  H    0.029309
    25  H   -0.017617
    26  H   -0.012874
    27  H    0.312644
 Sum of APT charges =   1.00000
 APT charges with hydrogens summed into heavy atoms:
               1
     1  C    0.278624
     2  C    0.275571
     3  C   -0.420019
     4  C    1.321177
     5  C   -0.857983
     6  C    0.679621
    11  O   -0.861162
    12  C    0.583051
    16  C   -0.270221
    17  C    0.098248
    18  N   -0.076631
    19  C    0.172156
    20  C    0.077569
 Electronic spatial extent (au):  <R**2>=           3413.9241
 Charge=              1.0000 electrons
 Dipole moment (field-independent basis, Debye):
    X=              5.3335    Y=             -3.3250    Z=             -0.6191  Tot=              6.3155
 Quadrupole moment (field-independent basis, Debye-Ang):
   XX=            -24.0610   YY=            -58.8679   ZZ=            -77.5647
   XY=              4.9321   XZ=             -2.8448   YZ=              0.4971
 Traceless Quadrupole moment (field-independent basis, Debye-Ang):
   XX=             29.4369   YY=             -5.3700   ZZ=            -24.0668
   XY=              4.9321   XZ=             -2.8448   YZ=              0.4971
 Octapole moment (field-independent basis, Debye-Ang**2):
  XXX=              6.7695  YYY=            -11.6395  ZZZ=             -0.6407  XYY=             12.5327
  XXY=            -47.6005  XXZ=             -2.8130  XZZ=              6.2919  YZZ=             -1.5662
  YYZ=             -3.2420  XYZ=              3.3582
 Hexadecapole moment (field-independent basis, Debye-Ang**3):
 XXXX=          -2834.0018 YYYY=           -470.2923 ZZZZ=           -121.0931 XXXY=            103.3175
 XXXZ=            -37.1578 YYYX=            -28.3976 YYYZ=              0.7545 ZZZX=             -3.8740
 ZZZY=              2.8079 XXYY=           -642.8678 XXZZ=           -643.1413 YYZZ=           -114.7865
 XXYZ=              1.0537 YYXZ=             -5.8390 ZZXY=              4.1504
 N-N= 7.519383108650D+02 E-N=-2.781644833393D+03  KE= 5.517333756493D+02
  Exact polarizability:     368.209     -24.744     207.922      -4.904      -3.137     122.666
 Approx polarizability:     341.134     -25.419     211.875      -3.086      -4.053     124.293
 No NMR shielding tensors so no spin-rotation constants.
 Leave Link  601 at Wed Aug 12 17:13:18 2026, MaxMem=   104857600 cpu:               0.1 elap:               0.1
 (Enter /opt/packages/gaussian/g16RevC.01/g16/l701.exe)
 ... and contract with generalized density number  6.
 Compute integral second derivatives.
 D2PCM: PCM CHGder 2nd derivatives, FixD1E=F FixD2E=F DoIter=F DoCFld=F I1PDM=6
 Compute integral first derivatives.
 D1PCM: PCM CHGder 1st derivatives, ID1Alg=3 FixD1E=F DoIter=F DoCFld=F I1PDM=6.
 Leave Link  701 at Wed Aug 12 17:14:18 2026, MaxMem=   104857600 cpu:              59.9 elap:              60.1
 (Enter /opt/packages/gaussian/g16RevC.01/g16/l702.exe)
 L702 exits ... SP integral derivatives will be done elsewhere.
 Leave Link  702 at Wed Aug 12 17:14:18 2026, MaxMem=   104857600 cpu:               0.0 elap:               0.0
 (Enter /opt/packages/gaussian/g16RevC.01/g16/l703.exe)
 Integral derivatives from FoFJK, PRISM(SPDF).
 Compute integral second derivatives, UseDBF=F ICtDFT=           0.
 Calling FoFJK, ICntrl=  10105127 FMM=F ISym2X=0 I1Cent= 0 IOpClX= 0 NMat=1 NMatS=1 NMatT=0.
 FoFJK:  IHMeth= 1 ICntrl=10105127 DoSepK=F KAlg= 0 I1Cent=           0 FoldK=F
 IRaf=         0 NMat=       1 IRICut=       1 DoRegI=T DoRafI=F ISym2E= 0 IDoP0=0 IntGTp=1.
 FoFCou: FMM=F IPFlag=           0 FMFlag=      100000 FMFlg1=         800
         NFxFlg=           0 DoJE=F BraDBF=F KetDBF=F FulRan=T
         wScrn=  0.000000 ICntrl=  10105127 IOpCl=  0 I1Cent=           0 NGrid=           0
         NMat0=    1 NMatS0=      1 NMatT0=    0 NMatD0=    1 NMtDS0=    0 NMtDT0=    0
 Symmetry not used in FoFCou.
 Compute integral first derivatives, UseDBF=F ICtDFT=           0.
 Calling FoFJK, ICntrl=  10002127 FMM=F ISym2X=0 I1Cent= 0 IOpClX= 0 NMat=1 NMatS=1 NMatT=0.
 Leave Link  703 at Wed Aug 12 17:32:35 2026, MaxMem=   104857600 cpu:            1094.2 elap:            1096.4
 (Enter /opt/packages/gaussian/g16RevC.01/g16/l716.exe)
 Dipole        = 3.21701002D-02-1.08582207D+00-2.46324610D-01
 Polarizability= 3.68208628D+02-2.47435760D+01 2.07922160D+02
                -4.90409275D+00-3.13724764D+00 1.22666147D+02
 Full mass-weighted force constant matrix:
 Low frequencies ---   -9.6444   -0.0011   -0.0009   -0.0007    4.4330   15.9783
 Low frequencies ---   54.8309   73.2846  110.0198
 Diagonal vibrational polarizability:
       56.3844471      25.2516499      59.3671689
 Harmonic frequencies (cm**-1), IR intensities (KM/Mole), Raman scattering
 activities (A**4/AMU), depolarization ratios for plane and unpolarized
 incident light, reduced masses (AMU), force constants (mDyne/A),
 and normal coordinates:
                      1                      2                      3
                      A                      A                      A
 Frequencies --     54.7379                71.7231               110.0065
 Red. masses --      3.7491                 2.8669                 3.3018
 Frc consts  --      0.0066                 0.0087                 0.0235
 IR Inten    --      0.5306                 2.2642                 1.0286
  Atom  AN      X      Y      Z        X      Y      Z        X      Y      Z
     1   6     0.00   0.00  -0.02     0.00  -0.00  -0.04     0.00   0.01   0.11
     2   6     0.00  -0.00  -0.08     0.00   0.01   0.10     0.03   0.03   0.18
     3   6     0.00  -0.00  -0.16     0.00   0.01   0.14     0.03   0.06   0.11
     4   6     0.00  -0.00  -0.16    -0.00   0.01   0.06     0.00   0.06  -0.04
     5   6    -0.00  -0.00  -0.16    -0.00  -0.00  -0.08    -0.02   0.05  -0.04
     6   6    -0.00  -0.00  -0.09    -0.00  -0.01  -0.13    -0.02   0.02   0.04
     7   1    -0.00  -0.00  -0.08    -0.00  -0.02  -0.23    -0.05   0.01   0.02
     8   1     0.01  -0.00  -0.07     0.01   0.01   0.16     0.05   0.02   0.27
     9   1     0.01  -0.01  -0.21     0.01   0.03   0.24     0.05   0.07   0.18
    10   1    -0.00  -0.01  -0.20     0.00  -0.01  -0.15    -0.04   0.05  -0.12
    11   8    -0.00   0.00   0.10     0.00  -0.01  -0.10    -0.00  -0.03   0.05
    12   6     0.01   0.01   0.24     0.00   0.00   0.06     0.03  -0.08  -0.16
    13   1     0.13   0.03   0.23     0.00   0.14   0.14    -0.10  -0.13  -0.17
    14   1    -0.11  -0.01   0.24     0.00  -0.13   0.16     0.21  -0.02  -0.18
    15   1     0.01   0.01   0.36     0.00  -0.00  -0.01     0.02  -0.13  -0.30
    16   6     0.00   0.00  -0.09     0.00   0.01   0.07     0.00   0.05  -0.15
    17   6    -0.00  -0.00   0.07     0.00  -0.00   0.20     0.06  -0.00  -0.08
    18   7     0.01   0.00  -0.08    -0.01   0.01  -0.09    -0.04   0.02  -0.15
    19   6     0.02   0.01   0.11    -0.02   0.04  -0.18    -0.02  -0.05   0.03
    20   6    -0.05  -0.02   0.22     0.01  -0.05   0.03    -0.03  -0.09   0.14
    21   1    -0.10  -0.03   0.06     0.03  -0.12   0.33    -0.00   0.05  -0.15
    22   1     0.13   0.03   0.09    -0.04   0.15   0.28     0.23  -0.06  -0.11
    23   1     0.16   0.08   0.14    -0.11   0.21  -0.22     0.11   0.00   0.07
    24   1    -0.04  -0.02   0.13     0.03  -0.05  -0.35    -0.13  -0.10   0.06
    25   1    -0.20  -0.08   0.24     0.06  -0.22   0.02    -0.25  -0.15   0.17
    26   1     0.02   0.00   0.37    -0.00   0.02   0.07     0.08  -0.11   0.32
    27   1     0.04   0.03  -0.20    -0.03   0.07  -0.25    -0.06   0.04  -0.20
                      4                      5                      6
                      A                      A                      A
 Frequencies --    127.8305               151.8533               199.1214
 Red. masses --      3.8151                 3.1098                 1.2712
 Frc consts  --      0.0367                 0.0423                 0.0297
 IR Inten    --      2.3232                 6.3846                 0.6757
  Atom  AN      X      Y      Z        X      Y      Z        X      Y      Z
     1   6     0.01  -0.01   0.09    -0.01   0.02   0.04     0.00  -0.00  -0.04
     2   6    -0.04  -0.04   0.10     0.01   0.03  -0.01    -0.00  -0.00  -0.02
     3   6    -0.04  -0.11   0.03     0.01   0.04  -0.07    -0.00  -0.00   0.05
     4   6    -0.00  -0.14  -0.05    -0.00   0.05  -0.05     0.00  -0.00   0.06
     5   6     0.04  -0.12  -0.11    -0.02   0.03  -0.17     0.01  -0.00   0.02
     6   6     0.05  -0.05  -0.01    -0.02   0.02  -0.08     0.01  -0.00  -0.03
     7   1     0.09  -0.04  -0.04    -0.03   0.02  -0.11     0.01  -0.00  -0.06
     8   1    -0.09  -0.01   0.17     0.03   0.02   0.02    -0.01   0.00  -0.04
     9   1    -0.06  -0.12   0.02     0.01   0.05  -0.07    -0.00  -0.00   0.08
    10   1     0.07  -0.15  -0.20    -0.02   0.03  -0.25     0.01  -0.01   0.02
    11   8     0.02   0.09   0.12    -0.01  -0.01   0.21     0.01   0.00  -0.00
    12   6    -0.08   0.16  -0.14     0.05  -0.09  -0.10     0.01   0.00   0.00
    13   1    -0.23  -0.01  -0.21     0.11  -0.41  -0.29     0.32  -0.30  -0.22
    14   1    -0.04   0.28  -0.24     0.04   0.21  -0.35    -0.31   0.27  -0.26
    15   1    -0.04   0.25  -0.18     0.02  -0.13   0.10     0.01   0.04   0.49
    16   6     0.00  -0.09  -0.02    -0.00   0.03   0.09    -0.00  -0.00   0.03
    17   6    -0.11   0.00   0.03     0.03   0.00   0.11     0.01  -0.01  -0.07
    18   7     0.11  -0.03  -0.03    -0.05  -0.00   0.12     0.00  -0.00   0.02
    19   6     0.09   0.13  -0.03    -0.05  -0.05  -0.02    -0.01   0.03  -0.05
    20   6    -0.05   0.13   0.03     0.06  -0.04  -0.08    -0.03  -0.01   0.06
    21   1    -0.20  -0.05   0.05     0.11  -0.07   0.21    -0.00   0.10  -0.18
    22   1    -0.15   0.04   0.05    -0.06   0.11   0.17     0.07  -0.15  -0.15
    23   1     0.09   0.20  -0.03    -0.17  -0.09  -0.05    -0.07   0.15  -0.08
    24   1     0.18   0.16  -0.06    -0.02  -0.05  -0.05     0.04  -0.01  -0.16
    25   1    -0.06   0.10   0.03     0.23  -0.02  -0.10    -0.18  -0.09   0.08
    26   1    -0.09   0.22   0.06    -0.00  -0.07  -0.22     0.03   0.00   0.20
    27   1     0.18  -0.06  -0.02    -0.08   0.03   0.06     0.00  -0.01   0.05
                      7                      8                      9
                      A                      A                      A
 Frequencies --    214.6039               241.0333               275.8960
 Red. masses --      1.5914                 3.4962                 3.9183
 Frc consts  --      0.0432                 0.1197                 0.1757
 IR Inten    --      5.4048                 8.7860                 5.4106
  Atom  AN      X      Y      Z        X      Y      Z        X      Y      Z
     1   6     0.00   0.01   0.01     0.04   0.13   0.01    -0.01  -0.01   0.12
     2   6     0.00   0.00  -0.04    -0.03   0.09   0.03     0.02   0.00   0.15
     3   6    -0.00   0.00  -0.05    -0.05  -0.01   0.01     0.02   0.02  -0.08
     4   6     0.00   0.00  -0.00    -0.03  -0.06  -0.03     0.01   0.02  -0.20
     5   6     0.01   0.00  -0.02     0.06   0.01   0.01    -0.01   0.01  -0.06
     6   6     0.00   0.01  -0.00     0.07   0.11   0.03    -0.02  -0.00   0.17
     7   1     0.01   0.01   0.01     0.12   0.13   0.05    -0.03   0.00   0.34
     8   1     0.01   0.00  -0.05    -0.07   0.12   0.04     0.03  -0.00   0.21
     9   1    -0.01  -0.00  -0.09    -0.09  -0.03  -0.00     0.03   0.02  -0.14
    10   1     0.01   0.00  -0.03     0.12  -0.04   0.02    -0.04   0.03  -0.04
    11   8     0.00   0.00   0.05     0.04   0.05  -0.05    -0.01  -0.03  -0.19
    12   6     0.02  -0.02  -0.00     0.27  -0.14   0.01    -0.05   0.02   0.01
    13   1    -0.23   0.20   0.16     0.44  -0.10   0.01     0.17  -0.04  -0.06
    14   1     0.29  -0.20   0.19     0.35  -0.11   0.01    -0.34   0.06  -0.07
    15   1     0.01  -0.06  -0.38     0.17  -0.36   0.07    -0.03   0.10   0.30
    16   6    -0.00  -0.00   0.06    -0.06  -0.10  -0.04     0.02   0.01  -0.16
    17   6     0.02  -0.01  -0.07    -0.16  -0.04   0.02     0.02   0.00   0.04
    18   7    -0.00  -0.01   0.12    -0.02  -0.07   0.00     0.01  -0.03   0.22
    19   6    -0.02   0.05  -0.10    -0.03   0.03   0.00    -0.01   0.02  -0.05
    20   6    -0.03  -0.03   0.07    -0.12   0.05  -0.01     0.03  -0.02   0.01
    21   1     0.02   0.12  -0.20    -0.23  -0.12   0.07    -0.03  -0.13   0.16
    22   1     0.08  -0.18  -0.16    -0.22   0.03   0.06     0.07   0.19   0.15
    23   1    -0.22   0.25  -0.17    -0.03   0.03   0.00    -0.25   0.15  -0.13
    24   1     0.11  -0.02  -0.33     0.03   0.07   0.01     0.13  -0.01  -0.25
    25   1    -0.20  -0.15   0.09    -0.09   0.07  -0.02     0.03  -0.08   0.01
    26   1     0.05  -0.00   0.24    -0.16   0.10  -0.04     0.03  -0.01   0.03
    27   1    -0.00  -0.02   0.12     0.03  -0.10   0.00     0.03  -0.02   0.12
                     10                     11                     12
                      A                      A                      A
 Frequencies --    296.8004               327.2732               379.0199
 Red. masses --      5.3974                 3.6576                 2.8392
 Frc consts  --      0.2801                 0.2308                 0.2403
 IR Inten    --      6.8747                 3.4745                 4.7056
  Atom  AN      X      Y      Z        X      Y      Z        X      Y      Z
     1   6     0.18  -0.14  -0.02     0.02   0.00   0.17     0.00  -0.01   0.00
     2   6     0.14  -0.15  -0.03     0.00  -0.01   0.11    -0.00   0.01   0.20
     3   6     0.13  -0.07   0.02    -0.00  -0.03  -0.16    -0.00  -0.02  -0.20
     4   6    -0.02   0.03  -0.01    -0.01  -0.01   0.02     0.00  -0.00  -0.00
     5   6     0.04   0.03   0.01     0.01  -0.02  -0.12     0.01   0.02   0.21
     6   6     0.07  -0.07  -0.00     0.01  -0.00   0.08     0.00  -0.02  -0.20
     7   1    -0.05  -0.13   0.01     0.01  -0.01   0.09    -0.00  -0.05  -0.51
     8   1     0.13  -0.14  -0.03    -0.01  -0.01   0.06    -0.00   0.03   0.46
     9   1     0.21  -0.02   0.09     0.00  -0.05  -0.37    -0.01  -0.04  -0.38
    10   1     0.04   0.02   0.02     0.01  -0.03  -0.21     0.00   0.03   0.39
    11   8     0.22  -0.01   0.03     0.03  -0.01  -0.13     0.00   0.00   0.01
    12   6     0.07   0.16  -0.01     0.02   0.01  -0.00     0.01   0.00  -0.01
    13   1    -0.06   0.13  -0.01     0.13   0.02  -0.01     0.01  -0.03  -0.03
    14   1    -0.01   0.13  -0.00    -0.09  -0.00  -0.01     0.02   0.03  -0.03
    15   1     0.14   0.32  -0.05     0.03   0.03   0.11     0.01  -0.00   0.01
    16   6    -0.09   0.09  -0.06    -0.02   0.02   0.32    -0.00   0.01  -0.02
    17   6    -0.12   0.07   0.01     0.01   0.01  -0.03     0.00   0.01   0.00
    18   7    -0.20   0.04   0.06    -0.04   0.04  -0.11    -0.01   0.01  -0.00
    19   6    -0.23  -0.02   0.02    -0.03  -0.00   0.02    -0.01  -0.00  -0.01
    20   6    -0.16  -0.00  -0.02    -0.01   0.01  -0.01    -0.00  -0.01   0.00
    21   1    -0.12   0.01   0.07     0.14   0.27  -0.25     0.00  -0.02   0.03
    22   1    -0.12   0.15   0.05    -0.06  -0.33  -0.22     0.01   0.04   0.02
    23   1    -0.26  -0.06   0.01     0.09  -0.09   0.06    -0.02   0.01  -0.01
    24   1    -0.23  -0.01   0.02    -0.11   0.00   0.12    -0.01  -0.01  -0.02
    25   1    -0.14   0.01  -0.03    -0.00   0.05  -0.01    -0.01  -0.02   0.00
    26   1    -0.14  -0.06  -0.05    -0.00  -0.01  -0.03     0.00  -0.01   0.01
    27   1    -0.24   0.13  -0.22    -0.07   0.13  -0.38    -0.00  -0.05   0.23
                     13                     14                     15
                      A                      A                      A
 Frequencies --    397.5587               417.7144               494.3567
 Red. masses --      1.2898                 3.4661                 3.8220
 Frc consts  --      0.1201                 0.3563                 0.5503
 IR Inten    --    191.6339                31.1401                 1.4673
  Atom  AN      X      Y      Z        X      Y      Z        X      Y      Z
     1   6     0.01  -0.01   0.02     0.05   0.01   0.01    -0.03  -0.14  -0.06
     2   6    -0.02  -0.02  -0.01     0.13   0.05   0.00    -0.04  -0.14   0.03
     3   6    -0.02  -0.03  -0.00     0.11   0.12  -0.02    -0.03   0.09  -0.00
     4   6    -0.01  -0.02  -0.00     0.03   0.11   0.01    -0.06   0.12  -0.08
     5   6    -0.01  -0.02  -0.04     0.01   0.15  -0.02    -0.14   0.11  -0.00
     6   6     0.00  -0.01   0.03    -0.01   0.07  -0.01    -0.15  -0.11   0.02
     7   1    -0.00  -0.01   0.06    -0.07   0.04  -0.02    -0.34  -0.20   0.17
     8   1    -0.02  -0.02  -0.03     0.15   0.03  -0.01     0.07  -0.21   0.19
     9   1    -0.04  -0.04   0.01     0.16   0.15  -0.04     0.11   0.17   0.14
    10   1     0.00  -0.03  -0.08    -0.03   0.17  -0.04    -0.26   0.20   0.13
    11   8     0.02   0.02  -0.02     0.03  -0.13   0.00     0.04   0.13   0.01
    12   6     0.04   0.01   0.00    -0.14  -0.01  -0.00     0.19   0.11  -0.01
    13   1     0.06   0.02   0.01    -0.25  -0.04   0.00     0.27   0.11  -0.02
    14   1     0.04   0.00   0.01    -0.26  -0.03  -0.00     0.28   0.12  -0.01
    15   1     0.03  -0.01   0.01    -0.06   0.18  -0.01     0.11  -0.07   0.01
    16   6    -0.02   0.03   0.01    -0.01  -0.13   0.08    -0.02  -0.07   0.06
    17   6     0.02   0.03   0.01    -0.14  -0.11   0.01    -0.01  -0.10   0.01
    18   7    -0.00   0.07  -0.07     0.04  -0.10  -0.07     0.05  -0.05  -0.01
    19   6    -0.02  -0.01  -0.02     0.04  -0.01  -0.02     0.09   0.01  -0.00
    20   6     0.00  -0.02   0.01    -0.09   0.02  -0.01     0.04   0.01   0.01
    21   1     0.03  -0.01   0.06    -0.20  -0.13   0.00    -0.02  -0.02  -0.06
    22   1     0.04   0.08   0.05    -0.23  -0.12   0.00    -0.04  -0.18  -0.04
    23   1     0.05  -0.01  -0.00     0.10  -0.00   0.00     0.09   0.04  -0.00
    24   1    -0.09  -0.05   0.00     0.07   0.04   0.02     0.11   0.02  -0.01
    25   1    -0.02  -0.07   0.01    -0.10   0.01  -0.01     0.09   0.03   0.00
    26   1     0.02  -0.03   0.04    -0.14   0.10   0.01    -0.02   0.07  -0.03
    27   1    -0.03  -0.19   0.94     0.10  -0.28   0.48     0.12  -0.09  -0.01
                     16                     17                     18
                      A                      A                      A
 Frequencies --    505.7861               571.3693               607.1955
 Red. masses --      2.3337                 5.9014                 4.2873
 Frc consts  --      0.3517                 1.1351                 0.9313
 IR Inten    --     37.2004                 4.6072                 9.1244
  Atom  AN      X      Y      Z        X      Y      Z        X      Y      Z
     1   6    -0.01  -0.02   0.21    -0.11  -0.12  -0.02    -0.09   0.04  -0.02
     2   6    -0.01  -0.03  -0.05    -0.10  -0.05   0.01     0.21   0.09   0.00
     3   6    -0.00   0.03  -0.00    -0.07   0.23  -0.02     0.23  -0.04  -0.01
     4   6    -0.00   0.05   0.19     0.18   0.13   0.00     0.10  -0.06   0.01
     5   6    -0.03   0.02  -0.01     0.30   0.01  -0.02    -0.15  -0.15   0.00
     6   6    -0.03  -0.04  -0.04     0.22  -0.26   0.03    -0.13  -0.03   0.01
     7   1    -0.07  -0.09  -0.46     0.27  -0.23   0.12    -0.02   0.03   0.05
     8   1     0.03  -0.09  -0.49     0.13  -0.19   0.10     0.29   0.04   0.03
     9   1     0.02  -0.00  -0.44    -0.04   0.24  -0.02     0.14  -0.08   0.03
    10   1    -0.07   0.01  -0.39     0.13   0.13  -0.02    -0.20  -0.12   0.05
    11   8     0.00   0.03  -0.05    -0.15   0.10  -0.01    -0.12   0.14  -0.01
    12   6     0.04   0.02  -0.00    -0.04  -0.06   0.01     0.02   0.03  -0.00
    13   1     0.09   0.04  -0.00     0.09  -0.03  -0.00     0.16   0.05  -0.01
    14   1     0.04   0.01   0.00     0.08  -0.03   0.00     0.15   0.06  -0.00
    15   1     0.02  -0.02   0.01    -0.12  -0.24   0.03    -0.07  -0.17   0.02
    16   6     0.01  -0.01  -0.12     0.08   0.01   0.03     0.08   0.03   0.05
    17   6    -0.01  -0.01  -0.01    -0.05   0.07  -0.01    -0.06   0.08  -0.02
    18   7     0.02  -0.03   0.03    -0.02  -0.03  -0.01     0.05  -0.01   0.02
    19   6     0.02  -0.00   0.00    -0.05  -0.03  -0.01     0.02  -0.08  -0.03
    20   6    -0.00  -0.00  -0.00    -0.13   0.01  -0.03    -0.13  -0.04  -0.06
    21   1    -0.07  -0.11   0.07    -0.06  -0.02   0.09    -0.00  -0.04   0.13
    22   1     0.02   0.11   0.06    -0.14   0.16   0.04    -0.19   0.22   0.05
    23   1    -0.00   0.01  -0.01    -0.00  -0.11   0.01     0.07  -0.26  -0.01
    24   1     0.04   0.01  -0.01    -0.04   0.05   0.08     0.03   0.04   0.14
    25   1    -0.02  -0.00   0.00    -0.26  -0.05  -0.01    -0.40  -0.19  -0.02
    26   1     0.00   0.01   0.01    -0.04  -0.01   0.11     0.01  -0.01   0.24
    27   1     0.05  -0.03  -0.03    -0.10  -0.00   0.06    -0.03   0.03  -0.01
                     19                     20                     21
                      A                      A                      A
 Frequencies --    643.9720               698.0992               749.4217
 Red. masses --      2.2229                 3.4384                 1.4412
 Frc consts  --      0.5431                 0.9873                 0.4769
 IR Inten    --     29.6923                 1.8451                14.0266
  Atom  AN      X      Y      Z        X      Y      Z        X      Y      Z
     1   6    -0.04   0.01   0.02     0.01  -0.02  -0.27     0.00  -0.00  -0.01
     2   6     0.09   0.03  -0.01     0.01   0.03   0.17    -0.00  -0.02  -0.06
     3   6     0.10   0.00   0.00     0.00  -0.00  -0.08     0.00  -0.02  -0.13
     4   6     0.05  -0.01  -0.01     0.00   0.02   0.27    -0.01   0.01   0.09
     5   6     0.00  -0.05   0.01    -0.02  -0.02  -0.13     0.00   0.01   0.00
     6   6     0.01  -0.04  -0.00    -0.02   0.01   0.08     0.00   0.02   0.09
     7   1     0.07  -0.02  -0.06    -0.02   0.04   0.53    -0.01  -0.01  -0.33
     8   1     0.15  -0.01  -0.02     0.01   0.02   0.07    -0.01   0.03   0.57
     9   1     0.07  -0.01   0.04    -0.02  -0.07  -0.64     0.03   0.05   0.59
    10   1    -0.02  -0.04  -0.02    -0.02  -0.03  -0.17     0.01  -0.03  -0.40
    11   8    -0.08   0.07  -0.01     0.01  -0.01   0.04    -0.01   0.01  -0.01
    12   6    -0.01  -0.01   0.00     0.01   0.01   0.00    -0.00  -0.00   0.00
    13   1     0.06   0.01  -0.00    -0.03  -0.01  -0.00     0.02   0.01   0.00
    14   1     0.06   0.01  -0.00     0.02   0.02  -0.00    -0.01  -0.01   0.01
    15   1    -0.06  -0.11   0.01     0.01   0.02  -0.02    -0.01  -0.01   0.02
    16   6    -0.01  -0.04  -0.03    -0.00  -0.00  -0.08    -0.00  -0.00  -0.02
    17   6     0.02  -0.08   0.03     0.01  -0.01  -0.02    -0.00  -0.01  -0.01
    18   7    -0.09  -0.04  -0.06    -0.01  -0.02   0.00    -0.00  -0.00   0.01
    19   6    -0.12   0.08   0.05    -0.01   0.01   0.01     0.01   0.00  -0.00
    20   6     0.08   0.07   0.07     0.02   0.01   0.01     0.01   0.00   0.00
    21   1    -0.12   0.05  -0.17    -0.06  -0.09   0.04    -0.02  -0.03   0.01
    22   1     0.15  -0.26  -0.07     0.06   0.09   0.04     0.01   0.03   0.01
    23   1    -0.17   0.37   0.02    -0.02   0.07   0.01     0.00   0.00  -0.00
    24   1    -0.08  -0.07  -0.21    -0.01  -0.01  -0.03     0.01   0.00  -0.00
    25   1     0.46   0.29   0.02     0.05   0.06   0.01    -0.00   0.00   0.00
    26   1    -0.10  -0.02  -0.36     0.01  -0.02  -0.04     0.01   0.01   0.01
    27   1    -0.03  -0.12   0.12     0.03  -0.04  -0.01    -0.02   0.01  -0.03
                     22                     23                     24
                      A                      A                      A
 Frequencies --    774.7939               804.5215               820.2150
 Red. masses --      5.2478                 1.7043                 2.9668
 Frc consts  --      1.8561                 0.6499                 1.1760
 IR Inten    --     56.8898               117.7684                37.7962
  Atom  AN      X      Y      Z        X      Y      Z        X      Y      Z
     1   6    -0.01   0.01   0.02     0.00   0.01   0.12    -0.01   0.00   0.04
     2   6    -0.07   0.20  -0.05    -0.00  -0.03  -0.04     0.02   0.10  -0.03
     3   6    -0.11   0.23  -0.03     0.00  -0.03  -0.06    -0.01   0.10  -0.04
     4   6     0.09  -0.02  -0.01    -0.00   0.01   0.11    -0.00   0.00   0.06
     5   6    -0.11  -0.22   0.03     0.00   0.02  -0.09    -0.00  -0.11  -0.03
     6   6    -0.10  -0.12   0.01    -0.00   0.01  -0.12     0.02  -0.09  -0.04
     7   1    -0.01  -0.08  -0.06    -0.02   0.06   0.56     0.11  -0.03   0.23
     8   1    -0.04   0.20   0.12    -0.02  -0.01   0.15     0.06   0.09   0.10
     9   1    -0.30   0.16   0.13     0.03   0.02   0.37    -0.05   0.11   0.13
    10   1    -0.23  -0.14   0.02     0.03   0.07   0.63    -0.04  -0.07   0.22
    11   8     0.15  -0.17   0.01    -0.01   0.01  -0.02     0.03  -0.05  -0.00
    12   6     0.11   0.09  -0.01    -0.01  -0.01  -0.00     0.03   0.03  -0.00
    13   1    -0.07   0.04  -0.00     0.01  -0.00  -0.00    -0.01   0.01  -0.00
    14   1    -0.07   0.03   0.00    -0.00  -0.00  -0.00    -0.01   0.01  -0.00
    15   1     0.22   0.32  -0.03    -0.01  -0.02   0.01     0.05   0.08  -0.00
    16   6     0.13  -0.04   0.04     0.01  -0.02  -0.02    -0.07   0.08  -0.07
    17   6     0.06   0.12  -0.02     0.03   0.01  -0.03    -0.13  -0.13   0.06
    18   7    -0.04  -0.16  -0.05    -0.02  -0.04  -0.01     0.06   0.18   0.05
    19   6    -0.09   0.00   0.03    -0.01   0.02   0.01     0.08  -0.06  -0.05
    20   6    -0.02   0.07   0.02     0.01   0.02  -0.00    -0.03  -0.08   0.02
    21   1     0.00   0.01   0.07     0.02  -0.10   0.08    -0.18   0.14  -0.23
    22   1     0.01   0.23   0.03    -0.01   0.14   0.04     0.12  -0.41  -0.10
    23   1    -0.08   0.18   0.02    -0.01   0.05   0.01     0.09  -0.13  -0.04
    24   1     0.05   0.02  -0.09     0.01   0.02  -0.01    -0.07  -0.12   0.01
    25   1    -0.04   0.16   0.02    -0.06   0.04   0.01     0.28  -0.09  -0.03
    26   1     0.07  -0.12  -0.03     0.07  -0.03   0.04    -0.30   0.18  -0.19
    27   1    -0.11  -0.16   0.07    -0.01  -0.05  -0.00     0.00   0.24  -0.02
                     25                     26                     27
                      A                      A                      A
 Frequencies --    869.1968               890.2241               928.0956
 Red. masses --      2.2126                 1.6577                 1.9727
 Frc consts  --      0.9849                 0.7740                 1.0012
 IR Inten    --      9.2641                 2.8810                12.7447
  Atom  AN      X      Y      Z        X      Y      Z        X      Y      Z
     1   6     0.01   0.00   0.00    -0.00   0.00  -0.00    -0.00   0.00   0.02
     2   6    -0.03  -0.05   0.01     0.01   0.02  -0.00    -0.01  -0.02  -0.10
     3   6    -0.01  -0.05  -0.00     0.00   0.03   0.00    -0.01  -0.01   0.07
     4   6     0.04  -0.00   0.01    -0.03  -0.01  -0.01     0.02   0.00   0.00
     5   6    -0.00   0.06  -0.01     0.00  -0.02   0.00    -0.00   0.01  -0.01
     6   6    -0.02   0.05  -0.01     0.01  -0.02   0.01    -0.01   0.02  -0.00
     7   1    -0.07   0.03   0.03     0.03  -0.02  -0.04    -0.03   0.01   0.04
     8   1    -0.07  -0.03  -0.00     0.04   0.01   0.00    -0.02   0.03   0.58
     9   1    -0.01  -0.05   0.02     0.03   0.04  -0.01    -0.01  -0.06  -0.41
    10   1    -0.02   0.08   0.01     0.01  -0.02   0.00     0.01   0.01   0.02
    11   8    -0.00   0.01  -0.00     0.00  -0.00   0.00    -0.00  -0.01  -0.01
    12   6    -0.01  -0.01   0.00    -0.00   0.00  -0.00     0.01   0.01  -0.00
    13   1    -0.00  -0.00   0.00    -0.00   0.00   0.00     0.00   0.00  -0.00
    14   1    -0.00  -0.00  -0.00    -0.00  -0.00   0.00    -0.00   0.00   0.00
    15   1    -0.01  -0.02   0.00     0.00   0.00   0.00     0.00   0.00   0.01
    16   6     0.08   0.03   0.00    -0.05   0.01   0.05     0.02   0.01  -0.01
    17   6    -0.09   0.17   0.01    -0.06  -0.05  -0.12     0.08  -0.04   0.03
    18   7     0.08  -0.04  -0.02     0.04   0.09  -0.01     0.07   0.01  -0.01
    19   6     0.03  -0.16   0.02     0.01   0.01   0.10    -0.05   0.10   0.05
    20   6    -0.08  -0.04   0.07     0.04  -0.08  -0.00    -0.17  -0.10  -0.05
    21   1    -0.19   0.29  -0.14     0.07  -0.35   0.23     0.27   0.02   0.03
    22   1     0.08   0.01  -0.08    -0.34   0.32   0.08     0.19  -0.07   0.02
    23   1    -0.05   0.28  -0.05    -0.08   0.43   0.03     0.02   0.16   0.06
    24   1     0.13  -0.35  -0.35     0.01  -0.27  -0.29     0.10   0.23   0.08
    25   1     0.30   0.26   0.02    -0.12   0.22   0.03     0.02  -0.02  -0.08
    26   1    -0.22  -0.18  -0.37     0.14  -0.28  -0.04    -0.22  -0.20  -0.25
    27   1    -0.04   0.01   0.01     0.10   0.08  -0.08     0.17  -0.03  -0.00
                     28                     29                     30
                      A                      A                      A
 Frequencies --    931.5221               956.2267               974.3774
 Red. masses --      1.6178                 1.3558                 3.2149
 Frc consts  --      0.8271                 0.7304                 1.7984
 IR Inten    --      1.8810                 0.3126                98.5569
  Atom  AN      X      Y      Z        X      Y      Z        X      Y      Z
     1   6     0.00   0.00   0.03     0.00  -0.00  -0.02     0.05  -0.01   0.00
     2   6     0.02  -0.00  -0.12    -0.00  -0.01  -0.00     0.04  -0.09   0.00
     3   6     0.00   0.00   0.09     0.00   0.01   0.02     0.02   0.20  -0.02
     4   6    -0.01   0.00  -0.01    -0.01  -0.00   0.02    -0.19  -0.03   0.01
     5   6     0.00   0.00  -0.00    -0.00  -0.02  -0.12    -0.03  -0.15   0.02
     6   6     0.00  -0.01  -0.01     0.01   0.01   0.12     0.04   0.06  -0.02
     7   1    -0.00  -0.00   0.07     0.01  -0.04  -0.66     0.19   0.14   0.05
     8   1     0.03   0.05   0.68     0.01  -0.01  -0.01     0.24  -0.21   0.05
     9   1    -0.03  -0.07  -0.52     0.01   0.01  -0.08     0.29   0.35  -0.06
    10   1    -0.00   0.01   0.00     0.01   0.05   0.72     0.22  -0.33  -0.03
    11   8    -0.00   0.00  -0.01     0.00   0.01   0.00     0.05   0.09  -0.01
    12   6    -0.00  -0.00  -0.00    -0.01  -0.01  -0.00    -0.08  -0.09   0.01
    13   1     0.00   0.00   0.00     0.00   0.00   0.00    -0.01  -0.04   0.02
    14   1    -0.00  -0.00   0.00    -0.01  -0.01   0.00    -0.01  -0.04  -0.01
    15   1    -0.01  -0.01   0.01    -0.01  -0.00   0.01    -0.07  -0.07   0.01
    16   6    -0.01  -0.01   0.01    -0.00   0.00  -0.01    -0.12  -0.02  -0.01
    17   6    -0.06   0.03  -0.02    -0.00   0.00   0.00    -0.01   0.14   0.02
    18   7    -0.04  -0.01   0.00    -0.00  -0.00   0.00    -0.00  -0.07  -0.00
    19   6     0.02  -0.07  -0.04     0.00  -0.00  -0.00     0.05   0.02   0.00
    20   6     0.12   0.07   0.04    -0.00   0.00   0.00     0.02  -0.05  -0.00
    21   1    -0.20  -0.00  -0.03    -0.00   0.01  -0.00     0.16   0.27  -0.05
    22   1    -0.13   0.04  -0.02     0.01   0.00   0.00     0.14   0.05  -0.03
    23   1    -0.02  -0.13  -0.04     0.00  -0.01  -0.00     0.08   0.03   0.01
    24   1    -0.10  -0.16  -0.04     0.00  -0.00   0.00     0.14   0.09   0.03
    25   1    -0.01   0.00   0.05     0.01   0.00   0.00     0.11  -0.09  -0.02
    26   1     0.16   0.13   0.17    -0.01   0.02  -0.00     0.07  -0.17  -0.05
    27   1    -0.07   0.01  -0.01    -0.00  -0.00   0.00     0.15  -0.16   0.01
                     31                     32                     33
                      A                      A                      A
 Frequencies --    987.1761               991.2914              1008.3555
 Red. masses --      2.1564                 3.7087                 5.8466
 Frc consts  --      1.2382                 2.1472                 3.5025
 IR Inten    --     55.3672                19.5924                48.0112
  Atom  AN      X      Y      Z        X      Y      Z        X      Y      Z
     1   6     0.02  -0.01   0.00    -0.08  -0.03  -0.00     0.15   0.02   0.00
     2   6     0.01  -0.01  -0.00    -0.06  -0.22   0.02    -0.10  -0.09   0.01
     3   6     0.00   0.00   0.01     0.01   0.11  -0.00    -0.05   0.07  -0.01
     4   6    -0.02   0.02  -0.01     0.09  -0.01  -0.00     0.16  -0.00  -0.00
     5   6    -0.00  -0.04   0.01     0.02  -0.11   0.01    -0.13  -0.08   0.01
     6   6     0.00   0.01  -0.00    -0.04   0.27  -0.02    -0.06   0.05  -0.01
     7   1     0.03   0.02   0.02     0.24   0.43  -0.03    -0.17  -0.01   0.04
     8   1     0.01  -0.00   0.03     0.17  -0.39   0.03    -0.19  -0.03  -0.00
     9   1    -0.04  -0.02  -0.06     0.16   0.18  -0.04    -0.07   0.06   0.01
    10   1     0.05  -0.08  -0.03     0.23  -0.25   0.02    -0.25  -0.00  -0.03
    11   8     0.02   0.03  -0.00    -0.08  -0.11   0.01     0.21   0.23  -0.02
    12   6    -0.03  -0.03   0.00     0.09   0.13  -0.01    -0.19  -0.26   0.02
    13   1    -0.01  -0.01   0.01     0.08   0.07  -0.03    -0.15  -0.13   0.07
    14   1    -0.01  -0.01  -0.00     0.08   0.08   0.02    -0.14  -0.14  -0.04
    15   1    -0.02  -0.02   0.00     0.04   0.02   0.00    -0.09  -0.05   0.00
    16   6    -0.00   0.07   0.02     0.09   0.01   0.01     0.18   0.01   0.01
    17   6     0.10  -0.09  -0.03    -0.00  -0.09  -0.02     0.00  -0.14  -0.02
    18   7    -0.13  -0.02   0.00     0.02   0.06   0.00     0.09   0.09   0.00
    19   6     0.17  -0.08  -0.01    -0.06  -0.02  -0.01    -0.16  -0.01  -0.02
    20   6    -0.11   0.08   0.01    -0.00   0.05   0.01    -0.01   0.07   0.01
    21   1     0.31  -0.19   0.14    -0.12  -0.17   0.02    -0.28  -0.27   0.01
    22   1     0.14   0.12   0.09    -0.06  -0.01   0.02    -0.08  -0.05   0.02
    23   1     0.07   0.18  -0.04    -0.07  -0.06  -0.01    -0.14  -0.15  -0.01
    24   1     0.23  -0.13  -0.14    -0.17  -0.09  -0.01    -0.31  -0.09   0.02
    25   1    -0.10   0.35   0.02    -0.06   0.07   0.02    -0.08   0.03   0.02
    26   1    -0.33   0.40  -0.05    -0.04   0.14   0.04    -0.04   0.14   0.05
    27   1    -0.37   0.08   0.06    -0.03   0.09  -0.00     0.04   0.13  -0.03
                     34                     35                     36
                      A                      A                      A
 Frequencies --   1058.6591              1076.0448              1145.6157
 Red. masses --      2.2356                 1.5641                 1.3682
 Frc consts  --      1.4762                 1.0671                 1.0580
 IR Inten    --     17.2821                21.8426                54.8694
  Atom  AN      X      Y      Z        X      Y      Z        X      Y      Z
     1   6    -0.01   0.00   0.00     0.00  -0.00   0.00    -0.03   0.06  -0.01
     2   6     0.03   0.04  -0.00    -0.02  -0.02   0.00    -0.05  -0.04   0.00
     3   6     0.01   0.02  -0.01    -0.00  -0.00  -0.00     0.04  -0.04   0.01
     4   6    -0.10  -0.03   0.01     0.05   0.01   0.01    -0.01   0.06  -0.00
     5   6     0.01   0.03  -0.00    -0.01  -0.02  -0.01    -0.08  -0.02   0.00
     6   6     0.02  -0.05   0.00    -0.00   0.02  -0.00     0.08  -0.05   0.00
     7   1    -0.03  -0.08   0.01     0.04   0.04   0.01     0.65   0.25  -0.02
     8   1     0.04   0.03   0.00    -0.02  -0.01   0.02    -0.25   0.08   0.01
     9   1     0.13   0.08   0.02    -0.04  -0.02  -0.01     0.29   0.07  -0.03
    10   1     0.07  -0.01  -0.01    -0.04   0.01   0.01    -0.44   0.21  -0.02
    11   8    -0.02  -0.02   0.00     0.01   0.01  -0.00    -0.00  -0.01  -0.00
    12   6     0.01   0.02  -0.00    -0.00  -0.01   0.00     0.03  -0.01   0.01
    13   1     0.01   0.01  -0.01    -0.01  -0.01   0.00    -0.12  -0.05   0.02
    14   1     0.01   0.01   0.00    -0.00   0.00  -0.01    -0.07   0.03  -0.04
    15   1     0.00  -0.00  -0.00     0.00   0.01  -0.00     0.10   0.13  -0.04
    16   6    -0.06  -0.05  -0.02     0.01   0.02  -0.08    -0.02   0.02   0.01
    17   6     0.10  -0.00   0.04    -0.02  -0.01   0.13     0.01   0.00  -0.01
    18   7     0.14   0.03  -0.00    -0.03   0.00  -0.02     0.00  -0.02  -0.00
    19   6    -0.13  -0.12   0.01     0.03  -0.02   0.09     0.00  -0.01   0.01
    20   6    -0.05   0.13  -0.01     0.02   0.01  -0.11    -0.00   0.00  -0.00
    21   1     0.36   0.07   0.05     0.29   0.32  -0.10    -0.04  -0.02   0.00
    22   1     0.11  -0.04   0.02    -0.43  -0.42  -0.12     0.05   0.03   0.01
    23   1    -0.20  -0.11  -0.04    -0.17   0.23   0.02    -0.05  -0.03  -0.01
    24   1    -0.28  -0.39  -0.20     0.19  -0.09  -0.17     0.03  -0.01  -0.02
    25   1    -0.22   0.20   0.02    -0.34   0.01  -0.05     0.01  -0.03  -0.00
    26   1    -0.09   0.31   0.11     0.22  -0.05   0.20    -0.02   0.04   0.01
    27   1     0.40  -0.08  -0.08    -0.07  -0.00   0.06     0.11  -0.07  -0.01
                     37                     38                     39
                      A                      A                      A
 Frequencies --   1152.5683              1172.0895              1197.8410
 Red. masses --      1.2678                 1.2563                 1.4404
 Frc consts  --      0.9923                 1.0169                 1.2177
 IR Inten    --      1.5634                10.7336                37.0133
  Atom  AN      X      Y      Z        X      Y      Z        X      Y      Z
     1   6    -0.00   0.00   0.00    -0.00   0.00   0.00    -0.10   0.01  -0.00
     2   6    -0.00  -0.00   0.00    -0.00  -0.01   0.00     0.03  -0.01   0.00
     3   6     0.00  -0.00   0.00     0.00  -0.00  -0.00    -0.01   0.02  -0.00
     4   6    -0.00   0.00  -0.00     0.02   0.01   0.00     0.00  -0.08   0.01
     5   6    -0.01  -0.00   0.00    -0.01  -0.00   0.00    -0.01   0.06  -0.01
     6   6     0.01  -0.00  -0.01     0.00   0.00   0.00     0.01   0.00  -0.00
     7   1     0.05   0.02   0.01     0.06   0.03  -0.01     0.05   0.02  -0.00
     8   1    -0.01   0.00  -0.00    -0.02   0.00   0.00     0.45  -0.29   0.02
     9   1     0.02   0.00  -0.01     0.00  -0.01   0.00    -0.24  -0.09   0.01
    10   1    -0.03   0.02  -0.00    -0.05   0.03  -0.01    -0.04   0.09  -0.01
    11   8    -0.00   0.01   0.06     0.00   0.00   0.00     0.01   0.04  -0.00
    12   6     0.00  -0.01  -0.13     0.00  -0.01  -0.00     0.07  -0.08   0.01
    13   1     0.35   0.52   0.11    -0.01   0.00   0.01    -0.33  -0.05   0.09
    14   1    -0.39  -0.52   0.21    -0.02  -0.01  -0.00    -0.31  -0.04  -0.08
    15   1     0.02   0.05   0.31     0.02   0.02   0.00     0.33   0.49  -0.04
    16   6    -0.00   0.00  -0.00    -0.00  -0.01  -0.03    -0.01  -0.03  -0.00
    17   6     0.00  -0.00   0.00     0.01   0.01   0.01     0.01   0.01  -0.00
    18   7     0.00  -0.00  -0.00    -0.00  -0.02   0.05    -0.00   0.02  -0.00
    19   6     0.00  -0.00   0.00    -0.00   0.03  -0.11     0.01   0.00   0.00
    20   6     0.00   0.00  -0.00    -0.01  -0.01   0.06    -0.00   0.00   0.00
    21   1    -0.01   0.00  -0.00     0.35   0.09   0.05     0.04   0.01   0.01
    22   1     0.01  -0.00   0.00    -0.43  -0.08  -0.06     0.04   0.01   0.00
    23   1    -0.01   0.00  -0.00     0.51   0.05   0.04    -0.04  -0.02  -0.01
    24   1     0.01  -0.00  -0.01    -0.43  -0.09   0.14     0.02   0.01  -0.00
    25   1    -0.00  -0.00  -0.00    -0.01   0.33   0.08     0.01  -0.01  -0.00
    26   1     0.00   0.00   0.00    -0.00  -0.18  -0.12    -0.00  -0.00  -0.00
    27   1     0.01  -0.00  -0.00    -0.02  -0.01   0.01    -0.10   0.07  -0.00
                     40                     41                     42
                      A                      A                      A
 Frequencies --   1206.8536              1210.5581              1235.5012
 Red. masses --      1.4399                 1.4183                 1.2022
 Frc consts  --      1.2357                 1.2246                 1.0812
 IR Inten    --     21.4143               151.2417                 9.0416
  Atom  AN      X      Y      Z        X      Y      Z        X      Y      Z
     1   6    -0.01   0.01  -0.00     0.01  -0.02   0.00    -0.01  -0.00   0.00
     2   6    -0.03  -0.01   0.00     0.00  -0.00   0.00     0.01   0.00   0.00
     3   6     0.03  -0.03   0.00    -0.02   0.02  -0.00    -0.01  -0.01   0.00
     4   6     0.04   0.07  -0.01     0.08  -0.06   0.01    -0.00   0.00  -0.01
     5   6     0.06  -0.05   0.00    -0.04   0.03  -0.00     0.00   0.00   0.00
     6   6    -0.06   0.01   0.00     0.02   0.02  -0.00    -0.00   0.00   0.00
     7   1    -0.29  -0.11   0.00     0.13   0.08  -0.00     0.03   0.02  -0.01
     8   1    -0.30   0.16  -0.02     0.18  -0.12   0.01     0.04  -0.02  -0.00
     9   1     0.27   0.08  -0.00    -0.25  -0.08   0.03    -0.04  -0.02   0.01
    10   1     0.25  -0.17   0.02    -0.25   0.18  -0.02    -0.02   0.02   0.01
    11   8    -0.03   0.03  -0.00     0.03  -0.01   0.00     0.00   0.00  -0.00
    12   6     0.06  -0.04   0.00    -0.05   0.03  -0.00    -0.00  -0.00   0.00
    13   1    -0.22  -0.04   0.05     0.16   0.02  -0.04     0.00  -0.00  -0.00
    14   1    -0.22  -0.04  -0.04     0.15   0.02   0.03     0.01   0.00  -0.00
    15   1     0.20   0.27  -0.03    -0.15  -0.20   0.02    -0.00  -0.00  -0.00
    16   6    -0.01   0.03   0.00    -0.03  -0.04  -0.00     0.00  -0.01   0.02
    17   6    -0.05   0.02  -0.03    -0.05   0.05  -0.04     0.00   0.00   0.04
    18   7    -0.02  -0.04  -0.00    -0.02  -0.01  -0.00    -0.02  -0.02   0.03
    19   6     0.00   0.03   0.03     0.02   0.05   0.04     0.02   0.02   0.02
    20   6     0.04  -0.05  -0.01     0.03  -0.06   0.00    -0.00   0.00  -0.11
    21   1     0.21   0.06   0.03     0.38   0.08   0.07    -0.33  -0.01  -0.07
    22   1     0.00   0.05  -0.01     0.04   0.09  -0.01     0.44   0.00   0.05
    23   1     0.00   0.03   0.03    -0.08  -0.02   0.02     0.44   0.38   0.11
    24   1    -0.16  -0.13  -0.04    -0.19  -0.16  -0.05    -0.39  -0.31  -0.05
    25   1     0.08  -0.16  -0.02     0.14  -0.23  -0.02    -0.21  -0.08  -0.09
    26   1    -0.19   0.37   0.05    -0.26   0.47   0.05     0.09   0.01   0.08
    27   1     0.21  -0.15  -0.01     0.06  -0.05  -0.03    -0.00  -0.01  -0.03
                     43                     44                     45
                      A                      A                      A
 Frequencies --   1261.5970              1290.4381              1301.1254
 Red. masses --      2.5436                 2.0243                 4.0160
 Frc consts  --      2.3853                 1.9861                 4.0057
 IR Inten    --     37.7822               199.3618               194.7613
  Atom  AN      X      Y      Z        X      Y      Z        X      Y      Z
     1   6    -0.05  -0.08   0.01    -0.04   0.02  -0.00     0.32   0.18  -0.01
     2   6     0.09   0.04   0.00    -0.00   0.01  -0.00     0.12  -0.11   0.01
     3   6    -0.10  -0.12   0.01     0.01  -0.00   0.00    -0.16   0.01  -0.00
     4   6    -0.01   0.24  -0.02    -0.14  -0.04   0.00    -0.01   0.07  -0.00
     5   6     0.06  -0.08   0.01    -0.02   0.05  -0.00    -0.01  -0.09   0.01
     6   6    -0.08   0.03  -0.00     0.05  -0.04   0.00     0.01  -0.05   0.00
     7   1     0.42   0.29  -0.03     0.06  -0.03   0.01    -0.19  -0.17   0.01
     8   1     0.32  -0.11  -0.03     0.16  -0.09   0.01     0.27  -0.21  -0.00
     9   1    -0.48  -0.30   0.08     0.05   0.02  -0.01    -0.32  -0.05   0.03
    10   1     0.17  -0.15   0.02     0.13  -0.05  -0.00    -0.37   0.13  -0.00
    11   8     0.06   0.02  -0.00     0.02  -0.01   0.00    -0.20  -0.01   0.00
    12   6    -0.03  -0.02   0.00    -0.01   0.00  -0.00     0.07   0.05  -0.00
    13   1     0.04   0.00  -0.00     0.06   0.03  -0.00    -0.28  -0.16  -0.04
    14   1     0.05   0.01  -0.00     0.06   0.03  -0.00    -0.28  -0.14   0.06
    15   1    -0.02   0.00   0.00    -0.02  -0.01   0.00     0.03  -0.02  -0.00
    16   6    -0.04   0.06   0.01     0.13   0.13  -0.01    -0.01   0.02  -0.00
    17   6    -0.01  -0.01  -0.01     0.02  -0.03  -0.01     0.05   0.01  -0.00
    18   7     0.06  -0.05  -0.01     0.04  -0.06  -0.00     0.02  -0.01   0.00
    19   6    -0.04  -0.02  -0.00    -0.11  -0.03   0.02    -0.02  -0.01   0.01
    20   6     0.01   0.01   0.01     0.05  -0.06  -0.01    -0.00  -0.01  -0.00
    21   1    -0.01  -0.01   0.00    -0.16  -0.02  -0.07    -0.13  -0.03  -0.02
    22   1    -0.04   0.02   0.00    -0.42  -0.02  -0.04    -0.19  -0.01  -0.02
    23   1    -0.01  -0.05   0.00     0.29   0.36   0.10     0.08   0.07   0.02
    24   1     0.05   0.03  -0.02     0.13   0.19   0.08     0.02   0.00  -0.01
    25   1     0.02   0.01   0.01     0.04  -0.17  -0.01     0.05  -0.10  -0.01
    26   1     0.01   0.01   0.01    -0.24   0.49   0.06    -0.08   0.12   0.00
    27   1     0.26  -0.14  -0.04    -0.09  -0.00   0.03     0.01  -0.01  -0.01
                     46                     47                     48
                      A                      A                      A
 Frequencies --   1320.6318              1332.7704              1351.7989
 Red. masses --      1.6401                 1.3467                 2.2130
 Frc consts  --      1.6853                 1.4093                 2.3826
 IR Inten    --     16.2950                 6.6938               146.4737
  Atom  AN      X      Y      Z        X      Y      Z        X      Y      Z
     1   6    -0.03  -0.02   0.00    -0.03   0.06  -0.00    -0.09   0.23  -0.02
     2   6     0.00   0.02  -0.00    -0.02  -0.00   0.00    -0.01  -0.05   0.00
     3   6    -0.01  -0.01  -0.00    -0.02  -0.02   0.00    -0.04  -0.07   0.01
     4   6     0.01   0.01   0.00     0.03  -0.02  -0.00    -0.01   0.04  -0.00
     5   6     0.01  -0.01  -0.00     0.02  -0.01   0.00     0.07  -0.04   0.00
     6   6    -0.01   0.01  -0.00     0.00  -0.00   0.00    -0.04  -0.06   0.00
     7   1     0.01   0.02  -0.00    -0.15  -0.08   0.00    -0.24  -0.16   0.01
     8   1     0.00   0.02   0.00     0.20  -0.15   0.01     0.36  -0.30   0.02
     9   1     0.07   0.03   0.00     0.11   0.04   0.01     0.39   0.13  -0.03
    10   1     0.05  -0.03   0.00    -0.08   0.06  -0.00    -0.10   0.07  -0.00
    11   8     0.02   0.00  -0.00     0.03  -0.01   0.00     0.08  -0.04   0.00
    12   6    -0.01  -0.01   0.00    -0.02   0.00  -0.00    -0.06   0.00  -0.00
    13   1     0.02   0.01   0.00     0.06   0.01  -0.01     0.21   0.05  -0.02
    14   1     0.02   0.01  -0.01     0.07   0.01   0.01     0.21   0.05   0.01
    15   1     0.00   0.01   0.00    -0.02  -0.00   0.01    -0.05   0.02   0.01
    16   6    -0.03  -0.06  -0.01    -0.02   0.06   0.01     0.03   0.01  -0.00
    17   6     0.17   0.06  -0.00     0.03   0.02   0.03    -0.05  -0.04  -0.02
    18   7    -0.04   0.04   0.01    -0.04  -0.01  -0.00    -0.01  -0.00   0.00
    19   6     0.07   0.01   0.03     0.03   0.03  -0.02     0.02  -0.00   0.01
    20   6    -0.08   0.01   0.00     0.03  -0.10  -0.01    -0.04   0.08   0.01
    21   1    -0.47  -0.11  -0.06    -0.31  -0.01  -0.06     0.25   0.03   0.02
    22   1    -0.59  -0.08  -0.10     0.01  -0.03   0.00     0.05   0.04   0.02
    23   1    -0.10  -0.00  -0.01    -0.15  -0.22  -0.05    -0.01   0.01  -0.00
    24   1    -0.18  -0.22  -0.06    -0.00   0.02  -0.00    -0.08  -0.10  -0.03
    25   1     0.23  -0.37  -0.06    -0.31   0.59   0.07     0.19  -0.33  -0.04
    26   1    -0.13   0.03  -0.05    -0.11   0.14  -0.00     0.13  -0.23  -0.02
    27   1     0.15  -0.05  -0.02     0.37  -0.21  -0.03    -0.03   0.00   0.02
                     49                     50                     51
                      A                      A                      A
 Frequencies --   1361.5249              1383.0003              1438.1745
 Red. masses --      2.1215                 2.3253                 2.1208
 Frc consts  --      2.3171                 2.6205                 2.5845
 IR Inten    --    101.8284               177.2562               190.2489
  Atom  AN      X      Y      Z        X      Y      Z        X      Y      Z
     1   6     0.01   0.03  -0.00     0.04  -0.05   0.00    -0.01   0.16  -0.01
     2   6     0.05  -0.01   0.00    -0.06   0.03  -0.00    -0.05  -0.10   0.01
     3   6    -0.02  -0.01   0.00     0.04   0.02  -0.00     0.09   0.04  -0.00
     4   6    -0.14   0.06  -0.00    -0.02  -0.05   0.00     0.09   0.04  -0.00
     5   6    -0.03   0.02  -0.00    -0.08   0.03  -0.00    -0.13   0.06  -0.00
     6   6    -0.01  -0.06   0.00     0.10   0.02  -0.00     0.02  -0.10   0.01
     7   1     0.22   0.05   0.00    -0.07  -0.07   0.01     0.10  -0.07   0.01
     8   1    -0.03   0.05  -0.00     0.13  -0.09   0.01    -0.14  -0.05   0.01
     9   1    -0.02  -0.01  -0.01    -0.21  -0.10   0.03    -0.42  -0.22   0.03
    10   1     0.26  -0.17   0.01     0.10  -0.09  -0.00     0.62  -0.43   0.03
    11   8    -0.01  -0.00   0.00    -0.03   0.00  -0.00     0.02  -0.03   0.00
    12   6     0.00   0.00  -0.00     0.02   0.01  -0.00    -0.02   0.01  -0.00
    13   1    -0.00   0.01   0.01    -0.07  -0.03  -0.01     0.09   0.00  -0.02
    14   1    -0.00   0.01  -0.01    -0.07  -0.03   0.01     0.08   0.00   0.02
    15   1    -0.00  -0.00  -0.00    -0.00  -0.04   0.00    -0.02   0.01  -0.00
    16   6     0.19  -0.09  -0.01     0.05   0.22   0.01    -0.09  -0.02   0.00
    17   6    -0.03   0.01   0.01    -0.04  -0.08  -0.01     0.02   0.02  -0.00
    18   7     0.00   0.01  -0.01    -0.02  -0.10  -0.01     0.02   0.00   0.00
    19   6     0.06   0.12   0.02     0.07   0.06   0.02    -0.01  -0.00   0.00
    20   6    -0.01  -0.06  -0.01    -0.05   0.08   0.01     0.01  -0.01  -0.00
    21   1     0.04   0.07  -0.02     0.06  -0.04  -0.01    -0.07  -0.04   0.03
    22   1     0.05  -0.02  -0.01    -0.05  -0.01   0.02     0.01  -0.03  -0.02
    23   1    -0.45  -0.30  -0.07    -0.10  -0.32  -0.02     0.12  -0.05   0.03
    24   1    -0.42  -0.23  -0.02    -0.23  -0.31  -0.20     0.10   0.01  -0.08
    25   1    -0.12   0.18   0.02     0.12  -0.25  -0.03    -0.02   0.03   0.00
    26   1    -0.07   0.01  -0.04     0.16  -0.35  -0.07    -0.02   0.04   0.01
    27   1    -0.34   0.16   0.07     0.37  -0.30  -0.03    -0.02   0.02  -0.02
                     52                     53                     54
                      A                      A                      A
 Frequencies --   1463.1450              1470.3579              1473.2206
 Red. masses --      1.1858                 2.0340                 1.2757
 Frc consts  --      1.4957                 2.5909                 1.6314
 IR Inten    --     78.5099                 8.1802                39.6866
  Atom  AN      X      Y      Z        X      Y      Z        X      Y      Z
     1   6     0.00   0.02  -0.00     0.00  -0.04   0.00    -0.02  -0.01   0.00
     2   6     0.05  -0.05   0.00    -0.09   0.05  -0.00    -0.05   0.01  -0.00
     3   6    -0.00   0.04  -0.00     0.07  -0.04   0.00     0.05  -0.01   0.00
     4   6    -0.01  -0.02   0.00    -0.03   0.12  -0.01    -0.01   0.06  -0.00
     5   6     0.03  -0.01   0.00    -0.06  -0.09   0.01    -0.02  -0.04   0.00
     6   6    -0.01   0.01  -0.00     0.16   0.07  -0.01     0.06   0.03  -0.00
     7   1    -0.04  -0.01   0.00    -0.38  -0.22   0.02    -0.18  -0.10   0.01
     8   1    -0.21   0.12  -0.01     0.21  -0.15   0.01     0.05  -0.05   0.01
     9   1    -0.19  -0.05   0.01    -0.04  -0.11   0.00    -0.08  -0.08   0.00
    10   1    -0.12   0.08  -0.01    -0.20  -0.02   0.00    -0.09   0.00   0.00
    11   8    -0.02  -0.02   0.00    -0.02  -0.02   0.00     0.00   0.00  -0.00
    12   6    -0.02  -0.07   0.01    -0.01  -0.03  -0.00    -0.00   0.01  -0.00
    13   1     0.15   0.53   0.30     0.08   0.19   0.10     0.01  -0.15  -0.09
    14   1     0.12   0.46  -0.37     0.15   0.16  -0.12     0.03  -0.13   0.11
    15   1     0.07   0.13  -0.02     0.08   0.17   0.05     0.01   0.04   0.01
    16   6    -0.01   0.03   0.00    -0.01  -0.05  -0.00    -0.03  -0.04   0.00
    17   6     0.01  -0.03   0.00     0.00   0.07  -0.01     0.03  -0.06   0.01
    18   7     0.01  -0.01  -0.00     0.05  -0.01  -0.00     0.03  -0.00  -0.00
    19   6    -0.00   0.01   0.01    -0.02   0.02   0.01     0.00   0.00   0.00
    20   6    -0.00   0.00   0.00     0.01  -0.02  -0.01     0.01  -0.01   0.00
    21   1    -0.03   0.12  -0.14    -0.01  -0.28   0.31    -0.04   0.43  -0.46
    22   1    -0.06   0.15   0.09     0.08  -0.35  -0.21    -0.13   0.52   0.30
    23   1     0.02  -0.07   0.01     0.00  -0.04   0.01    -0.08   0.03  -0.02
    24   1    -0.00  -0.04  -0.07    -0.01  -0.01  -0.03    -0.06   0.00   0.06
    25   1    -0.03  -0.02   0.00     0.02   0.05  -0.00    -0.10  -0.02   0.02
    26   1    -0.01  -0.01  -0.03    -0.02   0.07   0.05    -0.06   0.01  -0.08
    27   1    -0.00  -0.01  -0.00    -0.24   0.13   0.02    -0.13   0.08   0.01
                     55                     56                     57
                      A                      A                      A
 Frequencies --   1479.3186              1486.1375              1494.3331
 Red. masses --      1.2594                 1.0477                 1.1316
 Frc consts  --      1.6238                 1.3634                 1.4888
 IR Inten    --      2.1094                20.7871                61.1812
  Atom  AN      X      Y      Z        X      Y      Z        X      Y      Z
     1   6     0.03  -0.00   0.00     0.01  -0.00   0.00     0.00  -0.00   0.00
     2   6    -0.02   0.01  -0.00     0.00   0.00  -0.00     0.03  -0.04   0.00
     3   6    -0.00  -0.01  -0.00    -0.01   0.00  -0.00     0.02   0.03  -0.00
     4   6     0.01   0.02  -0.00     0.00  -0.01   0.00    -0.03  -0.02   0.00
     5   6    -0.05   0.01  -0.00     0.00   0.01  -0.00     0.03  -0.01   0.00
     6   6     0.03  -0.01   0.00    -0.01  -0.00   0.00    -0.01   0.01  -0.00
     7   1     0.02  -0.02   0.00     0.03   0.02  -0.00    -0.02   0.01  -0.00
     8   1     0.08  -0.05   0.00    -0.01   0.01  -0.01    -0.19   0.11  -0.01
     9   1    -0.04  -0.03   0.01     0.02   0.01  -0.00    -0.18  -0.06   0.01
    10   1     0.10  -0.09   0.01     0.02  -0.00  -0.00    -0.10   0.08  -0.01
    11   8    -0.02  -0.01   0.00    -0.00  -0.00  -0.01    -0.03   0.00  -0.00
    12   6     0.00  -0.01  -0.00     0.00  -0.00  -0.06    -0.06  -0.01   0.00
    13   1    -0.02   0.14   0.09    -0.48   0.04   0.07     0.37  -0.24  -0.19
    14   1     0.02   0.12  -0.10     0.48  -0.02   0.06     0.39  -0.20   0.22
    15   1     0.01   0.01   0.04     0.01   0.06   0.72     0.22   0.56  -0.03
    16   6     0.05  -0.03   0.00    -0.00   0.00   0.00     0.01   0.02   0.00
    17   6    -0.02  -0.01  -0.00     0.00  -0.00   0.00    -0.00   0.00  -0.00
    18   7    -0.05   0.04   0.00    -0.00  -0.00   0.00     0.00  -0.01  -0.00
    19   6     0.04  -0.08  -0.04    -0.00   0.00   0.00     0.01  -0.00  -0.00
    20   6    -0.01   0.01  -0.01     0.00   0.00   0.00    -0.01  -0.00  -0.01
    21   1     0.07   0.05  -0.02    -0.00   0.01  -0.01    -0.00  -0.05   0.05
    22   1     0.04   0.05   0.02    -0.00   0.01   0.01     0.00  -0.06  -0.04
    23   1    -0.32   0.48  -0.15     0.02  -0.02   0.01    -0.08   0.05  -0.03
    24   1    -0.19   0.19   0.52     0.02  -0.01  -0.03    -0.06   0.01   0.07
    25   1     0.15   0.05  -0.02    -0.01  -0.01   0.00     0.10   0.04  -0.02
    26   1     0.08  -0.02   0.13    -0.01  -0.00  -0.01     0.04  -0.00   0.09
    27   1     0.33  -0.13  -0.04    -0.00   0.00   0.00     0.06  -0.04  -0.01
                     58                     59                     60
                      A                      A                      A
 Frequencies --   1503.0922              1507.9466              1541.1835
 Red. masses --      1.2390                 1.4149                 1.9657
 Frc consts  --      1.6492                 1.8956                 2.7508
 IR Inten    --    106.3651               277.2091               105.1379
  Atom  AN      X      Y      Z        X      Y      Z        X      Y      Z
     1   6    -0.06   0.03  -0.00     0.09  -0.04   0.00    -0.04   0.00  -0.00
     2   6     0.02  -0.04   0.00    -0.04   0.07  -0.01     0.03  -0.02   0.00
     3   6     0.04   0.02  -0.00    -0.06  -0.04   0.00     0.02   0.01  -0.00
     4   6    -0.03   0.00   0.00     0.05  -0.00  -0.00    -0.07   0.04  -0.00
     5   6     0.04  -0.02   0.00    -0.05   0.03  -0.00    -0.02  -0.02   0.00
     6   6     0.01   0.01  -0.00    -0.01  -0.02   0.00     0.06   0.02  -0.00
     7   1    -0.09  -0.04   0.00     0.15   0.06  -0.01    -0.12  -0.08   0.01
     8   1    -0.13   0.05  -0.00     0.24  -0.11   0.01    -0.10   0.06  -0.00
     9   1    -0.17  -0.08   0.01     0.32   0.14  -0.02    -0.24  -0.11   0.03
    10   1    -0.12   0.08  -0.00     0.19  -0.12   0.01    -0.08   0.01  -0.00
    11   8     0.03   0.00  -0.00    -0.04  -0.00   0.00     0.01  -0.00  -0.00
    12   6     0.02   0.02  -0.00    -0.02  -0.02   0.00     0.01   0.01  -0.00
    13   1    -0.18  -0.04  -0.00     0.19   0.08   0.03    -0.03  -0.04  -0.02
    14   1    -0.14  -0.04   0.01     0.14   0.08  -0.05    -0.03  -0.04   0.03
    15   1    -0.10  -0.24   0.05     0.11   0.25  -0.05    -0.01  -0.04   0.01
    16   6    -0.01   0.02   0.00     0.01  -0.03   0.00     0.15  -0.11  -0.01
    17   6     0.01  -0.01  -0.00    -0.00  -0.02   0.00    -0.03   0.00  -0.00
    18   7     0.02  -0.02  -0.00    -0.02   0.02   0.01    -0.13   0.11   0.02
    19   6    -0.00   0.02   0.00    -0.02   0.02   0.01    -0.03  -0.02  -0.00
    20   6    -0.06  -0.03  -0.04    -0.04  -0.02  -0.02    -0.01   0.01   0.01
    21   1    -0.03   0.00  -0.02     0.01   0.13  -0.14     0.12   0.08  -0.02
    22   1    -0.02   0.01   0.00    -0.01   0.16   0.09     0.04   0.05   0.02
    23   1    -0.03  -0.03  -0.00     0.22  -0.16   0.08     0.40  -0.17   0.12
    24   1    -0.05  -0.03  -0.02     0.15  -0.04  -0.23     0.36   0.01  -0.32
    25   1     0.53   0.30  -0.10     0.34   0.20  -0.06     0.00  -0.04   0.01
    26   1     0.22   0.07   0.57     0.14   0.05   0.37    -0.01  -0.02  -0.03
    27   1    -0.07   0.02   0.01    -0.03   0.03   0.01     0.54  -0.18  -0.06
                     61                     62                     63
                      A                      A                      A
 Frequencies --   1608.9512              2985.8988              2990.7673
 Red. masses --      4.7708                 1.0729                 1.0727
 Frc consts  --      7.2765                 5.6360                 5.6531
 IR Inten    --    437.1791                54.8027                43.5164
  Atom  AN      X      Y      Z        X      Y      Z        X      Y      Z
     1   6     0.18   0.03  -0.00    -0.00   0.00  -0.00     0.00   0.00  -0.00
     2   6    -0.29   0.06  -0.00     0.00  -0.00   0.00     0.00  -0.00   0.00
     3   6     0.30   0.03  -0.00     0.00   0.00  -0.00     0.00   0.00  -0.00
     4   6    -0.12  -0.02   0.00    -0.00   0.00   0.00     0.00  -0.00  -0.00
     5   6     0.21  -0.02  -0.00     0.00  -0.00  -0.00    -0.00   0.00   0.00
     6   6    -0.25  -0.07   0.01    -0.00  -0.00  -0.00    -0.00  -0.00   0.00
     7   1     0.31   0.24  -0.02    -0.00   0.00   0.00     0.00  -0.00  -0.00
     8   1     0.32  -0.35   0.02    -0.00  -0.00  -0.00    -0.00  -0.00   0.00
     9   1    -0.32  -0.29   0.03    -0.00  -0.00  -0.00    -0.00   0.00  -0.00
    10   1    -0.14   0.22  -0.02     0.00   0.00  -0.00     0.00   0.00  -0.00
    11   8    -0.02  -0.00  -0.00     0.00  -0.00   0.00     0.00  -0.00   0.00
    12   6    -0.00  -0.01   0.00    -0.00   0.00  -0.00    -0.00   0.00   0.00
    13   1    -0.02   0.06   0.05     0.00  -0.00   0.00     0.00  -0.00   0.00
    14   1    -0.02   0.06  -0.06     0.00  -0.00  -0.00     0.00  -0.00  -0.00
    15   1    -0.00  -0.00  -0.00    -0.00   0.00  -0.00    -0.00   0.00  -0.00
    16   6     0.03  -0.03  -0.00     0.00   0.00   0.00    -0.00   0.00   0.00
    17   6     0.01   0.01   0.00    -0.00   0.04  -0.06    -0.00   0.02  -0.03
    18   7    -0.02   0.03  -0.00    -0.00  -0.00  -0.00     0.00  -0.00  -0.00
    19   6     0.00  -0.00   0.00    -0.01   0.01   0.03     0.02  -0.01  -0.07
    20   6    -0.00  -0.00   0.00    -0.00  -0.00   0.00    -0.00  -0.00   0.01
    21   1    -0.01  -0.01   0.02     0.03  -0.08  -0.11     0.01  -0.03  -0.04
    22   1    -0.03  -0.04  -0.03    -0.03  -0.42   0.80    -0.01  -0.18   0.34
    23   1     0.00  -0.03   0.01     0.10  -0.02  -0.37    -0.23   0.05   0.87
    24   1     0.02  -0.01  -0.03     0.03  -0.05   0.05    -0.06   0.09  -0.09
    25   1    -0.01  -0.01   0.00    -0.00   0.00  -0.02    -0.01   0.00  -0.06
    26   1    -0.02   0.00  -0.02     0.01   0.01  -0.00     0.03   0.02  -0.02
    27   1     0.09  -0.02   0.00    -0.00  -0.00  -0.00     0.00  -0.00  -0.00
                     64                     65                     66
                      A                      A                      A
 Frequencies --   3058.8905              3074.4315              3085.3148
 Red. masses --      1.0315                 1.0724                 1.0837
 Frc consts  --      5.6867                 5.9723                 6.0778
 IR Inten    --      8.3754                14.7084                47.1699
  Atom  AN      X      Y      Z        X      Y      Z        X      Y      Z
     1   6    -0.00   0.00  -0.00     0.00   0.00   0.00     0.00  -0.00  -0.00
     2   6    -0.00  -0.00   0.00     0.00  -0.00   0.00    -0.00  -0.00  -0.00
     3   6     0.00   0.00   0.00     0.00   0.00   0.00    -0.00  -0.00  -0.00
     4   6    -0.00  -0.00  -0.00    -0.00   0.00  -0.00     0.00  -0.00   0.00
     5   6    -0.00   0.00  -0.00    -0.00  -0.00   0.00     0.00   0.00  -0.00
     6   6     0.00   0.00   0.00    -0.00  -0.00   0.00     0.00   0.00  -0.00
     7   1    -0.00   0.00   0.00     0.00  -0.00  -0.00    -0.00   0.00   0.00
     8   1     0.01   0.01  -0.00    -0.00  -0.00   0.00     0.00   0.00  -0.00
     9   1     0.00  -0.00   0.00    -0.00   0.00  -0.00     0.00  -0.00   0.00
    10   1     0.00  -0.00   0.00     0.00   0.01  -0.00    -0.01  -0.01   0.00
    11   8     0.00   0.00  -0.00     0.00  -0.00   0.00    -0.00   0.00  -0.00
    12   6     0.01   0.05   0.00    -0.00  -0.00   0.00     0.00   0.00  -0.00
    13   1     0.09  -0.29   0.55    -0.00   0.00  -0.01     0.00  -0.00   0.00
    14   1     0.09  -0.42  -0.54    -0.00   0.00   0.01     0.00  -0.00  -0.00
    15   1    -0.31   0.14  -0.01     0.00  -0.00   0.00    -0.00   0.00  -0.00
    16   6     0.00   0.00   0.00     0.00   0.00  -0.00    -0.00   0.00   0.00
    17   6    -0.00   0.00   0.00    -0.01   0.03   0.03     0.02  -0.04  -0.06
    18   7    -0.00  -0.00  -0.00     0.00  -0.00   0.00     0.00   0.00  -0.00
    19   6    -0.00  -0.00   0.00     0.01  -0.01   0.01     0.01  -0.01   0.01
    20   6    -0.00  -0.00  -0.00    -0.03  -0.01  -0.05    -0.02  -0.01  -0.03
    21   1     0.00  -0.01  -0.01     0.12  -0.36  -0.37    -0.20   0.56   0.57
    22   1     0.00   0.01  -0.01    -0.00   0.03  -0.03     0.00  -0.07   0.10
    23   1     0.00  -0.00  -0.00     0.00  -0.00   0.01     0.01  -0.01  -0.03
    24   1    -0.00   0.00  -0.00    -0.08   0.12  -0.09    -0.13   0.18  -0.13
    25   1     0.00  -0.00   0.01     0.11  -0.04   0.75     0.06  -0.02   0.43
    26   1     0.00   0.00  -0.00     0.24   0.15  -0.15     0.17   0.10  -0.10
    27   1     0.00   0.00   0.00    -0.00  -0.00  -0.00     0.00   0.00  -0.00
                     67                     68                     69
                      A                      A                      A
 Frequencies --   3099.9598              3134.6629              3139.1540
 Red. masses --      1.0889                 1.1077                 1.1026
 Frc consts  --      6.1653                 6.4127                 6.4018
 IR Inten    --     17.7130                14.3216                37.7105
  Atom  AN      X      Y      Z        X      Y      Z        X      Y      Z
     1   6     0.00   0.00  -0.00    -0.00   0.00   0.00     0.00  -0.00   0.00
     2   6    -0.00   0.00  -0.00    -0.00  -0.00   0.00    -0.00  -0.00   0.00
     3   6     0.00  -0.00   0.00     0.00   0.00   0.00    -0.00  -0.00  -0.00
     4   6     0.00  -0.00   0.00     0.00  -0.00   0.00     0.00   0.00   0.00
     5   6    -0.00  -0.00  -0.00    -0.00   0.00   0.00    -0.00  -0.00   0.00
     6   6    -0.00  -0.00   0.00     0.00  -0.00  -0.00     0.00   0.00  -0.00
     7   1     0.00  -0.00   0.00     0.00  -0.00   0.00     0.00  -0.00   0.00
     8   1    -0.00  -0.00   0.00     0.00   0.01  -0.00     0.00   0.00   0.00
     9   1    -0.00   0.00  -0.00     0.00  -0.00  -0.00     0.00  -0.00   0.00
    10   1     0.00   0.00  -0.00    -0.00  -0.00   0.00     0.00   0.00  -0.00
    11   8     0.00  -0.00   0.00     0.00   0.00   0.00    -0.00   0.00  -0.00
    12   6    -0.00  -0.00   0.00     0.00  -0.01  -0.10     0.00   0.00  -0.00
    13   1    -0.00   0.00  -0.00     0.12  -0.36   0.62     0.00  -0.00   0.00
    14   1    -0.00   0.00   0.00    -0.10   0.42   0.52    -0.00   0.00   0.00
    15   1     0.00  -0.00   0.00    -0.04   0.01  -0.02    -0.00   0.00  -0.00
    16   6    -0.00   0.00   0.00    -0.00  -0.00  -0.00     0.00   0.00   0.00
    17   6    -0.00   0.01   0.01    -0.00   0.00   0.00    -0.00   0.00   0.01
    18   7     0.00   0.00  -0.00     0.00   0.00   0.00     0.00   0.00   0.00
    19   6     0.03  -0.06   0.05     0.00  -0.00  -0.00     0.00  -0.00   0.01
    20   6     0.01   0.01   0.01     0.00   0.00  -0.00    -0.05  -0.04   0.07
    21   1     0.03  -0.09  -0.09     0.00  -0.00  -0.00     0.01  -0.03  -0.03
    22   1    -0.00   0.01  -0.01    -0.00   0.00  -0.00     0.00   0.02  -0.04
    23   1     0.04  -0.02  -0.13    -0.00   0.00   0.00     0.02  -0.01  -0.05
    24   1    -0.45   0.66  -0.48    -0.00   0.00  -0.00    -0.03   0.04  -0.03
    25   1    -0.03   0.01  -0.23     0.00  -0.00   0.00    -0.07   0.01  -0.40
    26   1    -0.14  -0.08   0.08    -0.00  -0.00   0.00     0.70   0.42  -0.38
    27   1     0.00  -0.00  -0.00    -0.00  -0.00  -0.00     0.00  -0.00  -0.00
                     70                     71                     72
                      A                      A                      A
 Frequencies --   3199.6678              3223.2836              3225.6884
 Red. masses --      1.1040                 1.0888                 1.0879
 Frc consts  --      6.6592                 6.6652                 6.6694
 IR Inten    --     34.3363                 6.7366                 7.4231
  Atom  AN      X      Y      Z        X      Y      Z        X      Y      Z
     1   6     0.00   0.00   0.00     0.00   0.00  -0.00    -0.00  -0.00   0.00
     2   6    -0.00  -0.00   0.00     0.00   0.01  -0.00     0.02   0.03  -0.00
     3   6    -0.00   0.00  -0.00     0.01  -0.01   0.00     0.03  -0.07   0.01
     4   6     0.00   0.00  -0.00     0.00  -0.00   0.00     0.00   0.00  -0.00
     5   6    -0.00  -0.00   0.00     0.02   0.04  -0.00    -0.01  -0.01   0.00
     6   6     0.00   0.00  -0.00     0.03  -0.06   0.00    -0.01   0.01  -0.00
     7   1     0.00  -0.00   0.00    -0.37   0.71  -0.05     0.07  -0.13   0.01
     8   1     0.03   0.04  -0.00    -0.06  -0.09   0.01    -0.24  -0.37   0.03
     9   1     0.01  -0.01   0.00    -0.08   0.16  -0.01    -0.38   0.78  -0.07
    10   1     0.00   0.00  -0.00    -0.29  -0.46   0.04     0.08   0.13  -0.01
    11   8     0.00  -0.00  -0.00    -0.00  -0.00  -0.00     0.00   0.00  -0.00
    12   6    -0.08   0.05  -0.01    -0.00   0.00  -0.00    -0.00   0.00  -0.00
    13   1     0.03  -0.11   0.22     0.00  -0.00   0.00     0.00  -0.01   0.01
    14   1     0.02  -0.12  -0.17     0.00  -0.00  -0.00     0.00  -0.01  -0.01
    15   1     0.85  -0.40   0.02     0.01  -0.00   0.00     0.02  -0.01   0.00
    16   6     0.00   0.00   0.00     0.00   0.00  -0.00     0.00  -0.00   0.00
    17   6    -0.00  -0.00   0.00    -0.00   0.00   0.00    -0.00  -0.00  -0.00
    18   7    -0.00  -0.00  -0.00    -0.00   0.00   0.00     0.00   0.00   0.00
    19   6    -0.00   0.00   0.00     0.00  -0.00  -0.00    -0.00   0.00   0.00
    20   6     0.00   0.00   0.00    -0.00  -0.00  -0.00    -0.00  -0.00   0.00
    21   1    -0.00   0.00   0.00     0.00  -0.00  -0.00    -0.00   0.00   0.00
    22   1    -0.00   0.00  -0.00     0.00  -0.00   0.00     0.00   0.00  -0.00
    23   1     0.00  -0.00  -0.00    -0.00   0.00   0.00     0.00  -0.00  -0.00
    24   1     0.00  -0.00   0.00    -0.00   0.00  -0.00     0.00  -0.00   0.00
    25   1    -0.00  -0.00  -0.00     0.00  -0.00   0.00    -0.00   0.00  -0.00
    26   1    -0.00  -0.00   0.00     0.00   0.00  -0.00     0.00   0.00  -0.00
    27   1     0.00   0.00   0.00    -0.00  -0.00  -0.00    -0.00  -0.01  -0.00
                     73                     74                     75
                      A                      A                      A
 Frequencies --   3236.1127              3240.8275              3573.0091
 Red. masses --      1.0949                 1.0945                 1.0796
 Frc consts  --      6.7555                 6.7727                 8.1208
 IR Inten    --      1.6473                 0.1347                98.8346
  Atom  AN      X      Y      Z        X      Y      Z        X      Y      Z
     1   6     0.00   0.00  -0.00    -0.00   0.00  -0.00    -0.00  -0.00  -0.00
     2   6    -0.01  -0.01   0.00    -0.04  -0.06   0.00     0.00  -0.00  -0.00
     3   6     0.00  -0.00   0.00     0.02  -0.04   0.00     0.00  -0.00   0.00
     4   6    -0.00   0.00  -0.00     0.00   0.00  -0.00     0.00  -0.00   0.00
     5   6    -0.04  -0.06   0.01     0.00   0.01  -0.00    -0.00   0.00  -0.00
     6   6     0.03  -0.04   0.00    -0.00   0.00  -0.00     0.00   0.00  -0.00
     7   1    -0.26   0.49  -0.03     0.02  -0.04   0.00    -0.00   0.00  -0.00
     8   1     0.06   0.09  -0.01     0.48   0.74  -0.05     0.00   0.00   0.00
     9   1    -0.00   0.01  -0.00    -0.20   0.40  -0.04    -0.01   0.01   0.00
    10   1     0.44   0.68  -0.06    -0.05  -0.08   0.01     0.00   0.00  -0.00
    11   8    -0.00  -0.00   0.00     0.00  -0.00   0.00     0.00   0.00   0.00
    12   6     0.00  -0.00   0.00     0.00  -0.00   0.00     0.00  -0.00  -0.00
    13   1    -0.00   0.00  -0.00    -0.00   0.01  -0.02    -0.00   0.00  -0.00
    14   1    -0.00   0.00   0.00    -0.00   0.01   0.01    -0.00   0.00   0.00
    15   1    -0.00   0.00  -0.00    -0.02   0.01  -0.00    -0.00   0.00   0.00
    16   6    -0.00  -0.00   0.00    -0.00  -0.00   0.00    -0.00   0.00  -0.00
    17   6     0.00  -0.00  -0.00    -0.00   0.00   0.00     0.00   0.00  -0.00
    18   7     0.00   0.00   0.00     0.00   0.00   0.00    -0.03  -0.07  -0.02
    19   6     0.00  -0.00  -0.00    -0.00   0.00   0.00     0.00   0.00  -0.00
    20   6     0.00   0.00  -0.00     0.00  -0.00   0.00     0.00   0.00   0.00
    21   1    -0.00   0.01   0.01     0.00  -0.00  -0.00     0.00  -0.00  -0.00
    22   1    -0.00   0.00  -0.00     0.00  -0.00   0.00     0.00  -0.00   0.00
    23   1    -0.00   0.00   0.00     0.00  -0.00  -0.00     0.00  -0.00  -0.00
    24   1    -0.00   0.00  -0.00     0.00  -0.00   0.00    -0.00  -0.00  -0.00
    25   1     0.00   0.00   0.00    -0.00  -0.00  -0.00    -0.00  -0.00  -0.00
    26   1    -0.00  -0.00   0.00    -0.00  -0.00   0.00     0.00   0.00  -0.00
    27   1    -0.00  -0.00  -0.00    -0.00  -0.01  -0.00     0.43   0.87   0.24

 -------------------
 - Thermochemistry -
 -------------------
 Temperature   298.150 Kelvin.  Pressure   1.00000 Atm.
 Atom     1 has atomic number  6 and mass  12.00000
 Atom     2 has atomic number  6 and mass  12.00000
 Atom     3 has atomic number  6 and mass  12.00000
 Atom     4 has atomic number  6 and mass  12.00000
 Atom     5 has atomic number  6 and mass  12.00000
 Atom     6 has atomic number  6 and mass  12.00000
 Atom     7 has atomic number  1 and mass   1.00783
 Atom     8 has atomic number  1 and mass   1.00783
 Atom     9 has atomic number  1 and mass   1.00783
 Atom    10 has atomic number  1 and mass   1.00783
 Atom    11 has atomic number  8 and mass  15.99491
 Atom    12 has atomic number  6 and mass  12.00000
 Atom    13 has atomic number  1 and mass   1.00783
 Atom    14 has atomic number  1 and mass   1.00783
 Atom    15 has atomic number  1 and mass   1.00783
 Atom    16 has atomic number  6 and mass  12.00000
 Atom    17 has atomic number  6 and mass  12.00000
 Atom    18 has atomic number  7 and mass  14.00307
 Atom    19 has atomic number  6 and mass  12.00000
 Atom    20 has atomic number  6 and mass  12.00000
 Atom    21 has atomic number  1 and mass   1.00783
 Atom    22 has atomic number  1 and mass   1.00783
 Atom    23 has atomic number  1 and mass   1.00783
 Atom    24 has atomic number  1 and mass   1.00783
 Atom    25 has atomic number  1 and mass   1.00783
 Atom    26 has atomic number  1 and mass   1.00783
 Atom    27 has atomic number  1 and mass   1.00783
 Molecular mass:   176.10754 amu.
 Principal axes and moments of inertia in atomic units:
                           1         2         3
     Eigenvalues --   640.274285173.190395743.16401
           X            0.99995   0.00988  -0.00078
           Y           -0.00988   0.99995   0.00094
           Z            0.00079  -0.00093   1.00000
 This molecule is an asymmetric top.
 Rotational symmetry number  1.
 Warning -- assumption of classical behavior for rotation
           may cause significant error
 Rotational temperatures (Kelvin)      0.13528     0.01674     0.01508
 Rotational constants (GHZ):           2.81870     0.34886     0.31424
 Zero-point vibrational energy     599709.0 (Joules/Mol)
                                  143.33389 (Kcal/Mol)
 Warning -- explicit consideration of  18 degrees of freedom as
           vibrations may cause significant error
 Vibrational temperatures:     78.76   103.19   158.27   183.92   218.48
          (Kelvin)            286.49   308.77   346.79   396.95   427.03
                              470.87   545.33   572.00   601.00   711.27
                              727.71   822.07   873.62   926.53  1004.41
                             1078.25  1114.76  1157.53  1180.11  1250.58
                             1280.83  1335.32  1340.25  1375.80  1401.91
                             1420.33  1426.25  1450.80  1523.17  1548.19
                             1648.29  1658.29  1686.38  1723.43  1736.39
                             1741.72  1777.61  1815.16  1856.65  1872.03
                             1900.09  1917.56  1944.94  1958.93  1989.83
                             2069.21  2105.14  2115.52  2119.64  2128.41
                             2138.22  2150.01  2162.61  2169.60  2217.42
                             2314.92  4296.04  4303.05  4401.06  4423.42
                             4439.08  4460.15  4510.08  4516.54  4603.61
                             4637.59  4641.05  4656.04  4662.83  5140.76
 
 Zero-point correction=                           0.228417 (Hartree/Particle)
 Thermal correction to Energy=                    0.240789
 Thermal correction to Enthalpy=                  0.241733
 Thermal correction to Gibbs Free Energy=         0.189877
 Sum of electronic and zero-point Energies=           -557.097402
 Sum of electronic and thermal Energies=              -557.085030
 Sum of electronic and thermal Enthalpies=            -557.084086
 Sum of electronic and thermal Free Energies=         -557.135942
 
                     E (Thermal)             CV                S
                      KCal/Mol        Cal/Mol-Kelvin    Cal/Mol-Kelvin
 Total                  151.097             47.634            109.140
 Electronic               0.000              0.000              0.000
 Translational            0.889              2.981             41.405
 Rotational               0.889              2.981             31.320
 Vibrational            149.320             41.672             36.415
 Vibration     1          0.596              1.976              4.638
 Vibration     2          0.598              1.967              4.105
 Vibration     3          0.606              1.941              3.269
 Vibration     4          0.611              1.925              2.978
 Vibration     5          0.619              1.901              2.649
 Vibration     6          0.637              1.841              2.141
 Vibration     7          0.645              1.819              2.004
 Vibration     8          0.658              1.778              1.795
 Vibration     9          0.678              1.718              1.559
 Vibration    10          0.690              1.680              1.435
 Vibration    11          0.711              1.621              1.274
 Vibration    12          0.749              1.515              1.043
 Vibration    13          0.764              1.475              0.972
 Vibration    14          0.781              1.432              0.900
 Vibration    15          0.850              1.263              0.672
 Vibration    16          0.861              1.237              0.644
 Vibration    17          0.928              1.093              0.502
 Vibration    18          0.966              1.017              0.437
                       Q            Log10(Q)             Ln(Q)
 Total Bot       0.459951D-87        -87.337289       -201.101539
 Total V=0       0.533567D+18         17.727189         40.818362
 Vib (Bot)       0.320706-101       -101.493893       -233.698325
 Vib (Bot)    1  0.377478D+01          0.576892          1.328342
 Vib (Bot)    2  0.287486D+01          0.458617          1.056004
 Vib (Bot)    3  0.186181D+01          0.269936          0.621550
 Vib (Bot)    4  0.159567D+01          0.202943          0.467293
 Vib (Bot)    5  0.133458D+01          0.125343          0.288613
 Vib (Bot)    6  0.100171D+01          0.000742          0.001709
 Vib (Bot)    7  0.923777D+00         -0.034433         -0.079285
 Vib (Bot)    8  0.813116D+00         -0.089847         -0.206881
 Vib (Bot)    9  0.698362D+00         -0.155919         -0.359017
 Vib (Bot)   10  0.641905D+00         -0.192529         -0.443315
 Vib (Bot)   11  0.571872D+00         -0.242701         -0.558840
 Vib (Bot)   12  0.477361D+00         -0.321153         -0.739483
 Vib (Bot)   13  0.449126D+00         -0.347632         -0.800452
 Vib (Bot)   14  0.421090D+00         -0.375625         -0.864909
 Vib (Bot)   15  0.334119D+00         -0.476098         -1.096257
 Vib (Bot)   16  0.323273D+00         -0.490431         -1.129259
 Vib (Bot)   17  0.268997D+00         -0.570252         -1.313054
 Vib (Bot)   18  0.244095D+00         -0.612441         -1.410198
 Vib (V=0)       0.372036D+04          3.570585          8.221576
 Vib (V=0)    1  0.430775D+01          0.634251          1.460416
 Vib (V=0)    2  0.341802D+01          0.533774          1.229061
 Vib (V=0)    3  0.242778D+01          0.385210          0.886978
 Vib (V=0)    4  0.217217D+01          0.336894          0.775728
 Vib (V=0)    5  0.192516D+01          0.284468          0.655011
 Vib (V=0)    6  0.161956D+01          0.209398          0.482157
 Vib (V=0)    7  0.155041D+01          0.190447          0.438520
 Vib (V=0)    8  0.145455D+01          0.162727          0.374694
 Vib (V=0)    9  0.135890D+01          0.133188          0.306676
 Vib (V=0)   10  0.131366D+01          0.118483          0.272817
 Vib (V=0)   11  0.125963D+01          0.100243          0.230818
 Vib (V=0)   12  0.119128D+01          0.076015          0.175031
 Vib (V=0)   13  0.117210D+01          0.068964          0.158794
 Vib (V=0)   14  0.115369D+01          0.062091          0.142970
 Vib (V=0)   15  0.110136D+01          0.041930          0.096547
 Vib (V=0)   16  0.109540D+01          0.039574          0.091123
 Vib (V=0)   17  0.106777D+01          0.028477          0.065570
 Vib (V=0)   18  0.105640D+01          0.023829          0.054868
 Electronic      0.100000D+01          0.000000          0.000000
 Translational   0.918588D+08          7.963121         18.335763
 Rotational      0.156129D+07          6.193483         14.261023
 
                                                    S1 excited-state optimization
                                                             IR Spectrum
 
     3        3333333333322                                       11111111111111111111111111111                                      
     5        2222211100099                                       65554444444333333222221111000999999888877 6 665 54 433322221 111   
     7        4322033087598                                       04009877763865320963109754750987532962074 9 407 09 197297419 52175 
     3        1663095054916                                       91834693038322311026178236698174628090559 8 471 64 889776159 28025 
 
     X        XXXXXXXXXXXXX                                       XXXXXXXXXXXXXXXXXXXXXXXXXXXXXXXXXXXXXXXXX X XXX XX XXXXXXXXX XXXXX 
     X            XX  X  XX                                       XXXXX  X XXXXX  XXX X X  X  X XX     XXX        X   X              
     X                    X                                       XXXXX    XXXXX  XX  X    X    XX      XX            X              
     X                                                            XXXX     XXXXX  XX  X          X      X             X              
     X                                                            XXXX      XXXX  XX  X          X      X             X              
                                                                  X X       XX X  XX  X                               X              
                                                                  X X       XX X  XX  X                               X              
                                                                  X X       XX    XX                                  X              
                                                                  X X       X     XX                                  X              
                                                                  X X                                                                
                                                                  X X                                                                
                                                                  X X                                                                
                                                                  X X                                                                
                                                                  X                                                                  
                                                                  X                                                                  
                                                                  X                                                                  
                                                                  X                                                                  
                                                                  X                                                                  
                                                                  X                                                                  
                                                                  X                                                                  
 
 ***** Axes restored to original set *****
 -------------------------------------------------------------------
 Center     Atomic                   Forces (Hartrees/Bohr)
 Number     Number              X              Y              Z
 -------------------------------------------------------------------
      1        6           0.000000564    0.000000407    0.000001346
      2        6          -0.000000762    0.000002075    0.000003732
      3        6           0.000000341   -0.000000531    0.000002475
      4        6           0.000002832    0.000000012    0.000000392
      5        6           0.000001914    0.000000566   -0.000002384
      6        6           0.000001216    0.000001493   -0.000001664
      7        1           0.000001389    0.000001039   -0.000002758
      8        1          -0.000001063    0.000001957    0.000005500
      9        1          -0.000001651    0.000002088    0.000005084
     10        1           0.000001471   -0.000000628   -0.000004586
     11        8          -0.000000418    0.000002529    0.000001998
     12        6          -0.000000208    0.000003462    0.000004942
     13        1           0.000000135    0.000004824    0.000005866
     14        1          -0.000001468    0.000001414    0.000006134
     15        1          -0.000000086    0.000003731    0.000004813
     16        6          -0.000002798   -0.000001053   -0.000001634
     17        6           0.000000822   -0.000001466   -0.000005271
     18        7          -0.000002736   -0.000000935    0.000000369
     19        6          -0.000000528   -0.000002769   -0.000000443
     20        6           0.000000561   -0.000001817   -0.000003421
     21        1           0.000000697    0.000000325   -0.000005436
     22        1           0.000000252   -0.000003441   -0.000005153
     23        1          -0.000001755   -0.000004952   -0.000001185
     24        1          -0.000000684   -0.000002166   -0.000000174
     25        1           0.000001390    0.000000294   -0.000004087
     26        1           0.000000541   -0.000003276   -0.000005602
     27        1           0.000000031   -0.000003186    0.000001148
 -------------------------------------------------------------------
 Cartesian Forces:  Max     0.000006134 RMS     0.000002693
 -------------------------------------------------------------------
 Center     Atomic                Nonadiabatic Coup. (Bohr^-1)
 Number     Number              X              Y              Z
 -------------------------------------------------------------------
      1        6          -0.261464889    0.054840621   -0.008825632
      2        6           0.156143838   -0.161383784    0.016807168
      3        6          -0.168212210   -0.035327786   -0.008160993
      4        6           0.522919948    0.040286875    0.011840119
      5        6          -0.176067495    0.065799305    0.008216206
      6        6           0.219903679    0.166835444   -0.016001282
      7        1          -0.005411501   -0.007496095   -0.001072100
      8        1          -0.000529611    0.005515890    0.000768318
      9        1          -0.009164044    0.001347034   -0.004411626
     10        1          -0.005864969   -0.000465278    0.001471501
     11        8           0.349477659   -0.046307449    0.006939002
     12        6          -0.064200911   -0.051090812    0.004252083
     13        1           0.005307855    0.016497750   -0.010113316
     14        1           0.004780534    0.018831639    0.006708629
     15        1           0.009448686    0.004745616   -0.000303044
     16        6          -0.405970561    0.159253319   -0.016810259
     17        6          -0.003253968    0.035326088   -0.041488328
     18        7           0.146832782   -0.333655676    0.092080055
     19        6          -0.022714690   -0.018417650   -0.041242985
     20        6           0.005543183   -0.002086403    0.001179243
     21        1           0.005263075    0.003458160    0.003559486
     22        1           0.017444519    0.008097523    0.004172609
     23        1           0.031381620    0.015857790   -0.004995192
     24        1           0.016679266    0.005527929    0.003832244
     25        1           0.000655884    0.002125212    0.004170716
     26        1           0.004928654    0.005014259    0.001739032
     27        1           0.023547975    0.033060278   -0.023702577
 -------------------------------------------------------------------
 Cartesian Nonad. Coup.:  Max     0.522919948 RMS     0.111819767
 FormGI is forming the generalized inverse of G from B-inverse, IUseBI=4.
 GSVD:  received Info=                   1 from GESDD.
 Leave Link  716 at Wed Aug 12 17:32:35 2026, MaxMem=   104857600 cpu:               0.0 elap:               0.1
 (Enter /opt/packages/gaussian/g16RevC.01/g16/l103.exe)

 GradGradGradGradGradGradGradGradGradGradGradGradGradGradGradGradGradGrad
 Berny optimization.
 Red2BG is reusing G-inverse.
 Internal  Forces:  Max     0.000004361 RMS     0.000000674
 Search for a local minimum.
 Step number   1 out of a maximum of    2
 All quantities printed in internal units (Hartrees-Bohrs-Radians)
 Second derivative matrix not updated -- analytic derivatives used.
 ITU=  0
     Eigenvalues ---    0.00224   0.00265   0.00456   0.00523   0.00571
     Eigenvalues ---    0.00831   0.01000   0.01301   0.01550   0.01665
     Eigenvalues ---    0.01826   0.01897   0.02255   0.02392   0.02552
     Eigenvalues ---    0.02643   0.02795   0.03111   0.04154   0.04425
     Eigenvalues ---    0.04541   0.05776   0.05896   0.06792   0.07177
     Eigenvalues ---    0.07674   0.08318   0.08462   0.08968   0.09533
     Eigenvalues ---    0.10878   0.11107   0.11736   0.11925   0.12784
     Eigenvalues ---    0.13088   0.16027   0.18013   0.18227   0.18741
     Eigenvalues ---    0.19256   0.19355   0.19900   0.20430   0.23171
     Eigenvalues ---    0.23368   0.23819   0.25103   0.27885   0.28340
     Eigenvalues ---    0.29931   0.30312   0.31821   0.32317   0.32745
     Eigenvalues ---    0.33284   0.33702   0.33967   0.34026   0.34587
     Eigenvalues ---    0.34975   0.35015   0.35988   0.36461   0.36593
     Eigenvalues ---    0.36872   0.37063   0.37582   0.38141   0.39212
     Eigenvalues ---    0.41685   0.45457   0.47539   0.50383   0.54028
 Angle between quadratic step and forces=  71.50 degrees.
 Linear search not attempted -- first point.
 Iteration  1 RMS(Cart)=  0.00007326 RMS(Int)=  0.00000000
 Iteration  2 RMS(Cart)=  0.00000000 RMS(Int)=  0.00000000
 ITry= 1 IFail=0 DXMaxC= 4.32D-04 DCOld= 1.00D+10 DXMaxT= 3.00D-02 DXLimC= 3.00D+00 Rises=F
 Variable       Old X    -DE/DX   Delta X   Delta X   Delta X     New X
                                 (Linear)    (Quad)   (Total)
    R1        2.67353  -0.00000   0.00000  -0.00000  -0.00000   2.67353
    R2        2.71316   0.00000   0.00000   0.00000   0.00000   2.71316
    R3        2.52800   0.00000   0.00000   0.00000   0.00000   2.52800
    R4        2.61082   0.00000   0.00000   0.00000   0.00000   2.61082
    R5        2.04906   0.00000   0.00000   0.00000   0.00000   2.04906
    R6        2.73939  -0.00000   0.00000  -0.00000  -0.00000   2.73938
    R7        2.05014  -0.00000   0.00000  -0.00000  -0.00000   2.05014
    R8        2.69515  -0.00000   0.00000  -0.00000  -0.00000   2.69515
    R9        2.72464  -0.00000   0.00000  -0.00001  -0.00001   2.72463
   R10        2.60622   0.00000   0.00000  -0.00000  -0.00000   2.60622
   R11        2.04992  -0.00000   0.00000  -0.00000  -0.00000   2.04992
   R12        2.05178  -0.00000   0.00000  -0.00000  -0.00000   2.05178
   R13        2.72200  -0.00000   0.00000  -0.00000  -0.00000   2.72200
   R14        2.06997   0.00000   0.00000   0.00000   0.00000   2.06997
   R15        2.07037   0.00000   0.00000   0.00000   0.00000   2.07037
   R16        2.05883  -0.00000   0.00000   0.00000   0.00000   2.05883
   R17        2.83446  -0.00000   0.00000  -0.00000  -0.00000   2.83446
   R18        2.57093   0.00000   0.00000   0.00000   0.00000   2.57093
   R19        2.92491   0.00000   0.00000  -0.00000  -0.00000   2.92491
   R20        2.07138   0.00000   0.00000   0.00000   0.00000   2.07138
   R21        2.08493  -0.00000   0.00000   0.00000   0.00000   2.08493
   R22        2.75987   0.00000   0.00000   0.00000   0.00000   2.75987
   R23        1.92096   0.00000   0.00000   0.00000   0.00000   1.92097
   R24        2.90514   0.00000   0.00000  -0.00000  -0.00000   2.90514
   R25        2.08408   0.00000   0.00000  -0.00000  -0.00000   2.08408
   R26        2.06946   0.00000   0.00000   0.00000   0.00000   2.06946
   R27        2.07048  -0.00000   0.00000   0.00000   0.00000   2.07048
   R28        2.06497  -0.00000   0.00000   0.00000   0.00000   2.06497
    A1        2.09625   0.00000   0.00000   0.00000   0.00000   2.09625
    A2        2.18459  -0.00000   0.00000  -0.00000  -0.00000   2.18459
    A3        2.00234   0.00000   0.00000  -0.00000  -0.00000   2.00234
    A4        2.08399  -0.00000   0.00000  -0.00000  -0.00000   2.08399
    A5        2.10790  -0.00000   0.00000  -0.00000  -0.00000   2.10790
    A6        2.09130   0.00000   0.00000   0.00000   0.00000   2.09130
    A7        2.11926  -0.00000   0.00000  -0.00000  -0.00000   2.11925
    A8        2.06827   0.00000   0.00000   0.00001   0.00001   2.06828
    A9        2.09564   0.00000   0.00000  -0.00001  -0.00001   2.09563
   A10        2.06027   0.00000   0.00000   0.00001   0.00001   2.06028
   A11        2.13006   0.00000   0.00000  -0.00000  -0.00000   2.13006
   A12        2.09282  -0.00000   0.00000  -0.00000  -0.00000   2.09282
   A13        2.10668  -0.00000   0.00000  -0.00000  -0.00000   2.10667
   A14        2.09290  -0.00000   0.00000  -0.00000  -0.00000   2.09290
   A15        2.08361   0.00000   0.00000   0.00000   0.00000   2.08362
   A16        2.09980  -0.00000   0.00000  -0.00000  -0.00000   2.09980
   A17        2.06524   0.00000   0.00000  -0.00000  -0.00000   2.06524
   A18        2.11814   0.00000   0.00000   0.00000   0.00000   2.11814
   A19        2.10313  -0.00000   0.00000   0.00000   0.00000   2.10313
   A20        1.91843   0.00000   0.00000   0.00000   0.00000   1.91843
   A21        1.91836   0.00000   0.00000   0.00000   0.00000   1.91836
   A22        1.83623   0.00000   0.00000   0.00000   0.00000   1.83623
   A23        1.92740  -0.00000   0.00000  -0.00000  -0.00000   1.92740
   A24        1.93139   0.00000   0.00000   0.00000   0.00000   1.93139
   A25        1.93012  -0.00000   0.00000  -0.00000  -0.00000   1.93012
   A26        2.23211  -0.00000   0.00000  -0.00001  -0.00001   2.23211
   A27        2.13916   0.00000   0.00000   0.00000   0.00000   2.13916
   A28        1.91185   0.00000   0.00000   0.00000   0.00000   1.91186
   A29        1.79820  -0.00000   0.00000  -0.00001  -0.00001   1.79820
   A30        1.96801  -0.00000   0.00000  -0.00001  -0.00001   1.96801
   A31        1.92486   0.00000   0.00000   0.00000   0.00000   1.92486
   A32        1.96929   0.00000   0.00000   0.00001   0.00001   1.96930
   A33        1.94186   0.00000   0.00000  -0.00000  -0.00000   1.94186
   A34        1.86311  -0.00000   0.00000   0.00000   0.00000   1.86311
   A35        1.96632  -0.00000   0.00000  -0.00001  -0.00001   1.96631
   A36        2.15380   0.00000   0.00000  -0.00000  -0.00000   2.15379
   A37        2.11172  -0.00000   0.00000  -0.00002  -0.00002   2.11170
   A38        1.78923   0.00000   0.00000  -0.00000  -0.00000   1.78923
   A39        1.91254  -0.00000   0.00000  -0.00000  -0.00000   1.91254
   A40        1.92894  -0.00000   0.00000   0.00000   0.00000   1.92894
   A41        1.95212  -0.00000   0.00000  -0.00000  -0.00000   1.95212
   A42        1.99723   0.00000   0.00000   0.00000   0.00000   1.99724
   A43        1.88214  -0.00000   0.00000  -0.00000  -0.00000   1.88214
   A44        1.81257  -0.00000   0.00000  -0.00001  -0.00001   1.81256
   A45        1.91828   0.00000   0.00000   0.00000   0.00000   1.91828
   A46        1.96904  -0.00000   0.00000   0.00000   0.00000   1.96905
   A47        1.91502   0.00000   0.00000   0.00000   0.00000   1.91503
   A48        1.95590   0.00000   0.00000  -0.00000  -0.00000   1.95590
   A49        1.89203  -0.00000   0.00000   0.00000   0.00000   1.89203
    D1        0.00547  -0.00000   0.00000  -0.00000  -0.00000   0.00547
    D2       -3.13483  -0.00000   0.00000  -0.00000  -0.00000  -3.13483
    D3       -3.13993  -0.00000   0.00000  -0.00000  -0.00000  -3.13994
    D4        0.00295   0.00000   0.00000  -0.00000  -0.00000   0.00295
    D5        0.00803   0.00000   0.00000   0.00001   0.00001   0.00804
    D6       -3.13558   0.00000   0.00000   0.00001   0.00001  -3.13557
    D7       -3.13013   0.00000   0.00000   0.00001   0.00001  -3.13012
    D8        0.00945   0.00000   0.00000   0.00001   0.00001   0.00945
    D9        0.01329  -0.00000   0.00000   0.00001   0.00001   0.01330
   D10       -3.13194   0.00000   0.00000   0.00001   0.00001  -3.13192
   D11       -0.01387  -0.00000   0.00000  -0.00001  -0.00001  -0.01388
   D12        3.12088  -0.00000   0.00000  -0.00003  -0.00003   3.12085
   D13        3.12644  -0.00000   0.00000  -0.00001  -0.00001   3.12643
   D14       -0.02199  -0.00000   0.00000  -0.00003  -0.00003  -0.02202
   D15        0.00897   0.00000   0.00000   0.00002   0.00002   0.00899
   D16       -3.12456   0.00000   0.00000   0.00002   0.00002  -3.12453
   D17       -3.12568   0.00000   0.00000   0.00004   0.00004  -3.12564
   D18        0.02398   0.00000   0.00000   0.00004   0.00004   0.02402
   D19        0.00473  -0.00000   0.00000  -0.00001  -0.00001   0.00471
   D20       -3.13787  -0.00000   0.00000  -0.00001  -0.00001  -3.13788
   D21        3.13843  -0.00000   0.00000  -0.00002  -0.00002   3.13841
   D22       -0.00417  -0.00000   0.00000  -0.00001  -0.00001  -0.00418
   D23       -3.01074   0.00000   0.00000   0.00013   0.00013  -3.01061
   D24        0.14394   0.00000   0.00000   0.00007   0.00007   0.14401
   D25        0.13907   0.00000   0.00000   0.00013   0.00013   0.13920
   D26       -2.98944   0.00000   0.00000   0.00007   0.00007  -2.98936
   D27       -0.01298   0.00000   0.00000  -0.00000  -0.00000  -0.01299
   D28        3.13068   0.00000   0.00000  -0.00000  -0.00000   3.13068
   D29        3.12961  -0.00000   0.00000  -0.00001  -0.00001   3.12960
   D30       -0.00991  -0.00000   0.00000  -0.00001  -0.00001  -0.00992
   D31        1.04947  -0.00000   0.00000  -0.00002  -0.00002   1.04945
   D32       -1.07543  -0.00000   0.00000  -0.00002  -0.00002  -1.07545
   D33        3.12938  -0.00000   0.00000  -0.00002  -0.00002   3.12936
   D34        2.91387  -0.00000   0.00000  -0.00007  -0.00007   2.91380
   D35        0.78566  -0.00000   0.00000  -0.00008  -0.00008   0.78558
   D36       -1.29520   0.00000   0.00000  -0.00007  -0.00007  -1.29527
   D37       -0.23942  -0.00000   0.00000  -0.00002  -0.00002  -0.23945
   D38       -2.36763  -0.00000   0.00000  -0.00003  -0.00003  -2.36766
   D39        1.83470  -0.00000   0.00000  -0.00002  -0.00002   1.83467
   D40        3.04479   0.00000   0.00000   0.00005   0.00005   3.04483
   D41        0.24013   0.00000   0.00000   0.00016   0.00016   0.24029
   D42       -0.08585   0.00000   0.00000   0.00000   0.00000  -0.08585
   D43       -2.89050   0.00000   0.00000   0.00011   0.00011  -2.89039
   D44        0.44951   0.00000   0.00000   0.00003   0.00003   0.44954
   D45       -1.59814   0.00000   0.00000   0.00003   0.00003  -1.59811
   D46        2.57126   0.00000   0.00000   0.00003   0.00003   2.57128
   D47        2.57685  -0.00000   0.00000   0.00002   0.00002   2.57688
   D48        0.52920  -0.00000   0.00000   0.00002   0.00002   0.52923
   D49       -1.58458  -0.00000   0.00000   0.00002   0.00002  -1.58456
   D50       -1.61273   0.00000   0.00000   0.00003   0.00003  -1.61270
   D51        2.62280   0.00000   0.00000   0.00003   0.00003   2.62284
   D52        0.50902  -0.00000   0.00000   0.00003   0.00003   0.50905
   D53        0.37357  -0.00000   0.00000   0.00002   0.00002   0.37359
   D54       -1.70195  -0.00000   0.00000   0.00002   0.00002  -1.70193
   D55        2.50945   0.00000   0.00000   0.00002   0.00002   2.50947
   D56       -3.09582  -0.00000   0.00000  -0.00009  -0.00009  -3.09590
   D57        1.11185   0.00000   0.00000  -0.00008  -0.00008   1.11177
   D58       -0.95994   0.00000   0.00000  -0.00008  -0.00008  -0.96002
   D59       -0.49381  -0.00000   0.00000  -0.00003  -0.00003  -0.49384
   D60        1.55610  -0.00000   0.00000  -0.00003  -0.00003   1.55607
   D61       -2.62431  -0.00000   0.00000  -0.00003  -0.00003  -2.62434
   D62        1.55369  -0.00000   0.00000  -0.00003  -0.00003   1.55366
   D63       -2.67958  -0.00000   0.00000  -0.00003  -0.00003  -2.67962
   D64       -0.57681  -0.00000   0.00000  -0.00003  -0.00003  -0.57685
   D65       -2.58271  -0.00000   0.00000  -0.00003  -0.00003  -2.58274
   D66       -0.53280  -0.00000   0.00000  -0.00003  -0.00003  -0.53283
   D67        1.56997  -0.00000   0.00000  -0.00003  -0.00003   1.56994
         Item               Value     Threshold  Converged?
 Maximum Force            0.000004     0.000450     YES
 RMS     Force            0.000001     0.000300     YES
 Maximum Displacement     0.000432     0.001800     YES
 RMS     Displacement     0.000073     0.001200     YES
 Predicted change in Energy=-4.981551D-10
 Optimization completed.
    -- Stationary point found.
                           ----------------------------
                           !   Optimized Parameters   !
                           ! (Angstroms and Degrees)  !
 --------------------------                            --------------------------
 ! Name  Definition              Value          Derivative Info.                !
 --------------------------------------------------------------------------------
 ! R1    R(1,2)                  1.4148         -DE/DX =    0.0                 !
 ! R2    R(1,6)                  1.4357         -DE/DX =    0.0                 !
 ! R3    R(1,11)                 1.3378         -DE/DX =    0.0                 !
 ! R4    R(2,3)                  1.3816         -DE/DX =    0.0                 !
 ! R5    R(2,8)                  1.0843         -DE/DX =    0.0                 !
 ! R6    R(3,4)                  1.4496         -DE/DX =    0.0                 !
 ! R7    R(3,9)                  1.0849         -DE/DX =    0.0                 !
 ! R8    R(4,5)                  1.4262         -DE/DX =    0.0                 !
 ! R9    R(4,16)                 1.4418         -DE/DX =    0.0                 !
 ! R10   R(5,6)                  1.3792         -DE/DX =    0.0                 !
 ! R11   R(5,10)                 1.0848         -DE/DX =    0.0                 !
 ! R12   R(6,7)                  1.0858         -DE/DX =    0.0                 !
 ! R13   R(11,12)                1.4404         -DE/DX =    0.0                 !
 ! R14   R(12,13)                1.0954         -DE/DX =    0.0                 !
 ! R15   R(12,14)                1.0956         -DE/DX =    0.0                 !
 ! R16   R(12,15)                1.0895         -DE/DX =    0.0                 !
 ! R17   R(16,17)                1.4999         -DE/DX =    0.0                 !
 ! R18   R(16,18)                1.3605         -DE/DX =    0.0                 !
 ! R19   R(17,20)                1.5478         -DE/DX =    0.0                 !
 ! R20   R(17,21)                1.0961         -DE/DX =    0.0                 !
 ! R21   R(17,22)                1.1033         -DE/DX =    0.0                 !
 ! R22   R(18,19)                1.4605         -DE/DX =    0.0                 !
 ! R23   R(18,27)                1.0165         -DE/DX =    0.0                 !
 ! R24   R(19,20)                1.5373         -DE/DX =    0.0                 !
 ! R25   R(19,23)                1.1028         -DE/DX =    0.0                 !
 ! R26   R(19,24)                1.0951         -DE/DX =    0.0                 !
 ! R27   R(20,25)                1.0956         -DE/DX =    0.0                 !
 ! R28   R(20,26)                1.0927         -DE/DX =    0.0                 !
 ! A1    A(2,1,6)              120.1064         -DE/DX =    0.0                 !
 ! A2    A(2,1,11)             125.1676         -DE/DX =    0.0                 !
 ! A3    A(6,1,11)             114.7256         -DE/DX =    0.0                 !
 ! A4    A(1,2,3)              119.4038         -DE/DX =    0.0                 !
 ! A5    A(1,2,8)              120.7736         -DE/DX =    0.0                 !
 ! A6    A(3,2,8)              119.8226         -DE/DX =    0.0                 !
 ! A7    A(2,3,4)              121.4245         -DE/DX =    0.0                 !
 ! A8    A(2,3,9)              118.5032         -DE/DX =    0.0                 !
 ! A9    A(4,3,9)              120.0712         -DE/DX =    0.0                 !
 ! A10   A(3,4,5)              118.045          -DE/DX =    0.0                 !
 ! A11   A(3,4,16)             122.0434         -DE/DX =    0.0                 !
 ! A12   A(5,4,16)             119.91           -DE/DX =    0.0                 !
 ! A13   A(4,5,6)              120.7036         -DE/DX =    0.0                 !
 ! A14   A(4,5,10)             119.9142         -DE/DX =    0.0                 !
 ! A15   A(6,5,10)             119.3821         -DE/DX =    0.0                 !
 ! A16   A(1,6,5)              120.3098         -DE/DX =    0.0                 !
 ! A17   A(1,6,7)              118.3298         -DE/DX =    0.0                 !
 ! A18   A(5,6,7)              121.3603         -DE/DX =    0.0                 !
 ! A19   A(1,11,12)            120.5003         -DE/DX =    0.0                 !
 ! A20   A(11,12,13)           109.9181         -DE/DX =    0.0                 !
 ! A21   A(11,12,14)           109.9138         -DE/DX =    0.0                 !
 ! A22   A(11,12,15)           105.2084         -DE/DX =    0.0                 !
 ! A23   A(13,12,14)           110.4317         -DE/DX =    0.0                 !
 ! A24   A(13,12,15)           110.6603         -DE/DX =    0.0                 !
 ! A25   A(14,12,15)           110.5879         -DE/DX =    0.0                 !
 ! A26   A(4,16,17)            127.8907         -DE/DX =    0.0                 !
 ! A27   A(4,16,18)            122.5648         -DE/DX =    0.0                 !
 ! A28   A(17,16,18)           109.541          -DE/DX =    0.0                 !
 ! A29   A(16,17,20)           103.0293         -DE/DX =    0.0                 !
 ! A30   A(16,17,21)           112.7588         -DE/DX =    0.0                 !
 ! A31   A(16,17,22)           110.2862         -DE/DX =    0.0                 !
 ! A32   A(20,17,21)           112.8319         -DE/DX =    0.0                 !
 ! A33   A(20,17,22)           111.2605         -DE/DX =    0.0                 !
 ! A34   A(21,17,22)           106.7482         -DE/DX =    0.0                 !
 ! A35   A(16,18,19)           112.6621         -DE/DX =    0.0                 !
 ! A36   A(16,18,27)           123.4034         -DE/DX =    0.0                 !
 ! A37   A(19,18,27)           120.9926         -DE/DX =    0.0                 !
 ! A38   A(18,19,20)           102.5156         -DE/DX =    0.0                 !
 ! A39   A(18,19,23)           109.5804         -DE/DX =    0.0                 !
 ! A40   A(18,19,24)           110.5199         -DE/DX =    0.0                 !
 ! A41   A(20,19,23)           111.8482         -DE/DX =    0.0                 !
 ! A42   A(20,19,24)           114.4329         -DE/DX =    0.0                 !
 ! A43   A(23,19,24)           107.8386         -DE/DX =    0.0                 !
 ! A44   A(17,20,19)           103.8523         -DE/DX =    0.0                 !
 ! A45   A(17,20,25)           109.9094         -DE/DX =    0.0                 !
 ! A46   A(17,20,26)           112.8178         -DE/DX =    0.0                 !
 ! A47   A(19,20,25)           109.7228         -DE/DX =    0.0                 !
 ! A48   A(19,20,26)           112.0646         -DE/DX =    0.0                 !
 ! A49   A(25,20,26)           108.4053         -DE/DX =    0.0                 !
 ! D1    D(6,1,2,3)              0.3136         -DE/DX =    0.0                 !
 ! D2    D(6,1,2,8)           -179.6124         -DE/DX =    0.0                 !
 ! D3    D(11,1,2,3)          -179.9049         -DE/DX =    0.0                 !
 ! D4    D(11,1,2,8)             0.1691         -DE/DX =    0.0                 !
 ! D5    D(2,1,6,5)              0.4598         -DE/DX =    0.0                 !
 ! D6    D(2,1,6,7)           -179.6555         -DE/DX =    0.0                 !
 ! D7    D(11,1,6,5)          -179.3435         -DE/DX =    0.0                 !
 ! D8    D(11,1,6,7)             0.5412         -DE/DX =    0.0                 !
 ! D9    D(2,1,11,12)            0.7615         -DE/DX =    0.0                 !
 ! D10   D(6,1,11,12)         -179.4467         -DE/DX =    0.0                 !
 ! D11   D(1,2,3,4)             -0.7949         -DE/DX =    0.0                 !
 ! D12   D(1,2,3,9)            178.8132         -DE/DX =    0.0                 !
 ! D13   D(8,2,3,4)            179.1318         -DE/DX =    0.0                 !
 ! D14   D(8,2,3,9)             -1.2601         -DE/DX =    0.0                 !
 ! D15   D(2,3,4,5)              0.5137         -DE/DX =    0.0                 !
 ! D16   D(2,3,4,16)          -179.0238         -DE/DX =    0.0                 !
 ! D17   D(9,3,4,5)           -179.0883         -DE/DX =    0.0                 !
 ! D18   D(9,3,4,16)             1.3741         -DE/DX =    0.0                 !
 ! D19   D(3,4,5,6)              0.2709         -DE/DX =    0.0                 !
 ! D20   D(3,4,5,10)          -179.7868         -DE/DX =    0.0                 !
 ! D21   D(16,4,5,6)           179.8187         -DE/DX =    0.0                 !
 ! D22   D(16,4,5,10)           -0.239          -DE/DX =    0.0                 !
 ! D23   D(3,4,16,17)         -172.5025         -DE/DX =    0.0                 !
 ! D24   D(3,4,16,18)            8.247          -DE/DX =    0.0                 !
 ! D25   D(5,4,16,17)            7.9683         -DE/DX =    0.0                 !
 ! D26   D(5,4,16,18)         -171.2821         -DE/DX =    0.0                 !
 ! D27   D(4,5,6,1)             -0.744          -DE/DX =    0.0                 !
 ! D28   D(4,5,6,7)            179.3749         -DE/DX =    0.0                 !
 ! D29   D(10,5,6,1)           179.3134         -DE/DX =    0.0                 !
 ! D30   D(10,5,6,7)            -0.5676         -DE/DX =    0.0                 !
 ! D31   D(1,11,12,13)          60.1303         -DE/DX =    0.0                 !
 ! D32   D(1,11,12,14)         -61.6177         -DE/DX =    0.0                 !
 ! D33   D(1,11,12,15)         179.3002         -DE/DX =    0.0                 !
 ! D34   D(4,16,17,20)         166.9523         -DE/DX =    0.0                 !
 ! D35   D(4,16,17,21)          45.015          -DE/DX =    0.0                 !
 ! D36   D(4,16,17,22)         -74.2094         -DE/DX =    0.0                 !
 ! D37   D(18,16,17,20)        -13.718          -DE/DX =    0.0                 !
 ! D38   D(18,16,17,21)       -135.6553         -DE/DX =    0.0                 !
 ! D39   D(18,16,17,22)        105.1203         -DE/DX =    0.0                 !
 ! D40   D(4,16,18,19)         174.4533         -DE/DX =    0.0                 !
 ! D41   D(4,16,18,27)          13.7586         -DE/DX =    0.0                 !
 ! D42   D(17,16,18,19)         -4.919          -DE/DX =    0.0                 !
 ! D43   D(17,16,18,27)       -165.6137         -DE/DX =    0.0                 !
 ! D44   D(16,17,20,19)         25.7548         -DE/DX =    0.0                 !
 ! D45   D(16,17,20,25)        -91.5668         -DE/DX =    0.0                 !
 ! D46   D(16,17,20,26)        147.3223         -DE/DX =    0.0                 !
 ! D47   D(21,17,20,19)        147.6427         -DE/DX =    0.0                 !
 ! D48   D(21,17,20,25)         30.3211         -DE/DX =    0.0                 !
 ! D49   D(21,17,20,26)        -90.7899         -DE/DX =    0.0                 !
 ! D50   D(22,17,20,19)        -92.4028         -DE/DX =    0.0                 !
 ! D51   D(22,17,20,25)        150.2755         -DE/DX =    0.0                 !
 ! D52   D(22,17,20,26)         29.1646         -DE/DX =    0.0                 !
 ! D53   D(16,18,19,20)         21.4039         -DE/DX =    0.0                 !
 ! D54   D(16,18,19,23)        -97.5144         -DE/DX =    0.0                 !
 ! D55   D(16,18,19,24)        143.7807         -DE/DX =    0.0                 !
 ! D56   D(27,18,19,20)       -177.3773         -DE/DX =    0.0                 !
 ! D57   D(27,18,19,23)         63.7044         -DE/DX =    0.0                 !
 ! D58   D(27,18,19,24)        -55.0005         -DE/DX =    0.0                 !
 ! D59   D(18,19,20,17)        -28.2933         -DE/DX =    0.0                 !
 ! D60   D(18,19,20,25)         89.158          -DE/DX =    0.0                 !
 ! D61   D(18,19,20,26)       -150.3622         -DE/DX =    0.0                 !
 ! D62   D(23,19,20,17)         89.0199         -DE/DX =    0.0                 !
 ! D63   D(23,19,20,25)       -153.5288         -DE/DX =    0.0                 !
 ! D64   D(23,19,20,26)        -33.0489         -DE/DX =    0.0                 !
 ! D65   D(24,19,20,17)       -147.9785         -DE/DX =    0.0                 !
 ! D66   D(24,19,20,25)        -30.5271         -DE/DX =    0.0                 !
 ! D67   D(24,19,20,26)         89.9527         -DE/DX =    0.0                 !
 --------------------------------------------------------------------------------
 GradGradGradGradGradGradGradGradGradGradGradGradGradGradGradGradGradGrad

 Leave Link  103 at Wed Aug 12 17:32:35 2026, MaxMem=   104857600 cpu:               0.0 elap:               0.1
 (Enter /opt/packages/gaussian/g16RevC.01/g16/l9999.exe)
 -------------------------------------------------------------------
 Center     Atomic                Nonadiabatic Coup. (Bohr^-1)
 Number     Number              X              Y              Z
 -------------------------------------------------------------------
      1        6          -0.261464889    0.054840621   -0.008825632
      2        6           0.156143838   -0.161383784    0.016807168
      3        6          -0.168212210   -0.035327786   -0.008160993
      4        6           0.522919948    0.040286875    0.011840119
      5        6          -0.176067495    0.065799305    0.008216206
      6        6           0.219903679    0.166835444   -0.016001282
      7        1          -0.005411501   -0.007496095   -0.001072100
      8        1          -0.000529611    0.005515890    0.000768318
      9        1          -0.009164044    0.001347034   -0.004411626
     10        1          -0.005864969   -0.000465278    0.001471501
     11        8           0.349477659   -0.046307449    0.006939002
     12        6          -0.064200911   -0.051090812    0.004252083
     13        1           0.005307855    0.016497750   -0.010113316
     14        1           0.004780534    0.018831639    0.006708629
     15        1           0.009448686    0.004745616   -0.000303044
     16        6          -0.405970561    0.159253319   -0.016810259
     17        6          -0.003253968    0.035326088   -0.041488328
     18        7           0.146832782   -0.333655676    0.092080055
     19        6          -0.022714690   -0.018417650   -0.041242985
     20        6           0.005543183   -0.002086403    0.001179243
     21        1           0.005263075    0.003458160    0.003559486
     22        1           0.017444519    0.008097523    0.004172609
     23        1           0.031381620    0.015857790   -0.004995192
     24        1           0.016679266    0.005527929    0.003832244
     25        1           0.000655884    0.002125212    0.004170716
     26        1           0.004928654    0.005014259    0.001739032
     27        1           0.023547975    0.033060278   -0.023702577
 -------------------------------------------------------------------
 Cartesian Nonad. Coup.:  Max     0.522919948 RMS     0.111819767
 Electronic transition elements 
                 1             2             3             4             5 
      1  -0.557326D+03 -0.557300D+03 -0.557265D+03 -0.557260D+03 -0.557244D+03
      2   0.316488D+01  0.528967D+00 -0.641307D+00  0.202917D+00 -0.144322D+00
      3  -0.130924D+00 -0.631831D+00  0.129416D+01 -0.877371D+00  0.368974D-01
      4  -0.672773D-01  0.465532D-01 -0.104861D+00 -0.493248D-01 -0.310985D-01
      5  -0.397404D+00 -0.804791D-01  0.111845D+00 -0.426147D-01  0.298534D-01
      6   0.138102D-01  0.954224D-01 -0.241407D+00  0.165609D+00 -0.801669D-02
      7   0.939092D-02 -0.716941D-02  0.190209D-01  0.101662D-01  0.676956D-02
      8   0.190118D-01  0.338368D-02 -0.475850D-02  0.366796D-01  0.138057D+00
      9  -0.139945D-01 -0.689429D-01  0.317391D-01 -0.535139D-01 -0.112540D-01
     10   0.405614D+00 -0.669852D+00  0.191974D+00  0.154959D+00 -0.368324D-02
     11   0.229788D+00  0.737832D-01 -0.513227D-01 -0.151929D+01 -0.333760D-01
     12  -0.867995D-01  0.255782D-01 -0.145261D+00  0.947764D-01 -0.641290D-02
     13  -0.202985D-01 -0.226317D-02  0.182728D-01  0.950485D-02  0.315454D-02
     14   0.283304D+00  0.105155D-01  0.591109D+00  0.711411D+00 -0.391371D-01
     15   0.504900D-01  0.141227D-01 -0.705749D-01  0.124808D+00  0.200872D-01
     16  -0.133788D-01 -0.610539D-02  0.184734D-01 -0.725418D-01  0.371635D-01
 Electronic Transition Derivatives 
                 1             2             3             4             5 
      1   0.000000D+00  0.000000D+00  0.000000D+00  0.000000D+00  0.000000D+00
      2   0.354256D+02  0.128876D+02 -0.104989D+01 -0.554929D+00  0.101287D+01
      3   0.977635D+01 -0.298333D+02  0.108890D+01 -0.693005D-01 -0.167755D+01
      4   0.196739D+01  0.106563D+01 -0.131274D+01  0.510034D-02  0.108900D+00
      5   0.218134D+01 -0.237912D+01  0.156246D+00  0.237359D-01 -0.167566D+00
      6  -0.143435D+01  0.375866D+01 -0.131227D+00  0.955342D-02  0.212185D+00
      7  -0.389017D+00 -0.126634D+00  0.141228D+00  0.483735D-03 -0.121954D-01
      8  -0.126729D+01  0.862592D-01 -0.462580D+00  0.134254D-02  0.147968D-01
      9   0.641923D+00 -0.101714D+01  0.247658D+01  0.940569D-02 -0.143982D-02
     10  -0.383212D-02 -0.881174D+01  0.313029D+00  0.119712D+00  0.126057D+00
     11   0.234357D+02 -0.336286D+01 -0.522807D+00 -0.841426D-02  0.202908D+00
     12  -0.832186D+00  0.124311D+01 -0.306045D+00  0.329808D-01  0.771670D-01
     13  -0.140253D+01 -0.621515D+00  0.426982D+00 -0.112654D-01 -0.901806D-02
     14  -0.175005D+02 -0.343585D+01  0.764064D+00  0.377642D-01 -0.262643D+00
     15  -0.203256D+01  0.133006D+01 -0.528991D+01  0.110469D-01  0.398872D-01
     16   0.130520D+01 -0.887626D+00 -0.626503D+00 -0.943444D-02 -0.131930D-01
                 6             7             8             9            10 
      1   0.000000D+00  0.000000D+00  0.000000D+00  0.000000D+00  0.000000D+00
      2  -0.100974D+00  0.861456D+00 -0.695433D+00  0.770832D-01 -0.512721D+00
      3   0.117969D+00 -0.622150D+00  0.683052D+00 -0.739184D-01 -0.111494D+00
      4  -0.256795D+00  0.505249D-01 -0.565972D-01  0.101074D-01  0.939595D-02
      5   0.192734D-01 -0.953332D-01  0.703641D-01 -0.896116D-02  0.166794D-01
      6  -0.155185D-01  0.785370D-01 -0.830048D-01  0.933718D-02  0.159960D-01
      7   0.312589D-01 -0.661629D-02  0.696827D-02 -0.321896D-02 -0.671478D-03
      8   0.301599D-01  0.105947D-01 -0.463561D-02  0.189340D-01  0.194969D-01
      9   0.446764D-01  0.214808D-01  0.537463D-02 -0.459656D-01 -0.758226D-01
     10  -0.287258D-01  0.328138D+00  0.171756D-01  0.126784D-01 -0.861939D+00
     11  -0.123173D-01  0.341676D+00 -0.217219D+00  0.128368D-01 -0.117499D+00
     12  -0.447673D-02 -0.133555D-01  0.671508D-02  0.415266D-02 -0.411132D-02
     13  -0.310067D-04 -0.859976D-02 -0.305080D-02 -0.282095D-02  0.503715D-02
     14   0.110050D-01 -0.157690D+00  0.154377D+00 -0.108653D-01  0.974331D-01
     15  -0.150322D+00  0.169986D-01 -0.132495D-01  0.828481D-02 -0.130275D-03
     16   0.149722D-01  0.131289D-02 -0.551044D-03  0.383025D-02 -0.190939D-02
                11            12            13            14            15 
      1   0.000000D+00  0.000000D+00  0.000000D+00  0.000000D+00  0.000000D+00
      2   0.233143D-01 -0.610824D-01  0.117846D+01 -0.719605D+00  0.225901D-01
      3  -0.435645D+00  0.248372D-01 -0.172910D+00  0.107309D+01 -0.366607D-01
      4   0.171849D-01 -0.128703D+00 -0.444254D-01 -0.617485D-01  0.669917D-01
      5  -0.610138D-01  0.189498D-01 -0.123338D+00  0.124947D+00 -0.656693D-02
      6   0.539336D-01 -0.306859D-02  0.219316D-01 -0.133746D+00  0.404398D-02
      7  -0.392221D-03  0.191385D-01  0.489758D-02  0.648207D-02 -0.895564D-02
      8   0.106792D-01 -0.422968D-01 -0.134911D-01 -0.163788D-01  0.273486D-01
      9  -0.720837D-01 -0.117518D+00  0.315797D-01  0.126946D+00 -0.830341D-01
     10  -0.386315D+00 -0.209929D-01  0.412675D+00  0.134853D+01 -0.778936D-01
     11   0.603559D-01 -0.188058D-01 -0.164697D+00 -0.144854D-01  0.233402D-01
     12  -0.404716D-02 -0.126723D-01 -0.629885D-01 -0.331524D-01 -0.187456D-02
     13  -0.858542D-02  0.134858D-01  0.787449D-02  0.341021D-02 -0.261389D-02
     14  -0.354337D-01 -0.224315D-01  0.201179D+00 -0.617982D-01  0.141012D-01
     15   0.222176D-01  0.108729D-01  0.270469D-01 -0.306935D-01 -0.175986D-01
     16  -0.106855D-01 -0.395034D-01 -0.810010D-02  0.150459D-01 -0.117172D-02
                16            17            18            19            20 
      1   0.000000D+00  0.000000D+00  0.000000D+00  0.000000D+00  0.000000D+00
      2  -0.141852D+01  0.766740D+00  0.601010D-02  0.834805D+00  0.319134D-01
      3   0.889615D+00 -0.698761D+00  0.794732D-01 -0.786473D-01  0.519552D+00
      4  -0.421845D-01  0.451629D-01 -0.408921D-01 -0.902998D-02 -0.303137D-01
      5   0.176132D+00 -0.735795D-01 -0.828047D-02 -0.822828D-01  0.420001D-01
      6  -0.113501D+00  0.860815D-01 -0.925088D-02  0.992324D-02 -0.652091D-01
      7   0.601599D-02 -0.629250D-02  0.550958D-02  0.234388D-03  0.231662D-02
      8  -0.192724D-03 -0.341552D-02  0.581825D-02  0.700859D-02 -0.257871D-02
      9   0.101172D+00 -0.774388D-01 -0.107572D+00 -0.565857D-01 -0.992921D-02
     10   0.106869D+01 -0.639468D+00  0.913558D-01 -0.689338D+00 -0.181067D+00
     11   0.688534D-02  0.733496D-02  0.314533D-01 -0.228998D-02  0.966339D-01
     12  -0.507962D-01  0.385165D-01 -0.970287D-02 -0.204076D-01 -0.769564D-01
     13   0.462670D-03 -0.236757D-02 -0.477288D-02  0.829727D-02  0.693836D-02
     14  -0.438885D-01 -0.652871D-01  0.341314D-01  0.696607D-01  0.598931D-01
     15  -0.289756D-01  0.194534D-01  0.112408D-01  0.255780D-02 -0.238942D-01
     16   0.125165D-01 -0.670943D-02  0.439088D-02  0.953435D-03  0.112116D-01
                21            22            23            24            25 
      1   0.000000D+00  0.000000D+00  0.000000D+00  0.000000D+00  0.000000D+00
      2   0.135085D-01 -0.112250D-01  0.280862D-02 -0.288064D-01 -0.343591D-02
      3  -0.624442D-01  0.284462D-01 -0.144070D-01  0.855482D-02 -0.311209D-01
      4   0.647242D-01 -0.272137D-02 -0.801027D-03 -0.140316D-01  0.310069D-02
      5  -0.581720D-02  0.998728D-03 -0.821284D-04  0.536740D-02 -0.157633D-03
      6   0.784137D-02 -0.390278D-02  0.175227D-02 -0.108040D-02  0.416603D-02
      7  -0.880552D-02  0.241339D-03  0.111421D-03  0.204625D-02 -0.256619D-03
      8  -0.903754D-03 -0.186182D-02 -0.481081D-03  0.231217D-02 -0.136212D-02
      9  -0.824991D-01 -0.713938D-03 -0.271211D-03 -0.433361D-03  0.190465D-02
     10   0.158735D-01  0.391677D-02 -0.875626D-02  0.570218D-02  0.133925D-02
     11  -0.205031D-01  0.161086D-02  0.744496D-02 -0.362952D-02 -0.576178D-02
     12   0.892709D-02 -0.102581D-01  0.163021D-01 -0.472492D-03 -0.713529D-02
     13   0.341654D-02 -0.442625D-03 -0.132082D-02 -0.173878D-03 -0.322556D-03
     14  -0.125931D-01  0.151271D-01 -0.118011D-01 -0.432577D-02 -0.204277D-01
     15   0.330232D-01 -0.125926D-02  0.469499D-03 -0.650005D-02  0.153854D-02
     16  -0.209238D-01  0.810517D-03 -0.637607D-03  0.836250D-02  0.384086D-03
                26            27            28            29            30 
      1   0.000000D+00  0.000000D+00  0.000000D+00  0.000000D+00  0.000000D+00
      2  -0.335743D-01  0.171396D-01 -0.645724D-01  0.370109D-01 -0.136495D-02
      3  -0.205969D-01  0.802503D-02  0.410368D-01 -0.390434D-01  0.398633D-02
      4   0.112958D-02  0.200017D-02 -0.556201D-02  0.885170D-02  0.267660D-01
      5   0.413838D-02 -0.437555D-02  0.888997D-02 -0.314776D-02 -0.992973D-03
      6   0.235655D-02 -0.756998D-03 -0.462445D-02  0.507613D-02 -0.451497D-03
      7  -0.100177D-03  0.557783D-04  0.687148D-03 -0.114158D-02 -0.399510D-02
      8   0.165501D-02  0.318347D-02 -0.718349D-02  0.314435D-02  0.203664D-01
      9   0.117236D-02  0.340724D-02 -0.731741D-03 -0.231479D-02 -0.886515D-02
     10  -0.108497D-01  0.187845D-01  0.185603D-01 -0.316582D-01 -0.175632D-01
     11  -0.219088D-01  0.475764D-02 -0.294960D-01  0.155283D-01  0.325084D-02
     12  -0.204952D-01  0.711057D-03  0.679061D-02 -0.240187D-01  0.478255D-02
     13   0.149631D-02 -0.809221D-03 -0.667421D-04  0.885519D-03 -0.129974D-02
     14  -0.218627D-01  0.496904D-02 -0.307997D-02  0.528303D-02  0.801510D-03
     15   0.697474D-03  0.329596D-04  0.246797D-03 -0.161236D-02 -0.261330D-02
     16   0.144704D-02 -0.142984D-02 -0.152218D-02  0.404393D-02  0.776190D-02
                31            32            33            34            35 
      1   0.000000D+00  0.000000D+00  0.000000D+00  0.000000D+00  0.000000D+00
      2  -0.139166D-01 -0.131531D-01  0.771369D-02  0.363689D+00 -0.233473D+00
      3  -0.235971D-01 -0.317388D-02  0.728791D-03 -0.100415D+00  0.487222D-01
      4   0.163392D-02  0.130322D-02  0.831274D-02  0.595822D-02 -0.610353D-02
      5   0.802858D-03 -0.176042D-03 -0.132888D-02 -0.291164D-01  0.248530D-01
      6   0.267769D-02  0.758368D-03 -0.129416D-03  0.121180D-01 -0.620739D-02
      7  -0.161753D-03 -0.211852D-03 -0.147557D-02 -0.949563D-03  0.963201D-03
      8  -0.584624D-03  0.441031D-03 -0.789057D-02 -0.198323D-02 -0.592178D-02
      9  -0.935808D-03 -0.123051D-02 -0.867980D-03 -0.251847D-01 -0.611009D-02
     10  -0.526416D-02 -0.120118D-01  0.116884D-02 -0.181679D+00 -0.730413D-01
     11  -0.157014D-01  0.714358D-02 -0.865050D-03 -0.315992D+00 -0.185703D+00
     12   0.358511D-02  0.356731D-02 -0.196826D-02 -0.488133D-02 -0.944875D-02
     13  -0.136619D-03 -0.665928D-03  0.600251D-03 -0.166916D-01 -0.113962D-01
     14   0.511474D-02  0.109813D-01  0.217989D-02 -0.418428D-01 -0.111841D+00
     15   0.510910D-03 -0.996095D-03 -0.253045D-02  0.131700D-02  0.672539D-02
     16  -0.655452D-03 -0.900645D-03 -0.253106D-02  0.154293D-02 -0.912806D-03
                36            37            38            39            40 
      1   0.000000D+00  0.000000D+00  0.000000D+00  0.000000D+00  0.000000D+00
      2   0.335639D-01 -0.162500D+00 -0.712793D-01 -0.438123D-02  0.836530D-03
      3  -0.192292D-03  0.517215D-01  0.230310D+00 -0.124471D-01  0.405764D-01
      4  -0.202084D-01 -0.733998D-02 -0.614448D-02  0.111700D+00 -0.588723D-02
      5  -0.522843D-02  0.614589D-02  0.136559D-01  0.864205D-03  0.407609D-02
      6   0.219309D-03 -0.633373D-02 -0.298082D-01  0.160654D-02 -0.532860D-02
      7   0.315405D-02  0.127574D-02  0.505672D-03 -0.136216D-01  0.753611D-03
      8  -0.534746D-01  0.224822D-02  0.923116D-02  0.109506D+00 -0.103825D-01
      9   0.139767D-01  0.305587D-02  0.957801D-02 -0.133921D+00  0.899870D-02
     10  -0.212900D-02  0.524511D-01  0.203950D+00  0.299335D-02  0.105614D-01
     11   0.174816D-01 -0.698205D-01  0.171802D+00 -0.134263D-01  0.183078D-01
     12   0.130201D-02  0.249544D-02  0.276615D-01  0.650974D-02  0.144603D-02
     13  -0.249916D-03  0.684358D-02  0.309516D-01 -0.109562D-01  0.380679D-02
     14   0.103289D-01  0.435313D-01  0.153193D+00 -0.608087D-02  0.443246D-02
     15  -0.467472D-01  0.196137D-02 -0.815932D-02  0.116169D+00 -0.323689D-02
     16   0.396856D-02 -0.664144D-03  0.605426D-02  0.438547D-01 -0.198798D-02
                41            42            43            44            45 
      1   0.000000D+00  0.000000D+00  0.000000D+00  0.000000D+00  0.000000D+00
      2   0.166143D-01  0.958189D-02 -0.412368D-02  0.171541D-01 -0.102723D-01
      3  -0.600202D-01  0.414603D-01  0.396850D-01 -0.730727D-01 -0.422713D-01
      4   0.236106D-01 -0.735459D-01  0.152342D-02 -0.249005D-01 -0.626329D-01
      5  -0.144253D-02 -0.455157D-03  0.483580D-02 -0.172876D-02 -0.544904D-04
      6   0.768536D-02 -0.517860D-02 -0.526032D-02  0.941046D-02  0.518991D-02
      7  -0.291225D-02  0.916515D-02 -0.461555D-03  0.310771D-02  0.789860D-02
      8  -0.941222D-03 -0.227246D-01  0.844179D-02 -0.285388D-02 -0.220175D-01
      9  -0.238209D-01  0.820492D-01 -0.423543D-02  0.242506D-01  0.697467D-01
     10  -0.670612D-01  0.381433D-01  0.151408D-01 -0.801065D-01 -0.404045D-01
     11  -0.217455D-01  0.363406D-01  0.172618D-01 -0.293313D-01 -0.344661D-01
     12  -0.139055D-01  0.357457D-02  0.231541D-02 -0.195624D-01 -0.101225D-01
     13  -0.761153D-02  0.211036D-01  0.288538D-02 -0.657491D-02 -0.103842D-01
     14  -0.543640D-01  0.330735D-01  0.282523D-02 -0.661106D-01 -0.345920D-01
     15   0.248933D-01 -0.783244D-01 -0.275096D-02 -0.268594D-01 -0.658277D-01
     16   0.967587D-02 -0.252163D-01  0.328580D-02 -0.129786D-01 -0.251794D-01
                46            47            48            49            50 
      1   0.000000D+00  0.000000D+00  0.000000D+00  0.000000D+00  0.000000D+00
      2  -0.262085D-01  0.213674D-01 -0.778453D-03 -0.120647D+01  0.297484D+00
      3   0.109258D-01 -0.310559D-02 -0.172220D-02  0.427247D+00 -0.174098D+00
      4  -0.316200D-03 -0.762484D-03 -0.132345D-01  0.614010D-01 -0.164362D-01
      5   0.499066D-02 -0.132584D-02 -0.111716D-03  0.137436D+00  0.858080D-01
      6  -0.147572D-02  0.330810D-03  0.248324D-03 -0.520934D-01  0.124625D-01
      7   0.000000D+00  0.616161D-04  0.153371D-02 -0.736967D-02  0.312348D-03
      8  -0.614798D-03 -0.111313D-02 -0.734389D-02 -0.668606D-01  0.337178D-01
      9   0.133782D-02  0.455085D-03  0.983590D-02 -0.120784D-01  0.596357D-01
     10   0.130242D-01 -0.114537D-01 -0.659810D-03 -0.323426D+00  0.251777D+00
     11  -0.808714D-01  0.351035D-01 -0.400854D-02  0.112816D+00 -0.661835D+00
     12   0.534757D-02 -0.323808D-02 -0.383838D-03  0.980422D-01 -0.159019D-01
     13   0.242850D-02 -0.437197D-03  0.468933D-03  0.775921D-02  0.443983D-02
     14   0.618984D-02 -0.115830D-01 -0.939544D-03 -0.353407D+00  0.530688D-01
     15  -0.119057D-02 -0.121193D-02 -0.161687D-01 -0.458551D-01  0.131229D-02
     16  -0.535859D-05  0.190658D-03 -0.291146D-02  0.117195D-01  0.302374D-02
                51            52            53            54            55 
      1   0.000000D+00  0.000000D+00  0.000000D+00  0.000000D+00  0.000000D+00
      2   0.878408D-01 -0.223242D-01  0.815728D-01 -0.830475D-01  0.708560D+00
      3  -0.148852D+00  0.926379D-03 -0.843567D-01  0.743456D-01 -0.481483D+00
      4   0.131920D+00 -0.429456D-02 -0.122159D-01 -0.687646D-01 -0.811498D-01
      5  -0.328849D-02 -0.137937D-01 -0.131267D-01  0.189311D-02 -0.299953D-01
      6   0.174768D-01  0.156893D-02  0.116178D-01 -0.927405D-02  0.567307D-01
      7  -0.142812D-01  0.934712D-03  0.144711D-02  0.805789D-02  0.880303D-02
      8  -0.630045D-01  0.953827D-02  0.125175D-01  0.498665D-01  0.112248D-01
      9  -0.131007D+00 -0.760745D-02 -0.209620D-01 -0.638911D-01 -0.741005D-01
     10   0.527396D-02  0.537321D-01  0.130993D+00 -0.452407D-01 -0.884404D-01
     11  -0.114790D+00  0.970325D-01  0.472898D-02  0.410595D-01 -0.681258D+00
     12   0.206654D-01  0.525312D-03  0.292989D-01 -0.463235D-02  0.129210D-01
     13   0.835223D-02  0.937558D-03  0.388243D-02 -0.313439D-02 -0.262023D-01
     14   0.120968D-01  0.685067D-01  0.126024D+00 -0.601015D-01  0.167297D+00
     15  -0.340725D-01  0.156361D-02  0.270373D-02  0.426386D-01  0.918545D-01
     16  -0.766078D-02 -0.650150D-02 -0.688181D-02  0.413285D-01 -0.274227D-01
                56            57            58            59            60 
      1   0.000000D+00  0.000000D+00  0.000000D+00  0.000000D+00  0.000000D+00
      2  -0.549525D+00  0.453170D-03 -0.366435D+00  0.125146D-02  0.125885D+00
      3   0.420294D+00  0.695978D-01  0.235168D+00 -0.930246D-01 -0.159082D+00
      4  -0.397642D-01  0.156160D+00  0.866677D-01  0.247818D-01 -0.161540D+00
      5  -0.592121D-01  0.131878D-01  0.117265D-01  0.169541D-02 -0.104680D-01
      6  -0.456991D-01 -0.666501D-02 -0.288644D-01  0.113222D-01  0.198507D-01
      7   0.764374D-02 -0.191611D-01 -0.102297D-01 -0.345783D-02  0.205857D-01
      8  -0.648438D-01 -0.256541D-01  0.117168D-01  0.243931D-01 -0.333699D-01
      9  -0.369351D-01  0.101520D+00  0.665723D-01  0.269063D-01 -0.222625D+00
     10   0.262483D-01  0.968803D-01  0.933837D-01  0.288926D-01 -0.725113D-01
     11   0.496852D+00  0.135508D+00  0.556946D+00 -0.886571D-01 -0.297538D+00
     12   0.261737D-01 -0.350951D-01 -0.964561D-02 -0.102124D-01  0.393429D-01
     13  -0.237567D-03 -0.691604D-02  0.293367D-01  0.702099D-02 -0.398294D-01
     14   0.256029D-01 -0.535585D-01 -0.138006D+00  0.818411D-01  0.949488D-01
     15   0.204185D-01 -0.951854D-01 -0.900856D-01 -0.224578D-01  0.176820D+00
     16  -0.227586D-01  0.695435D-01  0.227407D-01  0.974565D-02 -0.485964D-01
                61            62            63            64            65 
      1   0.000000D+00  0.000000D+00  0.000000D+00  0.000000D+00  0.000000D+00
      2  -0.127448D-01  0.137817D-01  0.113295D-01  0.303415D-01 -0.129296D-02
      3  -0.794393D-03 -0.226507D-01  0.289376D-01 -0.684750D-02  0.539659D-01
      4   0.841156D-02  0.239622D-02 -0.570448D-02 -0.521672D-02  0.180845D-01
      5  -0.319242D-03  0.287765D-02 -0.129117D-02  0.741016D-03  0.598496D-02
      6   0.288972D-03  0.267695D-02 -0.302060D-02  0.321039D-03 -0.709072D-02
      7  -0.115232D-02  0.276783D-03  0.561089D-03  0.583655D-03 -0.274427D-02
      8   0.192646D-02 -0.130094D-01  0.155632D-01  0.398115D-02 -0.121890D-01
      9   0.121381D-01  0.216496D-01 -0.153874D-01 -0.680080D-02  0.933039D-02
     10  -0.248115D-01  0.110115D-01 -0.103083D-01  0.290483D-01 -0.552813D-01
     11   0.267532D-01 -0.388394D-01 -0.928565D-02 -0.394428D-01  0.834242D-03
     12  -0.744412D-04  0.438312D-02 -0.788028D-02  0.283454D-02 -0.220948D-01
     13  -0.279844D-02 -0.291564D-02  0.129004D-01  0.531675D-03 -0.191528D-02
     14   0.101069D-01  0.150755D-01 -0.186124D-01  0.935023D-02 -0.574372D-01
     15  -0.104110D-01 -0.316296D-02  0.664673D-02  0.107989D-02 -0.114597D-01
     16  -0.169980D-02 -0.169009D-02  0.421489D-02  0.290692D-02 -0.104538D-01
                66            67            68            69            70 
      1   0.000000D+00  0.000000D+00  0.000000D+00  0.000000D+00  0.000000D+00
      2  -0.449470D-02  0.459240D-01  0.119504D-01  0.757346D-03  0.108750D+00
      3   0.661385D-02 -0.919640D-02  0.393032D-01 -0.472149D-01 -0.249853D-01
      4   0.271433D-01 -0.564185D-02 -0.154378D-01  0.426371D-01 -0.384670D-01
      5   0.391658D-02  0.312155D-02  0.938013D-02 -0.275591D-02 -0.658497D-02
      6  -0.937440D-03  0.448212D-03 -0.594284D-02  0.574522D-02  0.266220D-02
      7  -0.379529D-02  0.645817D-03  0.203114D-02 -0.558078D-02  0.499165D-02
      8  -0.159193D-01  0.736119D-03  0.503643D-02 -0.245326D-01 -0.593203D-02
      9   0.284614D-01  0.103886D-01 -0.122325D-01  0.434500D-01 -0.198603D-01
     10  -0.219131D-01  0.303068D-01 -0.459406D-01  0.312050D-01 -0.143016D-01
     11  -0.159712D-02 -0.558498D-01 -0.346035D-01  0.176199D-01 -0.131588D+00
     12  -0.948508D-02  0.437122D-02 -0.208471D-01  0.105619D-01  0.728069D-02
     13  -0.465367D-02 -0.454332D-03 -0.254663D-02  0.109707D-01 -0.120796D-01
     14  -0.137193D-01  0.275611D-02 -0.637872D-01  0.507311D-01  0.167598D-01
     15  -0.190789D-01  0.386341D-02  0.133018D-01 -0.339682D-01  0.476984D-01
     16  -0.178488D-01  0.129445D-02  0.127410D-01 -0.282011D-01 -0.104374D-01
                71            72            73            74            75 
      1   0.000000D+00  0.000000D+00  0.000000D+00  0.000000D+00  0.000000D+00
      2  -0.173928D-01 -0.127177D+00  0.884340D-01 -0.660378D-01  0.512692D-02
      3   0.612412D-01  0.737803D-01 -0.465856D-01  0.985491D-01  0.146582D-02
      4   0.743567D-03  0.127353D+00  0.120259D-01 -0.764734D-02  0.454558D-01
      5   0.236801D-02  0.817503D-02 -0.686333D-02  0.343611D-02 -0.211761D-02
      6  -0.778246D-02 -0.934299D-02  0.612001D-02 -0.118169D-01 -0.704469D-04
      7   0.110832D-03 -0.159500D-01 -0.174864D-02  0.955270D-03 -0.594840D-02
      8  -0.260558D-02  0.384475D-01  0.943827D-02 -0.100117D-01  0.159886D-01
      9   0.390116D-02  0.125319D+00  0.428181D-02 -0.216183D-01  0.408474D-01
     10  -0.312465D-01  0.337922D-01  0.554920D-02 -0.184775D-01  0.205489D-01
     11   0.389885D-01  0.193896D+00 -0.116235D+00  0.141728D+00  0.104398D-01
     12   0.153103D-01 -0.204025D-01 -0.126410D-01  0.208190D-01 -0.143846D-01
     13  -0.206589D-02  0.488151D-01  0.266282D-02 -0.160489D-02  0.643942D-02
     14  -0.621751D-01 -0.429826D-01  0.504304D-01 -0.818552D-01  0.171603D-01
     15  -0.242556D-02 -0.139249D+00 -0.142833D-01  0.968799D-02 -0.519833D-01
     16   0.830657D-02  0.311082D-01  0.546170D-02 -0.541156D-02  0.156093D-01
                76            77            78            79            80 
      1   0.000000D+00  0.000000D+00  0.000000D+00  0.000000D+00  0.000000D+00
      2   0.173724D-01 -0.885532D-02  0.788560D-02  0.352456D-01  0.174932D-01
      3  -0.836662D-02  0.240709D-01  0.426130D-02  0.108504D-01  0.209372D-01
      4   0.350557D-02  0.394571D-02  0.300674D-01 -0.418136D-02 -0.310202D-02
      5  -0.138157D-02  0.248902D-03 -0.416281D-03 -0.227460D-02 -0.233978D-02
      6   0.110887D-02 -0.317882D-02 -0.511032D-03 -0.144914D-02 -0.274077D-02
      7  -0.428091D-03 -0.668474D-03 -0.380843D-02  0.544928D-03  0.342245D-03
      8  -0.915742D-03  0.252321D-02 -0.250011D-02  0.444353D-03  0.193442D-02
      9   0.431604D-02  0.353355D-02  0.296567D-01 -0.565443D-02 -0.604642D-02
     10   0.392137D-02 -0.103103D-01  0.710898D-03 -0.721261D-02 -0.138413D-01
     11  -0.276528D-01  0.223647D-01 -0.424872D-02 -0.585949D-01 -0.172079D-01
     12   0.197415D-02 -0.304528D-02  0.416678D-02  0.416683D-03 -0.216747D-02
     13  -0.105875D-02  0.145955D-02 -0.128971D-01  0.241664D-02  0.151645D-02
     14   0.547291D-02 -0.217428D-01 -0.602017D-02 -0.209868D-01 -0.226900D-01
     15  -0.488458D-02 -0.617140D-02 -0.319015D-01  0.546690D-02  0.381457D-02
     16  -0.189700D-02  0.115006D-02 -0.263844D-02  0.164876D-02  0.103270D-02
                81            82            83            84 
      1   0.000000D+00  0.000000D+00  0.000000D+00  0.000000D+00
      2  -0.492787D-02  0.106258D+00  0.562967D-01  0.837583D-03
      3  -0.472676D-02  0.116956D-01  0.126416D+00  0.454946D-01
      4   0.103181D-01  0.716890D-02  0.258803D-01 -0.156041D-01
      5   0.941623D-03 -0.887175D-02 -0.701707D-02 -0.100586D-01
      6   0.568530D-03 -0.131834D-02 -0.154222D-01 -0.687138D-02
      7  -0.129979D-02 -0.104674D-02 -0.351952D-02  0.932118D-03
      8  -0.354446D-02  0.132257D-01  0.303002D-01 -0.261284D-01
      9   0.104047D-01  0.428849D-02 -0.300296D-03  0.128313D-01
     10   0.356380D-02 -0.499244D-01 -0.703420D-01 -0.403327D-01
     11   0.173434D-01 -0.529333D-01  0.217845D-01 -0.984740D-02
     12   0.150757D-02  0.129682D-01  0.407998D-01  0.273492D-01
     13  -0.117621D-02 -0.116173D-02  0.313163D-03 -0.505269D-02
     14   0.660851D-02 -0.207986D-01 -0.703318D-01 -0.531338D-02
     15  -0.123048D-01 -0.229751D-02 -0.132291D-01  0.124201D-02
     16  -0.249243D-02  0.565934D-02  0.194865D-01 -0.883026D-02

 ----------------------------------------------------------------------

 Electric dipole moment (input orientation):
 (Debye = 10**-18 statcoulomb cm , SI units = C m)
                  (au)            (Debye)         (10**-30 SI)
   Tot        0.111388D+01      0.283119D+01      0.944384D+01
   x          0.329411D-01      0.837280D-01      0.279287D+00
   y         -0.108869D+01     -0.276717D+01     -0.923029D+01
   z         -0.233218D+00     -0.592782D+00     -0.197731D+01

 Dipole polarizability, Alpha (input orientation).
 (esu units = cm**3 , SI units = C**2 m**2 J**-1)
 Alpha(0;0):
               (au)            (10**-24 esu)      (10**-40 SI)
   iso        0.232932D+03      0.345170D+02      0.384054D+02
   aniso      0.220373D+03      0.326559D+02      0.363346D+02
   xx         0.368239D+03      0.545673D+02      0.607143D+02
   yx        -0.247632D+02     -0.366953D+01     -0.408290D+01
   yy         0.207827D+03      0.307967D+02      0.342660D+02
   zx        -0.398641D+01     -0.590725D+00     -0.657270D+00
   zy        -0.422083D+01     -0.625462D+00     -0.695921D+00
   zz         0.122732D+03      0.181870D+02      0.202357D+02

 ----------------------------------------------------------------------

 Dipole orientation:
     6         -4.69778636         -0.03108671         -0.58112948
     6         -3.56852891          0.65466739          1.74315436
     6         -0.96625559          0.65145389          1.95419896
     6          0.63618271         -0.07108980         -0.14683974
     6         -0.55019453         -0.76492147         -2.46523141
     6         -3.14630071         -0.73503317         -2.69267023
     1         -4.06979887         -1.24106813         -4.45360075
     1         -4.72093747          1.17838176          3.35446952
     1         -0.12864823          1.21748724          3.73776371
     1          0.59387475         -1.32172715         -4.07247392
     8         -7.18517065         -0.09964128         -1.02724530
     6         -8.95773442          0.58369376          0.92220701
     1         -8.63319315          2.53985026          1.51626481
     1         -8.76468295         -0.70236080          2.53317451
     1        -10.81527463          0.38607039          0.05661425
     6          3.35270029         -0.12100138          0.05738574
     6          5.24643672         -0.53915890         -2.00976117
     7          4.57836633          0.19985395          2.29445756
     6          7.30488479         -0.16753619          2.07538564
     6          7.77066167          0.25139188         -0.76140372
     1          4.81977308          0.54942112         -3.71960036
     1          5.27554720         -2.54776511         -2.56797084
     1          7.79816449         -2.10478308          2.66456643
     1          8.31582554          1.14805704          3.31226498
     1          8.13705892          2.25728793         -1.12057937
     1          9.38197896         -0.83963025         -1.45235652
     1          3.70266307          0.11341226          4.00202226

 Electric dipole moment (dipole orientation):
 (Debye = 10**-18 statcoulomb cm , SI units = C m)
                  (au)            (Debye)         (10**-30 SI)
   Tot        0.111388D+01      0.283119D+01      0.944384D+01
   x          0.000000D+00      0.000000D+00      0.000000D+00
   y          0.000000D+00      0.000000D+00      0.000000D+00
   z          0.111388D+01      0.283119D+01      0.944384D+01

 Dipole polarizability, Alpha (dipole orientation).
 (esu units = cm**3 , SI units = C**2 m**2 J**-1)
 Alpha(0;0):
               (au)            (10**-24 esu)      (10**-40 SI)
   iso        0.232932D+03      0.345170D+02      0.384054D+02
   aniso      0.220373D+03      0.326559D+02      0.363346D+02
   xx         0.366508D+03      0.543109D+02      0.604290D+02
   yx        -0.504071D+01     -0.746957D+00     -0.831101D+00
   yy         0.128299D+03      0.190120D+02      0.211537D+02
   zx         0.304093D+02      0.450620D+01      0.501382D+01
   zy         0.205871D+02      0.305070D+01      0.339436D+01
   zz         0.203990D+03      0.302282D+02      0.336334D+02

 ----------------------------------------------------------------------
 Unable to Open any file for archive entry.
 1\1\GINC-R043\Freq\RB3LYP TD-FC\6-31+G(d)\C11H14N1O1(1+)\ZLAB\12-Aug-2
 026\0\\#P Geom=AllCheck Guess=TCheck SCRF=Check GenChk RB3LYP TD(FC,Re
 ad)/6-31+G(d) Freq\\S1 excited-state optimization\\1,1\C,-2.4928649682
 ,0.2446072153,-0.0252095779\C,-1.8680188834,-1.0194983461,0.0896196653
 \C,-0.4886075978,-1.0953831945,0.1052990603\C,0.3350110677,0.091897116
 7,-0.010543098\C,-0.3198452789,1.3531308111,-0.1310968885\C,-1.6965893
 469,1.4346072496,-0.1310668316\H,-2.2060878177,2.3899613184,-0.2121409
 34\H,-2.458813538,-1.9256904981,0.1639275626\H,-0.0249323326,-2.070200
 8447,0.2135530609\H,0.267021877,2.2607901411,-0.2231017384\O,-3.814294
 6356,0.4515057992,-0.0501651531\C,-4.729751087,-0.6551647782,0.0595307
 21\H,-4.5735794004,-1.1757979466,1.0105365569\H,-4.5861900213,-1.34295
 1195,-0.7811001926\H,-5.7230548805,-0.2089920938,0.0241527607\C,1.7753
 179982,0.0261759761,-0.0164730739\C,2.7496541506,1.1657698159,0.025920
 3798\N,2.4543946844,-1.1510339616,-0.0792020951\C,3.8973809398,-0.9623
 972664,-0.2022791432\C,4.0939881773,0.4641374925,0.3359914635\H,2.4835
 105285,1.9236942703,0.7717139251\H,2.7817159465,1.6781661039,-0.950650
 396\H,4.1919465412,-1.0455075241,-1.2618051185\H,4.4346784018,-1.73560
 6332,0.3569393746\H,4.2567462736,0.431526956,1.4189933442\H,4.94902963
 85,0.9631847328,-0.126525923\H,2.0191435631,-2.0356710177,-0.326807711
 3\\Version=ES64L-G16RevC.01\State=1-A\HF=-557.4550275\RMSD=5.738e-09\R
 MSF=2.693e-06\ZeroPoint=0.2284171\Thermal=0.2407889\ETot=-557.08503\HT
 ot=-557.0840858\GTot=-557.1359419\Dipole=0.0329411,-1.0886893,-0.23321
 84\DipoleDeriv=1.2384935,-0.2864148,0.0264859,-0.3538933,-0.5550714,0.
 0417764,0.0606587,0.0478186,0.1524489,0.4265936,-0.3956196,0.0172465,-
 0.0164845,0.1988545,-0.0214156,-0.0052427,-0.0384888,-0.1625315,-1.140
 8314,-0.069935,0.027492,-1.1704842,-0.1372679,-0.0001821,0.0824203,-0.
 0274185,-0.2380426,3.0081743,-0.1961012,-0.073938,-0.256295,0.7957687,
 -0.0658286,-0.021141,-0.0270193,0.1595873,-2.0282315,0.872176,-0.02690
 36,1.3340979,-0.6403416,0.0075714,-0.0600997,0.0567905,-0.2105673,1.45
 64301,-0.2463515,-0.0050829,0.1167735,0.3548427,-0.0340513,-0.0004728,
 -0.0544591,-0.0924636,0.0951415,0.0528017,-0.0036693,0.0569169,0.03398
 26,0.0137985,-0.03489,0.0232504,0.190931,0.0785524,-0.0688515,0.005125
 9,-0.0663025,0.074444,0.0134177,0.0216615,0.0174263,0.2108006,0.059702
 4,0.0986363,-0.0066823,0.0712827,-0.0162646,0.0211324,-0.0181094,0.019
 9129,0.2126465,0.0841147,-0.0900764,0.0107439,-0.0776248,0.0251998,0.0
 171838,0.0249122,0.0130127,0.1958757,-1.8821362,-0.0274558,0.0130577,0
 .1983601,-0.434916,0.0173933,-0.0334637,0.0224331,-0.2664339,0.9694482
 ,0.2990532,-0.0364445,0.0855498,0.4946111,-0.0136074,-0.0327493,-0.022
 2598,0.3382027,-0.077603,0.0080192,-0.0739943,-0.0473117,0.0591058,0.0
 418132,-0.0474242,0.0788334,-0.0427508,-0.0715879,0.0236545,0.0746147,
 -0.0390403,0.0319062,-0.0575625,0.071196,-0.0930243,-0.0187037,-0.1071
 108,0.0125692,0.0005968,0.0420348,0.0450984,0.0081239,0.0031572,0.0089
 667,0.1285366,-1.5625833,0.0122737,0.0843403,0.1920608,0.7252122,0.003
 1819,0.0054901,-0.1277164,0.0267082,0.1820545,0.02579,-0.0309964,0.424
 1092,-0.0125808,-0.0345829,-0.1141915,0.0323249,0.2374486,0.0189932,-0
 .2463571,0.0316839,-0.1710738,-0.7300092,0.0729433,-0.3821334,0.312528
 6,-0.456808,0.0322078,0.1825108,-0.057554,0.4487842,0.1018879,-0.05799
 89,0.6261588,-0.2616286,0.3477373,0.106395,0.0626899,-0.0194987,0.0446
 702,0.0259237,-0.0288214,-0.0370072,-0.0157416,0.1918588,0.0470663,0.0
 583422,0.0366263,-0.0800816,-0.0367556,-0.0864518,0.0017028,-0.1335609
 ,0.004585,-0.0135227,-0.0324189,-0.0122786,-0.1678331,-0.00435,0.09940
 83,0.0881424,0.1174101,-0.1092005,-0.0350891,0.0246914,0.0383761,-0.15
 3752,0.1259323,-0.0218678,-0.0930643,0.0072663,-0.144136,0.0213721,0.0
 409972,-0.024174,-0.1153683,0.0083572,0.0575583,-0.1435216,0.1076722,0
 .0581975,0.0594851,0.0076787,-0.02631,-0.0408147,0.0610546,0.0120204,-
 0.0910543,-0.0068029,-0.1733897,-0.1377656,-0.0822351,0.0454277,-0.110
 4021,0.0415753,0.0280003,0.0708192,0.0476478,0.0575691,0.1722368,-0.04
 00672,-0.0142912,-0.1478784,0.3638,-0.0329527,0.0582462,-0.1051744,0.4
 018939\Polar=368.2386131,-24.7631922,207.8265036,-3.9864105,-4.2208291
 ,122.7318183\PG=C01 [X(C11H14N1O1)]\NImag=0\\0.63982931,-0.01491155,0.
 58572495,0.00492131,-0.04124712,0.13568861,-0.13413022,0.00131087,-0.0
 0115919,0.70561953,0.06532719,-0.24764072,0.01764093,0.06502190,0.6777
 9432,-0.00593485,0.01525345,-0.06442849,-0.00283425,-0.04875778,0.1195
 6809,-0.02217889,0.04070890,-0.00436350,-0.37688498,-0.00103443,-0.002
 11874,0.67169702,0.03534948,-0.00625632,0.00095536,0.03077106,-0.10994
 487,0.00556051,-0.07969111,0.63891199,-0.00333949,0.00058728,0.0063245
 0,-0.00426446,0.00562787,-0.04960627,0.01075016,-0.05414953,0.11142377
 ,-0.00073680,0.00842692,-0.00082400,-0.03486829,-0.03177148,0.00287450
 ,-0.12974128,-0.04402659,0.00531821,0.57129030,-0.00413513,0.03000804,
 -0.00166164,-0.03209568,-0.00373226,0.00153090,-0.00499422,-0.19738888
 ,0.01259219,-0.02944548,0.53871651,0.00035936,-0.00001009,-0.00781105,
 0.00326547,-0.00083811,0.00341300,0.00264727,0.01358055,-0.05892276,-0
 .00115969,-0.03381930,0.14242286,-0.03309302,0.00396041,0.00119411,-0.
 02091133,-0.00033819,0.00024622,0.07429941,0.00123486,0.00204070,-0.13
 040540,-0.02875946,-0.00145000,0.64055837,-0.02683037,-0.01654502,0.00
 148212,0.00257746,0.00603692,-0.00084347,-0.02138285,-0.03951222,0.004
 61062,0.05896623,-0.21864889,0.01681903,0.10443581,0.63649719,0.002629
 27,0.00502844,0.00830820,0.00080657,-0.00131285,0.00180469,0.00098111,
 0.00589632,0.00278415,-0.00721892,0.01412998,-0.06001132,-0.01310634,-
 0.05146118,0.11554173,-0.12595571,-0.04631379,0.00297929,0.04509573,-0
 .00927264,0.00088059,-0.04747501,-0.00730245,-0.00001399,-0.03505914,0
 .08001177,-0.00611441,-0.34437513,-0.02889608,0.00311747,0.69726829,-0
 .07354656,-0.21956165,0.01341612,0.01235990,-0.04727425,0.00554941,-0.
 01892412,-0.00225154,0.00036451,0.03175627,0.00357464,-0.00060811,0.02
 913956,-0.11481753,0.00387706,-0.07353373,0.66316373,0.00590271,0.0122
 8183,-0.06372708,-0.00157439,0.00578709,0.00724727,0.00218143,-0.00006
 143,-0.00098748,-0.00269165,-0.00006887,0.00420728,-0.00067268,0.00545
 457,-0.05401243,0.00491464,-0.04601757,0.12838613,0.00993992,-0.016374
 67,0.00128166,-0.00209545,-0.00303428,0.00022999,-0.00045889,0.0000199
 0,0.00002729,-0.00510173,-0.00166107,0.00025532,-0.00901066,0.02789613
 ,-0.00244450,-0.12089404,0.11949199,-0.00995886,0.12353028,0.01248399,
 -0.01794654,0.00189452,-0.00375543,-0.00253152,0.00040475,-0.00024935,
 0.00044551,-0.00014598,-0.00164735,0.00123262,0.00051264,-0.00143530,0
 .00485621,0.00036479,0.11855893,-0.28575969,0.02106312,-0.12706094,0.2
 9771381,-0.00079903,0.00183951,0.00428637,-0.00012316,0.00035601,0.001
 80825,0.00067095,-0.00033993,-0.00137114,-0.00025304,0.00031584,0.0076
 3058,-0.00059025,0.00032036,0.00829551,-0.00933467,0.02146623,-0.03721
 221,0.01062711,-0.02330660,0.02358446,0.01221718,0.01256755,-0.0008871
 3,-0.14279383,-0.13186451,0.01093641,-0.01295862,-0.02659148,0.0022860
 3,-0.00455657,0.00211641,-0.00035089,-0.00029753,0.00004191,0.00000104
 ,-0.00148725,0.00321234,-0.00033917,0.00051518,0.00071321,-0.00004047,
 0.15283528,-0.01544180,-0.01766329,0.00163823,-0.13184627,-0.26499470,
 0.01908838,0.00310429,0.00703785,0.00000464,0.00209469,0.00044253,0.00
 060344,-0.00048887,0.00078461,-0.00018098,0.00403404,-0.00288118,0.000
 61608,-0.00083133,-0.00070438,0.00015015,0.14011159,0.27583151,0.00093
 297,0.00235511,0.00282824,0.01061283,0.01904785,-0.03519944,0.00089324
 ,0.00013018,0.00596604,-0.00026814,-0.00034318,0.00811798,-0.00160540,
 0.00039568,-0.00139228,0.00061118,0.00072093,0.00365627,0.00007694,0.0
 0014701,0.00107688,-0.01173373,-0.02103648,0.02434058,-0.00444065,-0.0
 0107772,-0.00026244,-0.01099934,0.02914017,-0.00324664,-0.11021091,0.1
 1049828,-0.01137722,0.01147697,-0.01743258,0.00156326,-0.00267545,-0.0
 0232677,0.00040464,-0.00066177,-0.00034295,0.00008871,0.00010245,0.000
 10445,-0.00007836,0.00151796,-0.00004564,0.00019837,0.12299541,-0.0008
 7212,0.00080119,0.00081789,-0.00113862,0.00312626,0.00028850,0.1116119
 7,-0.29304972,0.02802264,0.01161774,-0.01576656,0.00192655,-0.00266546
 ,-0.00255103,0.00056364,-0.00103669,0.00030477,-0.00011817,0.00011904,
 0.00000160,-0.00000067,0.00000255,0.00091874,-0.00065857,-0.11900322,0
 .30570551,0.00017814,0.00027734,0.00757076,0.00041292,0.00045507,0.005
 21479,-0.01339494,0.02837626,-0.03354141,-0.00038887,0.00253193,0.0019
 0046,0.00110209,-0.00009422,0.00276422,-0.00042131,-0.00033931,-0.0008
 6505,-0.00000442,-0.00000862,-0.00017078,0.00013305,-0.00052362,-0.005
 09636,0.01096694,-0.03018944,0.02338700,-0.00326629,0.00225537,-0.0001
 8470,-0.00061985,0.00032116,-0.00002102,-0.00151882,0.00266559,-0.0003
 8207,0.01185503,0.01411402,-0.00138217,-0.14171164,-0.13148146,0.01426
 443,-0.01473487,-0.02720807,0.00264119,0.00150030,0.00016703,-0.000061
 26,0.00008320,-0.00011476,0.00001081,0.00055823,0.00069280,-0.00008397
 ,0.15260049,0.00188774,0.00106196,0.00058172,0.00068248,0.00026630,-0.
 00008465,0.00327173,-0.00268265,0.00083850,-0.01511086,-0.01747055,0.0
 0198988,-0.13088492,-0.26329540,0.02283254,0.00291149,0.00646457,-0.00
 024605,-0.00018339,0.00073037,-0.00050604,-0.00010992,0.00002770,-0.00
 007874,-0.00084688,-0.00081914,-0.00000083,0.13890771,0.27478920,-0.00
 017927,0.00054617,0.00775267,0.00012474,-0.00018223,-0.00075512,-0.000
 71798,0.00061106,0.00499862,0.00142128,0.00246905,0.00274337,0.0145021
 2,0.02254880,-0.03720775,-0.00051347,-0.00006850,0.00404708,-0.0000709
 9,-0.00049320,-0.00490313,0.00001662,-0.00007057,-0.00085935,0.0000748
 2,0.00003773,-0.00019574,-0.01422294,-0.02511395,0.02604824,-0.3031907
 5,0.05241144,-0.00652829,-0.03454662,0.01830598,-0.00187696,-0.0067237
 3,0.00027627,-0.00070854,0.01062588,0.00778071,-0.00034982,0.00577222,
 -0.00487015,0.00113855,-0.06049668,-0.01239383,0.00081694,0.00208122,0
 .00199317,-0.00023792,0.00109486,-0.00165201,0.00062562,-0.00172077,-0
 .00016907,-0.00019322,-0.00159794,-0.00004676,0.00007725,0.54489016,0.
 02782808,-0.10875977,0.00732318,0.04278317,0.00038878,0.00167420,0.002
 89165,-0.00362828,0.00077486,-0.00234072,-0.00919987,0.00034027,-0.007
 95031,-0.00237523,0.00018863,-0.04129140,0.00734207,-0.00071880,0.0002
 0034,0.00166751,-0.00023623,-0.00152860,0.00107999,-0.00053062,0.00183
 952,0.00026105,-0.00000434,-0.00162185,0.00041333,0.00006151,0.0504218
 6,0.31055565,-0.00414709,0.00838062,-0.03393022,-0.00291160,0.00050128
 ,0.01269562,-0.00118236,0.00082827,0.00406285,0.00106776,0.00057771,-0
 .00039060,0.00025083,0.00067048,0.00165522,0.00398610,-0.00083120,0.00
 015784,0.00007231,-0.00028387,-0.00122710,-0.00000301,-0.00032021,-0.0
 0293131,0.00009164,-0.00014157,-0.00064857,0.00016380,0.00001319,0.000
 53443,-0.00408786,-0.02458450,0.06709017,-0.04361760,-0.02589350,0.001
 36344,0.00146643,-0.00114660,0.00035601,0.00491530,0.00108272,-0.00007
 165,-0.00430580,-0.00417902,0.00021973,-0.00091159,-0.00093130,0.00008
 203,-0.00139595,0.00247869,-0.00023056,0.00015789,-0.00015854,-0.00001
 796,-0.00263844,0.00072271,-0.00024779,0.00043224,0.00003621,0.0001250
 2,-0.00005655,0.00024543,-0.00002436,-0.11152793,-0.03361596,0.0039276
 2,0.55054508,-0.01811835,0.01042225,-0.00191402,0.00733201,-0.00111485
 ,-0.00047337,0.00095902,-0.00093981,0.00029296,-0.00322027,-0.00242415
 ,-0.00003557,-0.00166533,0.00263648,-0.00075373,0.00762960,0.00213703,
 0.00059583,-0.00001959,-0.00003405,0.00000276,0.00145271,-0.00074389,0
 .00013602,0.00035956,0.00000608,0.00009625,0.00040952,-0.00001768,-0.0
 0003512,-0.04796503,-0.14810512,0.00922837,-0.11286096,0.48408452,0.00
 037495,-0.00273267,-0.00473096,-0.00103144,-0.00042825,-0.00408954,0.0
 0014082,-0.00008818,-0.00139857,-0.00027614,0.00016455,-0.00035422,0.0
 0067431,-0.00040525,-0.00035318,-0.00106960,0.00049524,0.00627203,0.00
 000243,-0.00000564,-0.00067090,0.00028703,0.00026950,0.00046084,-0.000
 15551,0.00008824,0.00060546,-0.00003258,0.00001574,-0.00014884,0.00582
 569,0.01005290,-0.05548156,0.01159944,0.00919774,0.58230197,0.00205875
 ,-0.00077164,0.00122699,0.00102670,0.00025602,0.00057564,-0.00097449,-
 0.00045611,0.00029277,0.00051855,-0.00028261,-0.00007437,-0.00099659,0
 .00088869,0.00006885,0.00045777,0.00004908,-0.00109952,0.00000411,0.00
 002576,0.00006917,-0.00128441,-0.00000821,0.00051851,-0.00000739,0.000
 00690,-0.00001399,-0.00002427,-0.00002928,0.00004834,-0.00281415,-0.01
 833533,0.02290332,-0.05958114,0.02338102,-0.04471872,0.06030975,0.0059
 1099,-0.00022617,0.00046268,0.00006241,0.00078309,-0.00012688,-0.00093
 113,-0.00018932,-0.00008437,0.00115221,0.00073685,0.00001084,0.0002401
 5,-0.00017571,0.00014431,-0.00088717,-0.00033570,-0.00060046,0.0000261
 3,0.00008315,0.00004108,0.00019661,0.00013260,-0.00006613,-0.00005569,
 -0.00001353,-0.00007732,-0.00005536,-0.00000973,0.00002526,-0.01101742
 ,-0.02549420,0.02264328,0.02174546,-0.09914747,0.10335153,-0.01537763,
 0.11639009,-0.00135258,0.00034200,0.00075516,-0.00016816,0.00066694,0.
 00008979,0.00035524,-0.00021751,0.00036610,-0.00063088,-0.00023532,0.0
 0000490,-0.00011288,0.00008452,0.00004058,0.00037969,-0.00003483,-0.00
 034316,-0.00003043,-0.00004151,0.00004125,-0.00010762,-0.00066810,-0.0
 0007761,0.00002256,-0.00000233,-0.00006126,0.00001790,-0.00000692,-0.0
 0000057,0.00509268,0.00337885,0.00275249,-0.03871531,0.10672227,-0.256
 99349,0.04017561,-0.11965153,0.27081891,0.00221005,-0.00111605,-0.0008
 7532,0.00088627,-0.00012512,-0.00046546,-0.00088017,-0.00037347,-0.000
 09666,0.00038150,-0.00037118,0.00002383,-0.00084335,0.00082599,-0.0004
 1158,0.00032254,0.00024931,0.00116266,0.00001128,0.00003287,-0.0000502
 8,-0.00168701,0.00033413,-0.00053112,-0.00002662,0.00000806,-0.0000082
 0,-0.00001908,-0.00002876,-0.00004304,-0.00306046,-0.02214890,-0.01918
 546,-0.05802615,0.02924396,0.03708687,0.00196403,-0.00231690,-0.005077
 41,0.05909574,0.00627133,-0.00046784,-0.00031156,0.00022931,0.00072555
 ,-0.00030689,-0.00097386,-0.00015302,0.00003011,0.00122138,0.00077567,
 -0.00004809,0.00031455,-0.00020985,0.00004328,-0.00105185,-0.00025253,
 0.00058645,0.00002887,0.00009182,-0.00006697,0.00053504,0.00001573,0.0
 0007525,-0.00006799,0.00000066,0.00003200,-0.00005576,-0.00000825,-0.0
 0001754,-0.01215242,-0.02916450,-0.01639416,0.02639295,-0.14119408,-0.
 12462698,-0.00116029,0.01146814,0.01123662,-0.02068791,0.16396647,0.00
 035033,0.00003326,0.00077847,0.00045383,-0.00089660,0.00050536,-0.0001
 6315,0.00033620,0.00025233,0.00051081,0.00007911,0.00004510,-0.0000334
 9,-0.00002423,0.00016629,-0.00020588,-0.00005923,-0.00049240,0.0000265
 6,0.00002605,0.00003242,-0.00019105,0.00057110,-0.00012491,0.00001173,
 -0.00001606,-0.00008516,-0.00000685,0.00000739,0.00000711,-0.00313848,
 0.00270289,0.00683113,0.03186143,-0.12790565,-0.21320702,0.00512877,-0
 .01701744,-0.01912678,-0.03417292,0.13956811,0.22158596,0.00123613,-0.
 00346975,0.00040855,0.00037749,-0.00042816,0.00005899,-0.00059139,-0.0
 0014285,0.00000812,0.00067266,0.00011257,-0.00000268,-0.00044256,-0.00
 004973,0.00000286,-0.00056473,0.00056126,-0.00005422,0.00001434,-0.000
 01883,0.00000256,0.00009096,0.00004889,0.00000030,-0.00005430,0.000003
 41,-0.00001283,-0.00010470,0.00000853,0.00000212,-0.02836263,0.0013758
 5,-0.00008964,-0.27783831,0.10955178,-0.00873943,-0.00070117,0.0021879
 3,-0.00034156,-0.00043816,0.00212041,-0.00002545,0.30705247,-0.0024542
 5,-0.00375196,0.00048851,0.00006690,-0.00101067,0.00009685,-0.00022825
 ,0.00028450,-0.00000608,0.00036334,-0.00005916,0.00000597,-0.00029116,
 -0.00019278,0.00000878,-0.00102743,0.00046757,-0.00003395,0.00004594,-
 0.00001246,0.00000436,0.00036675,0.00056753,-0.00003001,-0.00005300,0.
 00000106,-0.00000986,-0.00012268,0.00001577,-0.00000209,-0.03934813,0.
 00606774,-0.00043144,0.12610727,-0.10573607,0.00435057,0.01201351,-0.0
 0390800,-0.00155011,0.01653852,-0.00549992,0.00264435,-0.11184784,0.11
 275439,0.00030453,0.00052339,0.00131383,-0.00001473,0.00011198,0.00022
 562,0.00003016,-0.00000090,0.00010598,-0.00001667,-0.00000044,0.000042
 54,0.00003517,0.00000274,-0.00010206,0.00006107,-0.00004966,0.00035003
 ,-0.00000241,0.00000564,0.00003230,-0.00006704,-0.00005682,-0.00019998
 ,0.00001030,-0.00000626,-0.00003934,0.00001177,-0.00000603,-0.00005277
 ,0.00372745,-0.00076850,-0.00109452,-0.01026308,0.00457549,-0.05283703
 ,-0.02502663,0.01097169,0.00182072,0.02244344,-0.00975955,0.00297113,0
 .00878413,-0.00553490,0.04747899,0.00520309,-0.01029983,0.00110155,0.0
 0373845,0.00308163,-0.00022138,-0.03746070,-0.02506076,0.00143295,-0.2
 2187235,-0.00173487,0.00140701,-0.02558670,0.02511960,-0.00097220,0.00
 643694,0.00183227,-0.00034825,0.00035827,0.00045221,0.00042407,-0.0002
 0312,-0.00021805,-0.00015882,0.00076567,0.00098238,-0.00019632,0.00023
 556,-0.00104706,-0.00021341,-0.01248399,0.00142671,-0.00074124,0.00297
 187,0.00439855,0.00003465,0.00002847,-0.00117037,0.00065722,0.00012710
 ,-0.00129591,-0.00056557,-0.00039801,-0.00013381,-0.00002556,0.6370083
 0,-0.00241210,0.00403277,-0.00075775,0.00609340,-0.01362335,0.00078979
 ,-0.03815088,0.00213057,0.00226444,0.00670242,-0.10729882,-0.00068951,
 0.02805735,0.01084768,0.00065269,0.00572029,-0.00242232,0.00059382,0.0
 0131531,0.00007132,-0.00028874,-0.00153485,0.00018387,-0.00038706,-0.0
 0021107,-0.00031618,0.00062834,0.00015799,0.00011274,-0.00013844,-0.00
 337906,-0.00138066,0.00033610,-0.00127014,0.00164702,0.00012653,0.0003
 1604,-0.00007107,0.00010925,0.00046681,-0.00013072,-0.00020621,0.00011
 421,0.00006478,-0.00001685,-0.04477249,0.59453734,-0.00055449,-0.00540
 048,-0.00164044,-0.00209607,0.00249394,0.00023437,0.00318367,-0.002137
 47,0.01332103,0.00336580,0.00380670,-0.05231932,-0.00328611,0.00046543
 ,0.01427769,0.00188391,0.00336051,0.00248411,-0.00007787,-0.00018632,-
 0.00151266,0.00005095,-0.00011647,-0.00070661,0.00019418,0.00002503,-0
 .00020169,-0.00004877,-0.00010806,-0.00154336,-0.00025113,0.00043874,0
 .00006954,-0.00007524,0.00049183,0.00097493,-0.00010468,-0.00004317,-0
 .00013610,0.00037216,-0.00005975,-0.00022860,0.00001025,0.00000639,-0.
 00001400,-0.00815031,0.01843401,0.09737165,0.00002481,0.00238058,-0.00
 028341,-0.00008143,-0.00163637,0.00043888,-0.00090218,0.00547329,-0.00
 115930,-0.02186726,-0.02001148,0.00036806,0.00248228,-0.00291597,0.000
 22106,-0.00226569,-0.00177935,0.00014536,-0.00000390,-0.00002944,-0.00
 004839,-0.00022680,0.00012612,0.00011546,0.00003392,-0.00007790,-0.000
 10729,-0.00213890,0.00026748,-0.00040434,0.00148537,-0.00018579,0.0000
 6622,-0.00017687,-0.00057190,0.00001387,-0.00005435,0.00008866,-0.0000
 7202,-0.00007702,0.00011868,0.00007699,0.00002533,0.00001720,0.0000000
 6,-0.12112732,-0.06411741,-0.00037753,0.41588854,-0.00167728,0.0043346
 5,-0.00039443,0.00215864,-0.00120286,0.00013046,0.00397955,0.00140411,
 -0.00097656,-0.00709135,0.00899792,0.00017310,0.00184877,0.00051685,0.
 00004289,-0.00108914,-0.00123218,0.00026729,0.00004184,-0.00010026,0.0
 0000360,0.00037591,0.00001632,0.00008420,-0.00013080,0.00013533,-0.000
 02186,0.00083177,-0.00040569,0.00016263,0.00317563,-0.00064241,0.00008
 271,-0.00073006,-0.00090516,0.00003234,-0.00000802,0.00019436,-0.00009
 242,-0.00002715,0.00021184,0.00006948,0.00009939,0.00004595,0.00000092
 ,-0.04297414,-0.14779134,-0.00325539,-0.03301745,0.56683140,0.00080407
 ,-0.00120196,0.00046760,-0.00082493,0.00088668,0.00101590,0.00064591,0
 .00045509,0.00042887,0.00063419,-0.00038295,0.00115824,0.00214635,-0.0
 0072279,-0.00126965,-0.00127036,-0.00033671,0.00011824,0.00002071,0.00
 000975,-0.00019742,-0.00000348,0.00006101,0.00034925,-0.00006601,-0.00
 015640,-0.00034765,-0.00027392,-0.00033330,0.00005034,-0.00075780,0.00
 020669,0.00010396,0.00025822,0.00020636,-0.00049050,0.00011130,-0.0000
 7757,0.00010238,-0.00010719,-0.00006718,0.00004299,-0.00002547,-0.0000
 0604,-0.00000085,-0.00302867,-0.00573730,-0.06261033,-0.02430866,0.029
 09724,0.54635733,-0.00330935,-0.00709883,0.00150900,-0.00149813,0.0011
 5530,0.00049197,0.00017427,-0.00500091,-0.00104703,-0.03142019,0.04818
 097,0.00160489,-0.00417921,-0.00530420,0.00038379,0.00215628,0.0079403
 6,-0.00099256,-0.00052716,-0.00017613,0.00001346,-0.00007785,0.0001007
 0,-0.00007806,-0.00122235,0.00074797,-0.00007968,0.00000705,0.00008745
 ,0.00012261,0.00131942,0.00018368,-0.00054498,-0.00106144,0.00030123,0
 .00003525,0.00037777,0.00014490,-0.00000955,0.00035158,0.00016473,-0.0
 0001276,0.00014182,0.00006915,-0.00001346,-0.16002488,0.09690120,0.001
 28835,0.00781187,-0.01243828,0.00022744,0.59133211,0.00510660,0.004727
 07,-0.00029349,-0.00298992,0.00330597,0.00055825,0.00417515,0.01050437
 ,-0.00115258,-0.00102348,-0.00398719,-0.00029081,0.00869843,-0.0066500
 4,-0.00064439,-0.01075461,-0.00791505,0.00057549,-0.00008113,0.0001390
 1,0.00040335,0.00010786,-0.00003657,-0.00002589,0.00021569,0.00050826,
 -0.00069363,0.00001661,0.00005620,-0.00012259,0.00064346,0.00036923,-0
 .00044266,0.00142293,-0.00090543,0.00024007,-0.00043620,-0.00014697,-0
 .00007380,-0.00045240,-0.00009014,0.00008743,-0.00013975,-0.00005016,-
 0.00000610,0.10163894,-0.29895363,-0.01302116,-0.00101087,-0.05389465,
 -0.00194764,0.05616245,0.82055659,0.00037556,0.00265561,0.00082374,0.0
 0162464,-0.00129202,0.00047582,-0.00142992,-0.00027977,-0.00437694,0.0
 0548699,-0.00213463,0.00239672,-0.00487451,0.00278792,0.00110561,0.002
 12765,-0.00057742,0.00096543,-0.00005850,0.00001643,-0.00016131,-0.000
 04890,-0.00006153,-0.00012629,0.00036949,-0.00050271,0.00016376,0.0000
 5366,-0.00006188,-0.00028278,-0.00089147,-0.00015289,-0.00048849,0.000
 26564,-0.00017457,0.00004939,-0.00013457,0.00003947,-0.00002734,-0.000
 13597,0.00002711,0.00004321,-0.00005644,-0.00004775,0.00000355,0.00124
 024,-0.02674635,-0.01909476,-0.00088824,-0.00029879,0.00497574,0.01545
 874,0.13013824,0.09831736,0.00210808,0.00292792,-0.00040099,-0.0003351
 9,0.00043606,-0.00010196,0.00187407,0.00325323,-0.00015222,0.00595209,
 -0.00471118,0.00082147,-0.00145034,0.00046205,-0.00014256,-0.00060730,
 -0.00320748,0.00031335,0.00001071,0.00004603,-0.00000450,0.00003184,-0
 .00004442,0.00007494,-0.00027482,-0.00050043,0.00004895,0.00010692,-0.
 00012146,0.00001137,-0.00061443,0.00011996,0.00007542,0.00076296,-0.00
 042495,-0.00001697,-0.00026296,-0.00003386,-0.00003868,-0.00027143,-0.
 00002575,0.00006278,-0.00010469,-0.00006130,0.00001202,-0.04846815,0.0
 3017791,0.00675843,-0.00306094,0.02182427,0.00870663,-0.17980243,-0.01
 185112,0.00737806,0.46411366,-0.00077972,-0.00074043,-0.00020076,-0.00
 004454,0.00008715,-0.00008263,-0.00068438,-0.00002466,0.00043998,-0.00
 457616,-0.00402676,-0.00153653,0.00439163,-0.00116018,0.00089098,-0.00
 143643,0.00009743,0.00004910,0.00012527,-0.00002551,-0.00007250,0.0000
 3954,0.00001858,-0.00005552,-0.00003511,0.00038380,-0.00003740,-0.0000
 1176,0.00001316,-0.00005442,0.00071613,-0.00012486,0.00004041,-0.00037
 617,0.00016688,0.00011512,0.00010356,-0.00000844,0.00001842,0.00014987
 ,-0.00000075,-0.00004877,0.00006161,0.00004218,-0.00000566,0.03385858,
 0.00167339,-0.00602756,0.01324973,-0.02814144,-0.00422256,-0.01981406,
 -0.09930429,-0.00491848,-0.08928895,0.53177502,-0.00099541,-0.00165564
 ,-0.00048053,-0.00059135,-0.00005643,-0.00021716,0.00013772,0.00023137
 ,0.00073868,-0.00954663,0.00276563,0.00559035,0.00511628,-0.00258732,-
 0.00224282,-0.00258135,0.00095526,-0.00035310,0.00003702,0.00003257,0.
 00070009,0.00002315,0.00006151,0.00003960,-0.00011211,0.00015994,-0.00
 004007,-0.00009470,-0.00010747,-0.00004105,0.00092712,-0.00017931,0.00
 045936,-0.00062155,0.00029678,-0.00022471,0.00024511,0.00001951,0.0000
 6007,0.00019418,-0.00003505,-0.00004212,0.00010131,0.00006626,-0.00000
 641,0.01126496,-0.00046457,0.00420705,0.00209066,0.00159031,0.00451561
 ,0.00904164,-0.00386562,-0.06477746,0.01447560,-0.03404788,0.55569909,
 0.00007019,-0.00027574,-0.00008966,-0.00028337,0.00003131,0.00004773,-
 0.00073176,0.00041993,0.00032708,-0.00127508,-0.00277012,-0.00087348,0
 .00085243,-0.00067962,-0.00000616,-0.00014667,0.00010169,-0.00010442,-
 0.00001068,0.00000157,0.00003300,-0.00006325,0.00001638,-0.00001770,0.
 00004357,0.00014473,-0.00005157,0.00000290,0.00018576,0.00004563,0.000
 00120,0.00008168,0.00006226,0.00002416,-0.00001548,0.00000629,-0.00000
 667,0.00000281,-0.00000667,0.00000101,0.00000189,0.00000511,-0.0000011
 5,0.00000049,-0.00000057,-0.03854873,-0.00525220,-0.00626056,-0.141090
 54,0.03405974,-0.01778701,-0.02267646,-0.03372468,-0.01274646,-0.07237
 822,-0.00277429,-0.00401199,0.54982415,-0.00004237,0.00012918,0.000185
 95,0.00017778,-0.00065360,0.00022926,-0.00155422,0.00010283,0.00025117
 ,-0.00112850,-0.00428065,-0.00027142,0.00024842,-0.00015282,-0.0002195
 5,-0.00003246,0.00024087,0.00001620,-0.00001785,-0.00000347,-0.0000171
 2,-0.00010510,0.00001526,-0.00001299,-0.00000465,0.00002454,-0.0000986
 8,0.00020512,0.00011948,-0.00001781,-0.00016253,-0.00005039,-0.0000365
 2,-0.00004753,0.00008290,-0.00006176,0.00003253,-0.00000420,0.00001020
 ,0.00000542,-0.00001479,-0.00000365,0.00000293,0.00000331,-0.00000563,
 -0.01111109,0.00999427,-0.00446362,0.03899502,-0.09318300,0.00650321,-
 0.02359678,-0.02260837,-0.00422901,-0.01425450,-0.15974313,-0.03460355
 ,0.08844009,0.45010442,0.00016916,-0.00020480,-0.00012287,-0.00007962,
 0.00020826,-0.00007322,0.00045688,0.00013438,-0.00019822,0.00016776,0.
 00052712,0.00105864,0.00088466,-0.00031463,0.00030696,-0.00034169,-0.0
 0006403,0.00005950,0.00001605,0.00000165,-0.00000507,0.00003372,0.0000
 0945,0.00006260,-0.00005001,-0.00003489,0.00004944,-0.00003974,0.00013
 331,-0.00013611,-0.00010206,0.00003832,0.00003436,0.00002323,0.0000387
 4,-0.00002286,0.00001319,-0.00001280,0.00001251,0.00000019,-0.00000453
 ,0.00000210,0.00000205,0.00000170,0.00000302,0.00001476,0.00023885,0.0
 0082732,-0.01869556,0.01029673,-0.08501174,0.00148975,0.00202013,0.002
 84284,-0.00881722,-0.03764261,-0.09697807,-0.02266208,-0.02795976,0.59
 108697,-0.00009733,0.00099924,0.00009439,0.00089192,-0.00063037,0.0001
 3056,-0.00062247,-0.00058076,0.00008793,0.00170819,-0.00001163,0.00023
 289,-0.00069241,0.00107542,-0.00039622,0.00007939,-0.00015116,0.000260
 23,-0.00001041,-0.00000972,-0.00005535,0.00002356,-0.00000226,0.000051
 39,-0.00001730,0.00001137,-0.00003656,-0.00097729,-0.00003016,-0.00038
 132,-0.00003664,-0.00010541,-0.00001188,-0.00003307,-0.00004217,-0.000
 12239,0.00000828,0.00001352,0.00000658,-0.00003591,0.00000156,0.000014
 32,-0.00000007,-0.00000218,0.00000143,0.00666439,-0.01360850,-0.015962
 03,-0.06430316,0.04194818,0.04373659,-0.00235169,-0.00366151,0.0000853
 8,-0.00508022,0.00064327,-0.00193296,-0.00452206,0.01916602,0.01816138
 ,0.06655158,0.00036714,-0.00122911,0.00000306,-0.00018974,0.00044653,-
 0.00003412,-0.00065652,-0.00116412,0.00015616,0.00412422,0.00028273,0.
 00061530,-0.00052840,0.00028599,0.00010585,0.00058370,0.00060279,-0.00
 009291,-0.00000259,0.00002837,0.00002117,-0.00003212,-0.00000673,-0.00
 000394,0.00004827,-0.00000008,-0.00005792,-0.00000849,0.00036995,-0.00
 012094,-0.00090486,0.00019366,-0.00001577,0.00018593,0.00026190,0.0000
 1574,0.00000472,-0.00005901,0.00003245,0.00001449,-0.00004945,-0.00001
 908,-0.00002331,-0.00001181,0.00000213,0.00039952,-0.01763509,-0.01237
 947,0.04444882,-0.16570685,-0.12501438,-0.00093228,-0.00188966,-0.0021
 4620,0.00069328,-0.00121121,0.00071039,0.00166020,-0.00663937,-0.00612
 852,-0.04692991,0.18488816,0.00003015,-0.00050306,0.00004810,-0.000026
 36,0.00010826,-0.00002188,-0.00033597,-0.00050318,-0.00016566,0.001252
 70,-0.00024109,0.00061898,-0.00063425,-0.00010697,-0.00026941,0.000560
 07,0.00046357,-0.00004708,0.00000482,0.00000748,0.00001742,-0.00001582
 ,-0.00000278,-0.00001405,0.00001539,0.00001713,0.00001224,-0.00033669,
 0.00040944,-0.00010865,-0.00028775,0.00006802,-0.00002552,0.00003555,0
 .00010244,0.00002048,0.00000763,-0.00001846,0.00001213,0.00001584,-0.0
 0001544,-0.00001037,-0.00000443,-0.00000132,0.00000069,-0.00229255,0.0
 0190469,0.00329557,0.04511170,-0.12803466,-0.17269283,-0.00022275,0.00
 069671,-0.00075910,-0.00160103,0.00125107,0.00057613,-0.00203498,0.007
 69068,0.00532691,-0.04687874,0.13484279,0.18442032,0.00001733,0.001061
 45,-0.00024022,0.00101343,-0.00075102,-0.00010019,-0.00115909,-0.00102
 575,0.00014737,0.00285851,-0.00068524,-0.00072855,-0.00149169,0.001618
 35,0.00016397,0.00072827,-0.00001413,-0.00015510,-0.00002834,0.0000050
 3,0.00003177,-0.00000820,-0.00003218,-0.00008626,0.00001535,0.00004725
 ,0.00006438,-0.00033902,0.00011582,0.00025862,-0.00042258,-0.00009794,
 0.00001228,0.00002422,0.00004687,0.00013816,-0.00005225,-0.00000559,-0
 .00001457,0.00000799,-0.00000407,-0.00001800,-0.00001247,-0.00001159,0
 .00000093,-0.00392810,-0.01280477,0.01792914,-0.04381230,-0.00409767,0
 .01079741,-0.00113721,-0.00115454,0.00076620,-0.00011010,0.00008745,-0
 .00065877,-0.00143367,0.01142934,-0.02683309,0.00046512,-0.00279366,0.
 00725287,0.05016385,0.00038780,-0.00138503,0.00021471,-0.00003950,0.00
 030574,-0.00019069,-0.00124702,-0.00180517,-0.00009258,0.00555496,-0.0
 0002379,0.00002019,-0.00142094,0.00117940,0.00014893,0.00104557,0.0007
 2785,-0.00004828,-0.00000522,0.00003466,-0.00000749,-0.00005336,-0.000
 02391,-0.00002836,0.00004934,0.00000998,0.00010197,-0.00006151,0.00009
 426,-0.00000771,-0.00135746,0.00017602,-0.00009316,0.00021869,0.000396
 36,0.00000495,0.00000876,-0.00006766,0.00003635,0.00002986,-0.00008490
 ,-0.00003943,-0.00003330,-0.00001871,0.00000149,-0.01078710,-0.0164447
 2,0.01875246,0.00088640,-0.09311284,0.10016978,-0.00074719,-0.00057165
 ,-0.00033305,-0.00034855,-0.00039812,0.00086058,-0.00022033,-0.0042630
 7,0.01091747,0.00139948,0.01015904,-0.01915109,0.00530844,0.10513404,-
 0.00052610,0.00118904,-0.00023911,0.00046633,-0.00051257,0.00006234,0.
 00026614,0.00050780,-0.00011452,-0.00187206,0.00043045,0.00041997,-0.0
 0007691,0.00025339,-0.00050383,-0.00007867,-0.00038445,-0.00007491,-0.
 00000576,-0.00001667,0.00005482,0.00003522,-0.00000134,-0.00004454,-0.
 00001626,0.00002132,-0.00002818,-0.00006720,-0.00019943,0.00006074,0.0
 0092017,-0.00017021,0.00003930,-0.00018150,-0.00027251,0.00011687,-0.0
 0003204,0.00005017,-0.00003655,0.00000042,0.00007107,0.00001822,0.0000
 2157,0.00000947,0.00000029,0.00594492,0.00272047,0.00759377,0.00405508
 ,0.09487545,-0.24021845,-0.00037870,-0.00150343,-0.00099009,0.00006033
 ,-0.00018234,-0.00055206,-0.00141168,0.00155153,-0.00506999,0.00132280
 ,0.00959291,-0.02171951,-0.00751688,-0.10964960,0.25971508,-0.00028387
 ,-0.00028051,0.00022966,0.00015531,-0.00013378,0.00004802,-0.00030203,
 -0.00079372,-0.00004845,0.00047655,0.00113504,-0.00120938,-0.00130989,
 0.00045860,0.00043776,0.00089924,0.00062516,-0.00002758,-0.00003182,-0
 .00002283,-0.00014501,-0.00002805,-0.00000283,-0.00004017,0.00012193,0
 .00005201,0.00000804,0.00000381,0.00001701,0.00002850,-0.00004303,0.00
 001816,-0.00012159,-0.00003622,-0.00000897,0.00005222,-0.00000245,0.00
 001655,-0.00001421,0.00001156,0.00002297,0.00000217,-0.00000071,-0.000
 00379,-0.00000062,0.00073359,-0.00572758,0.00022987,0.00005406,0.00005
 250,0.00003360,-0.02868892,0.00414567,0.03572283,-0.05561903,0.0063523
 4,0.05290053,0.00102906,-0.00129860,-0.00632550,0.00028842,0.00019902,
 0.00012977,0.00010896,0.00018320,0.00004766,0.07486724,0.00016497,0.00
 042371,0.00013575,0.00018920,-0.00010103,0.00009664,-0.00009630,-0.000
 26672,-0.00026087,0.00199684,-0.00048679,0.00014345,-0.00137846,0.0007
 4718,-0.00017890,0.00074529,-0.00011404,0.00006353,-0.00000579,0.00000
 427,-0.00004446,-0.00001036,-0.00001070,0.00002172,0.00002101,-0.00001
 230,-0.00003007,0.00001112,0.00002420,0.00002270,-0.00026204,0.0000141
 8,-0.00005642,0.00010792,-0.00004699,-0.00003582,-0.00003184,0.0000033
 9,-0.00000443,-0.00004843,0.00000127,0.00001461,-0.00001999,-0.0000140
 4,0.00000073,-0.00184106,-0.00020021,0.00114115,0.00012261,0.00043272,
 -0.00081687,-0.00172204,0.00189717,0.00374511,0.00438374,-0.04957903,-
 0.01447513,0.00480305,-0.00215263,-0.02891908,0.00039229,-0.00019419,0
 .00041285,-0.00004148,0.00002265,0.00034394,-0.00364044,0.05039590,0.0
 0033375,0.00115048,-0.00011421,0.00031483,-0.00010684,0.00005881,0.000
 02057,0.00041931,-0.00011823,0.00294158,-0.00156497,-0.00070339,-0.001
 59976,0.00086101,0.00050493,0.00058347,-0.00074977,0.00012983,-0.00000
 809,0.00000193,-0.00012347,0.00000783,-0.00001753,0.00004234,-0.000031
 61,-0.00005988,-0.00002008,0.00002829,0.00001527,-0.00000178,-0.000035
 82,0.00002212,-0.00000495,0.00020362,-0.00020837,0.00001004,-0.0000922
 9,0.00000494,-0.00002199,-0.00009530,0.00001703,0.00002721,-0.00003327
 ,-0.00002056,0.00000484,-0.00503095,0.00299440,-0.00082177,0.00042843,
 -0.00002402,-0.00049789,0.01280632,-0.00029584,0.00447781,0.05050513,-
 0.01640535,-0.27590699,0.00042874,-0.00047049,-0.00997404,0.00021174,-
 0.00016559,0.00010469,0.00029482,-0.00023103,0.00027274,-0.06628406,0.
 01865224,0.29839804,-0.00016666,-0.00041491,-0.00004494,-0.00001008,-0
 .00002582,0.00000654,-0.00015739,-0.00045284,0.00004317,-0.00013681,0.
 00178150,0.00065019,-0.00068090,-0.00006088,-0.00015215,0.00031802,0.0
 0049037,-0.00008676,-0.00004182,0.00000285,0.00008908,-0.00002474,0.00
 000973,0.00000969,0.00004468,0.00002052,-0.00003198,0.00000087,0.00000
 148,-0.00001389,-0.00001362,0.00004444,0.00003908,-0.00002204,0.000002
 89,-0.00002857,0.00001153,0.00001183,-0.00000138,0.00000618,0.00000977
 ,0.00000558,0.00000170,-0.00000017,0.00000228,-0.00325361,-0.00331332,
 -0.00200619,-0.00118753,-0.00126140,-0.00092641,-0.02716833,0.02636694
 ,-0.01348757,-0.10331220,0.08290036,-0.06392920,0.00584988,-0.00416120
 ,0.00459923,0.00042514,0.00001871,0.00005400,0.00025983,0.00013392,0.0
 0010715,0.00576053,-0.00435891,0.00350655,0.12311417,0.00040479,0.0005
 1419,-0.00009589,0.00004145,0.00014851,-0.00000883,0.00018429,0.000077
 57,-0.00003013,0.00278394,-0.00067978,0.00068265,-0.00144170,0.0005656
 3,-0.00034320,0.00063247,-0.00047514,0.00002653,-0.00000757,0.00002110
 ,0.00005608,-0.00000150,-0.00001355,0.00001558,0.00001626,-0.00004215,
 -0.00000097,0.00003029,0.00005993,-0.00000905,-0.00023914,0.00009905,0
 .00001494,0.00022623,-0.00013829,-0.00000981,-0.00007899,0.00000271,-0
 .00001683,-0.00008154,0.00000514,0.00002505,-0.00003417,-0.00002182,0.
 00000526,-0.00544646,0.00100442,0.00119979,-0.00122606,-0.00321602,-0.
 00226485,-0.00011151,0.00679323,-0.00659144,0.08650729,-0.18344477,0.1
 0096724,0.01389211,-0.01469801,0.01321009,0.00125840,-0.00076326,0.000
 29100,0.00050104,-0.00030681,0.00023720,-0.00035092,0.00182478,-0.0009
 4120,-0.09801685,0.19235097,0.00014987,0.00018790,-0.00004259,0.000016
 03,0.00007973,-0.00000676,0.00006426,0.00001972,0.00001076,0.00123173,
 -0.00055232,-0.00026556,-0.00049464,0.00023135,0.00022127,0.00028405,-
 0.00019562,0.00002364,0.00000175,0.00000078,-0.00003866,-0.00000060,-0
 .00000508,0.00000023,0.00000491,-0.00000953,-0.00000432,0.00001988,0.0
 0003033,-0.00000431,-0.00006808,0.00004673,-0.00000919,0.00009402,-0.0
 0006576,0.00002147,-0.00003743,0.00000072,-0.00001018,-0.00003026,0.00
 000665,0.00000895,-0.00001374,-0.00000867,0.00000239,-0.00042562,-0.00
 045975,-0.00068537,0.00037843,-0.00229502,0.00006119,0.00431160,-0.005
 67807,0.00471577,-0.07057333,0.10204804,-0.12249793,0.00750428,-0.0085
 5156,0.00565666,0.00040455,-0.00030093,0.00004632,0.00045862,-0.000262
 96,0.00005299,-0.01396108,0.02219283,-0.01756575,0.07083362,-0.1063045
 7,0.12843463,-0.00002995,0.00006850,0.00000202,0.00002645,-0.00010924,
 -0.00002874,-0.00013152,0.00003015,0.00014823,-0.00039201,-0.00030047,
 0.00019814,-0.00002845,0.00003657,-0.00003414,0.00003207,0.00001425,-0
 .00000190,-0.00000730,-0.00000027,0.00000258,-0.00001298,-0.00000051,-
 0.00002397,0.00000266,0.00000437,0.00000536,0.00003925,-0.00003358,-0.
 00002159,0.00000059,-0.00001711,0.00000439,-0.00001325,-0.00000021,0.0
 0000329,-0.00000058,0.00000289,-0.00000226,0.00000224,0.00000206,-0.00
 000002,0.00000053,0.,-0.00000031,0.00082528,0.00127994,-0.00051655,-0.
 00519302,0.00254239,-0.02739908,-0.00014473,-0.00031970,0.00004232,-0.
 00028057,0.00105109,-0.00273230,-0.05660790,-0.00246157,-0.03476751,0.
 00190991,-0.00040542,0.00018695,-0.00419672,0.00140149,-0.00149671,0.0
 0069782,0.00032477,0.00022634,0.00033061,0.00010081,0.00044994,0.05794
 058,0.00015370,-0.00015651,0.00000734,-0.00010909,0.00018972,-0.000041
 00,0.00010043,-0.00006929,0.00000247,0.00077228,0.00013486,-0.00008511
 ,-0.00016360,0.00001526,0.00006519,0.00007444,-0.00003757,-0.00000386,
 0.00000123,0.00000437,-0.00001656,0.00000089,-0.00000203,0.00001278,0.
 00000946,0.00000488,0.00001086,-0.00002518,0.00003389,0.00001505,-0.00
 015383,0.00005666,0.00000317,0.00007292,0.00000876,-0.00000603,-0.0000
 1276,-0.00000712,0.00000054,-0.00001276,-0.00000761,0.00000207,-0.0000
 0917,-0.00000523,0.00000106,-0.00144775,-0.00096883,0.00028928,0.00433
 900,-0.00171592,0.01589399,0.00194881,0.00009980,-0.00051414,-0.004344
 89,-0.00154311,-0.03218327,-0.00227646,-0.04764467,0.01070344,-0.00076
 493,0.00051789,0.00021658,0.00373780,-0.00064995,0.00115759,-0.0017443
 1,-0.00480245,-0.00273311,0.00049033,0.00180626,0.00010882,-0.00327206
 ,0.05478266,0.00003392,0.00001659,0.00000439,0.00002113,-0.00003085,-0
 .00000449,-0.00012168,-0.00010473,0.00004501,0.00036526,-0.00020592,-0
 .00011177,-0.00029128,0.00017084,0.00001574,0.00016928,0.00001129,-0.0
 0000084,-0.00000851,0.00000174,-0.00000945,-0.00001198,-0.00000126,-0.
 00000391,0.00001231,0.00000162,-0.00000626,0.00001921,-0.00002234,-0.0
 0000166,-0.00008217,0.00001367,-0.00000246,0.00002986,-0.00000276,-0.0
 0000007,-0.00000884,-0.00000061,-0.00000148,-0.00000845,-0.00000009,0.
 00000254,-0.00000588,-0.00000356,0.00000043,-0.00046830,0.00033046,-0.
 00007707,-0.00046101,0.00105232,-0.00422568,-0.00022441,-0.00027297,0.
 00017946,0.00018631,-0.00043910,-0.01056261,-0.03650951,0.00914088,-0.
 30871114,0.00021042,0.00002196,0.00145697,-0.00124995,0.00005769,0.001
 00260,-0.00077557,-0.00226758,0.00044144,0.00025568,0.00019248,0.00145
 427,0.04068585,-0.00811826,0.33143018,0.00009652,-0.00004692,0.0000137
 7,0.00002438,-0.00016518,0.00006000,-0.00060611,-0.00009983,0.00001575
 ,0.00055691,-0.00143132,-0.00026987,-0.00053574,0.00025852,-0.00000598
 ,0.00033887,0.00008471,-0.00001704,-0.00002176,0.00000540,-0.00001045,
 -0.00005178,0.00000324,-0.00000209,0.00002161,0.00000263,-0.00001826,0
 .00006937,-0.00004110,0.00002696,-0.00025503,0.00003277,-0.00000670,0.
 00006267,0.00002682,-0.00000281,-0.00001284,-0.00000574,-0.00000076,-0
 .00001270,-0.00000600,0.00000287,-0.00001223,-0.00000707,0.00000064,-0
 .00417042,0.00281560,-0.00031875,-0.01776908,-0.01214170,0.00963073,-0
 .00033932,-0.00031561,0.00000183,-0.00064765,0.00067498,0.00053087,-0.
 21216128,-0.09806532,0.09117053,-0.00088342,0.00032854,-0.00001910,0.0
 0195297,-0.00055617,0.00010848,0.00065917,0.00009461,-0.00029462,-0.00
 036897,-0.00025855,-0.00018977,0.00525373,0.00291455,-0.00157172,0.228
 78593,0.00001269,0.00001874,-0.00000091,0.00003031,0.00013178,-0.00002
 450,0.00018472,-0.00019562,0.00001522,0.00049878,0.00090954,0.00006651
 ,-0.00022491,0.00009379,0.00004324,0.00009517,-0.00001328,0.00000549,0
 .00000104,0.00000026,-0.00000410,0.00002152,-0.00000494,-0.00000452,0.
 00002000,0.00005051,-0.00000887,-0.00003496,0.00001831,-0.00001937,-0.
 00000334,0.00002160,-0.00000475,0.00002095,-0.00002575,0.00000166,-0.0
 0001021,0.00000377,-0.00000406,-0.00000746,0.00000426,0.00000365,-0.00
 000295,-0.00000257,0.00000141,0.00252959,-0.00293941,0.00003355,0.0137
 5965,0.00860393,-0.00672477,-0.00140011,-0.00582700,-0.00185316,-0.021
 99508,-0.00987285,0.01372906,-0.09773419,-0.10530534,0.05310902,0.0002
 1677,-0.00034651,-0.00018344,-0.00083678,0.00101825,-0.00042440,0.0002
 2027,0.00198789,0.00013835,0.00016227,-0.00108876,-0.00022270,0.000134
 87,0.00009217,0.00045703,0.10581471,0.11217243,-0.00000607,0.00001791,
 -0.00000036,0.00001579,-0.00005404,0.00000184,-0.00026807,-0.00005974,
 0.00005919,0.00016513,-0.00047071,-0.00000946,-0.00021551,0.00008974,-
 0.00001485,0.00013011,0.00003064,-0.00000550,-0.00000630,0.00000069,-0
 .00000197,-0.00001590,-0.00000066,-0.00000621,0.00001245,0.00003157,-0
 .00000575,0.00001298,0.00000259,0.00000465,-0.00002136,0.00001259,0.00
 000188,0.00001420,-0.00001266,0.00000080,-0.00000698,0.00000224,-0.000
 00332,-0.00000548,0.00000194,0.00000285,-0.00000297,-0.00000192,0.0000
 0046,-0.00211579,-0.00047165,0.00017267,-0.00659581,-0.00344507,0.0020
 9106,-0.00226435,-0.00292388,-0.00032157,-0.00973660,-0.00528239,0.004
 04116,0.09586846,0.05623498,-0.10221234,0.00005058,-0.00001689,0.00016
 529,-0.00001813,-0.00052627,0.00106223,-0.00036337,0.00049601,0.001104
 44,0.00007132,-0.00021452,0.00019505,0.02495068,0.01473500,-0.01230757
 ,-0.09886103,-0.05817141,0.10578080,-0.00051429,-0.00073372,-0.0001819
 6,-0.00026396,-0.00060954,-0.00043187,-0.00028966,0.00052388,-0.000264
 70,0.00336555,-0.00022025,0.00034842,-0.00233513,0.00106805,0.00018733
 ,0.00198656,0.00071415,-0.00007256,0.00001803,-0.00002835,-0.00011365,
 -0.00000958,0.00002261,0.00006100,-0.00582098,-0.00064840,0.00199853,0
 .00004624,-0.00007601,0.00004559,0.00064007,-0.00000853,0.00031039,-0.
 00012048,-0.00018234,-0.00008109,0.00001000,0.00005380,-0.00001055,-0.
 00000100,0.00004629,0.00002032,0.00001383,0.00000357,0.00000569,0.0124
 2910,0.01643589,0.00481957,-0.00246789,0.00374585,-0.00097415,-0.13804
 253,-0.14078523,-0.03624668,-0.00227966,-0.02458386,-0.00927783,-0.005
 76107,-0.00065843,0.00151153,0.00064756,0.00033073,0.00003296,0.000515
 90,0.00026973,0.00030419,0.00047877,0.00009971,0.00066378,0.00042155,0
 .00071556,-0.00041298,-0.00002276,-0.00027906,-0.00018997,0.00002622,-
 0.00147330,-0.00078799,0.13732961,-0.00043489,0.00013169,-0.00037052,0
 .00032054,0.00008806,-0.00027655,-0.00037306,-0.00137708,0.00002306,0.
 00335000,-0.00033781,0.00074227,-0.00293295,0.00122350,0.00006722,0.00
 188309,0.00022034,0.00002793,-0.00002760,-0.00000809,-0.00007310,-0.00
 003059,0.00001305,0.00011969,-0.00068795,0.00032646,-0.00031307,0.0000
 1573,0.00003778,-0.00002644,0.00035244,0.00021878,0.00031570,0.0001427
 4,-0.00037140,-0.00012204,-0.00008744,0.00006615,-0.00003871,-0.000101
 27,0.00006178,0.00006561,-0.00002900,-0.00001942,0.00001339,-0.0163792
 3,-0.01612381,-0.00373988,0.00230673,-0.00047474,-0.00347653,-0.135746
 59,-0.34612610,-0.08649412,0.00038215,0.00509194,0.00181482,0.00187967
 ,0.00058044,-0.00030301,-0.00059485,-0.00113056,0.00027879,0.00039756,
 -0.00010193,0.00030516,0.00050978,0.00020182,-0.00028255,-0.00038162,-
 0.00038515,-0.00004107,-0.00007404,-0.00013688,0.00000148,0.00008345,0
 .00049482,-0.00000409,0.14625721,0.35783638,-0.00001570,0.00028989,0.0
 0031727,-0.00043539,0.00049669,-0.00001920,0.00067077,-0.00010000,-0.0
 0008668,-0.00165700,-0.00023985,-0.00087151,0.00085114,-0.00068856,-0.
 00041320,-0.00072316,-0.00039437,0.00001657,-0.00000332,-0.00000313,0.
 00004492,0.00000573,-0.00001004,-0.00015800,0.00135445,-0.00010531,-0.
 00031047,-0.00000534,0.00000579,-0.00000427,0.00046725,0.00000121,-0.0
 0025368,-0.00001008,-0.00012974,0.00016917,-0.00003514,0.00000902,-0.0
 0003716,0.00000049,0.00001813,-0.00000600,0.00000520,0.00000504,-0.000
 00985,0.00143260,0.00424031,-0.00323762,-0.00010872,0.00087656,0.00572
 429,-0.04291652,-0.10146514,-0.03013010,0.00209529,0.00640932,-0.00170
 411,0.00024593,-0.00079094,0.00118583,0.00071430,0.00037676,-0.0002881
 6,-0.00069684,-0.00062486,-0.00088021,-0.00055403,-0.00039361,0.000297
 36,0.00043588,-0.00009259,0.00022503,0.00011899,0.00047611,-0.00000656
 ,0.00002651,0.00004678,0.00020452,0.03873669,0.09178654,0.03023183\\-0
 .00000056,-0.00000041,-0.00000135,0.00000076,-0.00000207,-0.00000373,-
 0.00000034,0.00000053,-0.00000248,-0.00000283,-0.00000001,-0.00000039,
 -0.00000191,-0.00000057,0.00000238,-0.00000122,-0.00000149,0.00000166,
 -0.00000139,-0.00000104,0.00000276,0.00000106,-0.00000196,-0.00000550,
 0.00000165,-0.00000209,-0.00000508,-0.00000147,0.00000063,0.00000459,0
 .00000042,-0.00000253,-0.00000200,0.00000021,-0.00000346,-0.00000494,-
 0.00000013,-0.00000482,-0.00000587,0.00000147,-0.00000141,-0.00000613,
 0.00000009,-0.00000373,-0.00000481,0.00000280,0.00000105,0.00000163,-0
 .00000082,0.00000147,0.00000527,0.00000274,0.00000093,-0.00000037,0.00
 000053,0.00000277,0.00000044,-0.00000056,0.00000182,0.00000342,-0.0000
 0070,-0.00000033,0.00000544,-0.00000025,0.00000344,0.00000515,0.000001
 76,0.00000495,0.00000118,0.00000068,0.00000217,0.00000017,-0.00000139,
 -0.00000029,0.00000409,-0.00000054,0.00000328,0.00000560,-0.00000003,0
 .00000319,-0.00000115\\\@
 The archive entry for this job was punched.


 A true friend is someone who is there for
 you when he'd rather be anywhere else.
                               -- Len Wein
 Job cpu time:       0 days  1 hours 23 minutes 31.6 seconds.
 Elapsed time:       0 days  1 hours 24 minutes  6.2 seconds.
 File lengths (MBytes):  RWF=    869 Int=      0 D2E=      0 Chk=     27 Scr=      1
 Normal termination of Gaussian 16 at Wed Aug 12 17:32:36 2026.
 Initial command:
 /opt/packages/gaussian/g16RevC.01/g16/l1.exe "/ocean/projects/che200051p/zlab/tmp/Gau-94681.inp" -scrdir="/ocean/projects/che200051p/zlab/tmp/"
 Entering Link 1 = /opt/packages/gaussian/g16RevC.01/g16/l1.exe PID=      6641.
  
 Copyright (c) 1988-2019, Gaussian, Inc.  All Rights Reserved.
  
 This is part of the Gaussian(R) 16 program.  It is based on
 the Gaussian(R) 09 system (copyright 2009, Gaussian, Inc.),
 the Gaussian(R) 03 system (copyright 2003, Gaussian, Inc.),
 the Gaussian(R) 98 system (copyright 1998, Gaussian, Inc.),
 the Gaussian(R) 94 system (copyright 1995, Gaussian, Inc.),
 the Gaussian 92(TM) system (copyright 1992, Gaussian, Inc.),
 the Gaussian 90(TM) system (copyright 1990, Gaussian, Inc.),
 the Gaussian 88(TM) system (copyright 1988, Gaussian, Inc.),
 the Gaussian 86(TM) system (copyright 1986, Carnegie Mellon
 University), and the Gaussian 82(TM) system (copyright 1983,
 Carnegie Mellon University). Gaussian is a federally registered
 trademark of Gaussian, Inc.
  
 This software contains proprietary and confidential information,
 including trade secrets, belonging to Gaussian, Inc.
  
 This software is provided under written license and may be
 used, copied, transmitted, or stored only in accord with that
 written license.
  
 The following legend is applicable only to US Government
 contracts under FAR:
  
                    RESTRICTED RIGHTS LEGEND
  
 Use, reproduction and disclosure by the US Government is
 subject to restrictions as set forth in subparagraphs (a)
 and (c) of the Commercial Computer Software - Restricted
 Rights clause in FAR 52.227-19.
  
 Gaussian, Inc.
 340 Quinnipiac St., Bldg. 40, Wallingford CT 06492
  
  
 ---------------------------------------------------------------
 Warning -- This program may not be used in any manner that
 competes with the business of Gaussian, Inc. or will provide
 assistance to any competitor of Gaussian, Inc.  The licensee
 of this program is prohibited from giving any competitor of
 Gaussian, Inc. access to this program.  By using this program,
 the user acknowledges that Gaussian, Inc. is engaged in the
 business of creating and licensing software in the field of
 computational chemistry and represents and warrants to the
 licensee that it is not a competitor of Gaussian, Inc. and that
 it will not use this program in any manner prohibited above.
 ---------------------------------------------------------------
  

 Cite this work as:
 Gaussian 16, Revision C.01,
 M. J. Frisch, G. W. Trucks, H. B. Schlegel, G. E. Scuseria, 
 M. A. Robb, J. R. Cheeseman, G. Scalmani, V. Barone, 
 G. A. Petersson, H. Nakatsuji, X. Li, M. Caricato, A. V. Marenich, 
 J. Bloino, B. G. Janesko, R. Gomperts, B. Mennucci, H. P. Hratchian, 
 J. V. Ortiz, A. F. Izmaylov, J. L. Sonnenberg, D. Williams-Young, 
 F. Ding, F. Lipparini, F. Egidi, J. Goings, B. Peng, A. Petrone, 
 T. Henderson, D. Ranasinghe, V. G. Zakrzewski, J. Gao, N. Rega, 
 G. Zheng, W. Liang, M. Hada, M. Ehara, K. Toyota, R. Fukuda, 
 J. Hasegawa, M. Ishida, T. Nakajima, Y. Honda, O. Kitao, H. Nakai, 
 T. Vreven, K. Throssell, J. A. Montgomery, Jr., J. E. Peralta, 
 F. Ogliaro, M. J. Bearpark, J. J. Heyd, E. N. Brothers, K. N. Kudin, 
 V. N. Staroverov, T. A. Keith, R. Kobayashi, J. Normand, 
 K. Raghavachari, A. P. Rendell, J. C. Burant, S. S. Iyengar, 
 J. Tomasi, M. Cossi, J. M. Millam, M. Klene, C. Adamo, R. Cammi, 
 J. W. Ochterski, R. L. Martin, K. Morokuma, O. Farkas, 
 J. B. Foresman, and D. J. Fox, Gaussian, Inc., Wallingford CT, 2019.
 
 ******************************************
 Gaussian 16:  ES64L-G16RevC.01  3-Jul-2019
                12-Aug-2026 
 ******************************************
 %chk=mono_s1_planar_opt.chk
 ----------------------------------------------------------------------
 #p TD(NStates=10) B3LYP/6-31+G(d) Geom=AllCheck SCRF=(SMD,Solvent=Meth
 anol)
 ----------------------------------------------------------------------
 1/29=7,38=1,172=1/1;
 2/12=2,40=1/2;
 3/5=1,6=6,7=11,11=9,14=-4,25=1,30=1,70=32201,72=3,74=-5/1,2,3,8;
 4//1;
 5/5=2,38=5,53=3/2;
 8/6=1,10=2,108=10/1;
 9/41=10,42=1,70=2/14;
 6/7=2,8=2,9=2,10=2/1;
 99/5=1,9=1/99;
 Leave Link    1 at Wed Aug 12 17:32:36 2026, MaxMem=           0 cpu:               0.0 elap:               0.1
 (Enter /opt/packages/gaussian/g16RevC.01/g16/l101.exe)
 Structure from the checkpoint file:  "mono_s1_planar_opt.chk"
 -----------------------------
 S1 excited-state optimization
 -----------------------------
 Charge =  1 Multiplicity = 1
 Redundant internal coordinates found in file.  (old form).
 C,0,-2.4928649682,0.2446072153,-0.0252095779
 C,0,-1.8680188834,-1.0194983461,0.0896196653
 C,0,-0.4886075978,-1.0953831945,0.1052990603
 C,0,0.3350110677,0.0918971167,-0.010543098
 C,0,-0.3198452789,1.3531308111,-0.1310968885
 C,0,-1.6965893469,1.4346072496,-0.1310668316
 H,0,-2.2060878177,2.3899613184,-0.212140934
 H,0,-2.458813538,-1.9256904981,0.1639275626
 H,0,-0.0249323326,-2.0702008447,0.2135530609
 H,0,0.267021877,2.2607901411,-0.2231017384
 O,0,-3.8142946356,0.4515057992,-0.0501651531
 C,0,-4.729751087,-0.6551647782,0.059530721
 H,0,-4.5735794004,-1.1757979466,1.0105365569
 H,0,-4.5861900213,-1.342951195,-0.7811001926
 H,0,-5.7230548805,-0.2089920938,0.0241527607
 C,0,1.7753179982,0.0261759761,-0.0164730739
 C,0,2.7496541506,1.1657698159,0.0259203798
 N,0,2.4543946844,-1.1510339616,-0.0792020951
 C,0,3.8973809398,-0.9623972664,-0.2022791432
 C,0,4.0939881773,0.4641374925,0.3359914635
 H,0,2.4835105285,1.9236942703,0.7717139251
 H,0,2.7817159465,1.6781661039,-0.950650396
 H,0,4.1919465412,-1.0455075241,-1.2618051185
 H,0,4.4346784018,-1.735606332,0.3569393746
 H,0,4.2567462736,0.431526956,1.4189933442
 H,0,4.9490296385,0.9631847328,-0.126525923
 H,0,2.0191435631,-2.0356710177,-0.3268077113
 Recover connectivity data from disk.
 ITRead=  0  0  0  0  0  0  0  0  0  0  0  0  0  0  0  0  0  0  0  0
 ITRead=  0  0  0  0  0  0  0
 MicOpt= -1 -1 -1 -1 -1 -1 -1 -1 -1 -1 -1 -1 -1 -1 -1 -1 -1 -1 -1 -1
 MicOpt= -1 -1 -1 -1 -1 -1 -1
                           ----------------------------
                           !    Current Parameters    !
                           ! (Angstroms and Degrees)  !
 --------------------------                            --------------------------
 ! Name  Definition              Value                                          !
 --------------------------------------------------------------------------------
 ! R1    R(1,2)                  1.4148                                         !
 ! R2    R(1,6)                  1.4357                                         !
 ! R3    R(1,11)                 1.3378                                         !
 ! R4    R(2,3)                  1.3816                                         !
 ! R5    R(2,8)                  1.0843                                         !
 ! R6    R(3,4)                  1.4496                                         !
 ! R7    R(3,9)                  1.0849                                         !
 ! R8    R(4,5)                  1.4262                                         !
 ! R9    R(4,16)                 1.4418                                         !
 ! R10   R(5,6)                  1.3792                                         !
 ! R11   R(5,10)                 1.0848                                         !
 ! R12   R(6,7)                  1.0858                                         !
 ! R13   R(11,12)                1.4404                                         !
 ! R14   R(12,13)                1.0954                                         !
 ! R15   R(12,14)                1.0956                                         !
 ! R16   R(12,15)                1.0895                                         !
 ! R17   R(16,17)                1.4999                                         !
 ! R18   R(16,18)                1.3605                                         !
 ! R19   R(17,20)                1.5478                                         !
 ! R20   R(17,21)                1.0961                                         !
 ! R21   R(17,22)                1.1033                                         !
 ! R22   R(18,19)                1.4605                                         !
 ! R23   R(18,27)                1.0165                                         !
 ! R24   R(19,20)                1.5373                                         !
 ! R25   R(19,23)                1.1028                                         !
 ! R26   R(19,24)                1.0951                                         !
 ! R27   R(20,25)                1.0956                                         !
 ! R28   R(20,26)                1.0927                                         !
 ! A1    A(2,1,6)              120.1064                                         !
 ! A2    A(2,1,11)             125.1676                                         !
 ! A3    A(6,1,11)             114.7256                                         !
 ! A4    A(1,2,3)              119.4038                                         !
 ! A5    A(1,2,8)              120.7736                                         !
 ! A6    A(3,2,8)              119.8226                                         !
 ! A7    A(2,3,4)              121.4245                                         !
 ! A8    A(2,3,9)              118.5032                                         !
 ! A9    A(4,3,9)              120.0712                                         !
 ! A10   A(3,4,5)              118.045                                          !
 ! A11   A(3,4,16)             122.0434                                         !
 ! A12   A(5,4,16)             119.91                                           !
 ! A13   A(4,5,6)              120.7036                                         !
 ! A14   A(4,5,10)             119.9142                                         !
 ! A15   A(6,5,10)             119.3821                                         !
 ! A16   A(1,6,5)              120.3098                                         !
 ! A17   A(1,6,7)              118.3298                                         !
 ! A18   A(5,6,7)              121.3603                                         !
 ! A19   A(1,11,12)            120.5003                                         !
 ! A20   A(11,12,13)           109.9181                                         !
 ! A21   A(11,12,14)           109.9138                                         !
 ! A22   A(11,12,15)           105.2084                                         !
 ! A23   A(13,12,14)           110.4317                                         !
 ! A24   A(13,12,15)           110.6603                                         !
 ! A25   A(14,12,15)           110.5879                                         !
 ! A26   A(4,16,17)            127.8907                                         !
 ! A27   A(4,16,18)            122.5648                                         !
 ! A28   A(17,16,18)           109.541                                          !
 ! A29   A(16,17,20)           103.0293                                         !
 ! A30   A(16,17,21)           112.7588                                         !
 ! A31   A(16,17,22)           110.2862                                         !
 ! A32   A(20,17,21)           112.8319                                         !
 ! A33   A(20,17,22)           111.2605                                         !
 ! A34   A(21,17,22)           106.7482                                         !
 ! A35   A(16,18,19)           112.6621                                         !
 ! A36   A(16,18,27)           123.4034                                         !
 ! A37   A(19,18,27)           120.9926                                         !
 ! A38   A(18,19,20)           102.5156                                         !
 ! A39   A(18,19,23)           109.5804                                         !
 ! A40   A(18,19,24)           110.5199                                         !
 ! A41   A(20,19,23)           111.8482                                         !
 ! A42   A(20,19,24)           114.4329                                         !
 ! A43   A(23,19,24)           107.8386                                         !
 ! A44   A(17,20,19)           103.8523                                         !
 ! A45   A(17,20,25)           109.9094                                         !
 ! A46   A(17,20,26)           112.8178                                         !
 ! A47   A(19,20,25)           109.7228                                         !
 ! A48   A(19,20,26)           112.0646                                         !
 ! A49   A(25,20,26)           108.4053                                         !
 ! D1    D(6,1,2,3)              0.3136                                         !
 ! D2    D(6,1,2,8)           -179.6124                                         !
 ! D3    D(11,1,2,3)          -179.9049                                         !
 ! D4    D(11,1,2,8)             0.1691                                         !
 ! D5    D(2,1,6,5)              0.4598                                         !
 ! D6    D(2,1,6,7)           -179.6555                                         !
 ! D7    D(11,1,6,5)          -179.3435                                         !
 ! D8    D(11,1,6,7)             0.5412                                         !
 ! D9    D(2,1,11,12)            0.7615                                         !
 ! D10   D(6,1,11,12)         -179.4467                                         !
 ! D11   D(1,2,3,4)             -0.7949                                         !
 ! D12   D(1,2,3,9)            178.8132                                         !
 ! D13   D(8,2,3,4)            179.1318                                         !
 ! D14   D(8,2,3,9)             -1.2601                                         !
 ! D15   D(2,3,4,5)              0.5137                                         !
 ! D16   D(2,3,4,16)          -179.0238                                         !
 ! D17   D(9,3,4,5)           -179.0883                                         !
 ! D18   D(9,3,4,16)             1.3741                                         !
 ! D19   D(3,4,5,6)              0.2709                                         !
 ! D20   D(3,4,5,10)          -179.7868                                         !
 ! D21   D(16,4,5,6)           179.8187                                         !
 ! D22   D(16,4,5,10)           -0.239                                          !
 ! D23   D(3,4,16,17)         -172.5025                                         !
 ! D24   D(3,4,16,18)            8.247                                          !
 ! D25   D(5,4,16,17)            7.9683                                         !
 ! D26   D(5,4,16,18)         -171.2821                                         !
 ! D27   D(4,5,6,1)             -0.744                                          !
 ! D28   D(4,5,6,7)            179.3749                                         !
 ! D29   D(10,5,6,1)           179.3134                                         !
 ! D30   D(10,5,6,7)            -0.5676                                         !
 ! D31   D(1,11,12,13)          60.1303                                         !
 ! D32   D(1,11,12,14)         -61.6177                                         !
 ! D33   D(1,11,12,15)         179.3002                                         !
 ! D34   D(4,16,17,20)         166.9523                                         !
 ! D35   D(4,16,17,21)          45.015                                          !
 ! D36   D(4,16,17,22)         -74.2094                                         !
 ! D37   D(18,16,17,20)        -13.718                                          !
 ! D38   D(18,16,17,21)       -135.6553                                         !
 ! D39   D(18,16,17,22)        105.1203                                         !
 ! D40   D(4,16,18,19)         174.4533                                         !
 ! D41   D(4,16,18,27)          13.7586                                         !
 ! D42   D(17,16,18,19)         -4.919                                          !
 ! D43   D(17,16,18,27)       -165.6137                                         !
 ! D44   D(16,17,20,19)         25.7548                                         !
 ! D45   D(16,17,20,25)        -91.5668                                         !
 ! D46   D(16,17,20,26)        147.3223                                         !
 ! D47   D(21,17,20,19)        147.6427                                         !
 ! D48   D(21,17,20,25)         30.3211                                         !
 ! D49   D(21,17,20,26)        -90.7899                                         !
 ! D50   D(22,17,20,19)        -92.4028                                         !
 ! D51   D(22,17,20,25)        150.2755                                         !
 ! D52   D(22,17,20,26)         29.1646                                         !
 ! D53   D(16,18,19,20)         21.4039                                         !
 ! D54   D(16,18,19,23)        -97.5144                                         !
 ! D55   D(16,18,19,24)        143.7807                                         !
 ! D56   D(27,18,19,20)       -177.3773                                         !
 ! D57   D(27,18,19,23)         63.7044                                         !
 ! D58   D(27,18,19,24)        -55.0005                                         !
 ! D59   D(18,19,20,17)        -28.2933                                         !
 ! D60   D(18,19,20,25)         89.158                                          !
 ! D61   D(18,19,20,26)       -150.3622                                         !
 ! D62   D(23,19,20,17)         89.0199                                         !
 ! D63   D(23,19,20,25)       -153.5288                                         !
 ! D64   D(23,19,20,26)        -33.0489                                         !
 ! D65   D(24,19,20,17)       -147.9785                                         !
 ! D66   D(24,19,20,25)        -30.5271                                         !
 ! D67   D(24,19,20,26)         89.9527                                         !
 --------------------------------------------------------------------------------
 NAtoms=     27 NQM=       27 NQMF=       0 NMMI=      0 NMMIF=      0
                NMic=       0 NMicF=      0.
                    Isotopes and Nuclear Properties:
 (Nuclear quadrupole moments (NQMom) in fm**2, nuclear magnetic moments (NMagM)
  in nuclear magnetons)

  Atom         1           2           3           4           5           6           7           8           9          10
 IAtWgt=          12          12          12          12          12          12           1           1           1           1
 AtmWgt=  12.0000000  12.0000000  12.0000000  12.0000000  12.0000000  12.0000000   1.0078250   1.0078250   1.0078250   1.0078250
 NucSpn=           0           0           0           0           0           0           1           1           1           1
 AtZEff=   3.6000000   3.6000000   3.6000000   3.6000000   3.6000000   3.6000000   1.0000000   1.0000000   1.0000000   1.0000000
 NQMom=    0.0000000   0.0000000   0.0000000   0.0000000   0.0000000   0.0000000   0.0000000   0.0000000   0.0000000   0.0000000
 NMagM=    0.0000000   0.0000000   0.0000000   0.0000000   0.0000000   0.0000000   2.7928460   2.7928460   2.7928460   2.7928460
 AtZNuc=   6.0000000   6.0000000   6.0000000   6.0000000   6.0000000   6.0000000   1.0000000   1.0000000   1.0000000   1.0000000

  Atom        11          12          13          14          15          16          17          18          19          20
 IAtWgt=          16          12           1           1           1          12          12          14          12          12
 AtmWgt=  15.9949146  12.0000000   1.0078250   1.0078250   1.0078250  12.0000000  12.0000000  14.0030740  12.0000000  12.0000000
 NucSpn=           0           0           1           1           1           0           0           2           0           0
 AtZEff=   5.6000000   3.6000000   1.0000000   1.0000000   1.0000000   3.6000000   3.6000000   4.5500000   3.6000000   3.6000000
 NQMom=    0.0000000   0.0000000   0.0000000   0.0000000   0.0000000   0.0000000   0.0000000   2.0440000   0.0000000   0.0000000
 NMagM=    0.0000000   0.0000000   2.7928460   2.7928460   2.7928460   0.0000000   0.0000000   0.4037610   0.0000000   0.0000000
 AtZNuc=   8.0000000   6.0000000   1.0000000   1.0000000   1.0000000   6.0000000   6.0000000   7.0000000   6.0000000   6.0000000

  Atom        21          22          23          24          25          26          27
 IAtWgt=           1           1           1           1           1           1           1
 AtmWgt=   1.0078250   1.0078250   1.0078250   1.0078250   1.0078250   1.0078250   1.0078250
 NucSpn=           1           1           1           1           1           1           1
 AtZEff=   1.0000000   1.0000000   1.0000000   1.0000000   1.0000000   1.0000000   1.0000000
 NQMom=    0.0000000   0.0000000   0.0000000   0.0000000   0.0000000   0.0000000   0.0000000
 NMagM=    2.7928460   2.7928460   2.7928460   2.7928460   2.7928460   2.7928460   2.7928460
 AtZNuc=   1.0000000   1.0000000   1.0000000   1.0000000   1.0000000   1.0000000   1.0000000
 Leave Link  101 at Wed Aug 12 17:32:36 2026, MaxMem=   104857600 cpu:               0.1 elap:               0.1
 (Enter /opt/packages/gaussian/g16RevC.01/g16/l202.exe)
                          Input orientation:                          
 ---------------------------------------------------------------------
 Center     Atomic      Atomic             Coordinates (Angstroms)
 Number     Number       Type             X           Y           Z
 ---------------------------------------------------------------------
      1          6           0       -2.492865    0.244607   -0.025210
      2          6           0       -1.868019   -1.019498    0.089620
      3          6           0       -0.488608   -1.095383    0.105299
      4          6           0        0.335011    0.091897   -0.010543
      5          6           0       -0.319845    1.353131   -0.131097
      6          6           0       -1.696589    1.434607   -0.131067
      7          1           0       -2.206088    2.389961   -0.212141
      8          1           0       -2.458814   -1.925690    0.163928
      9          1           0       -0.024932   -2.070201    0.213553
     10          1           0        0.267022    2.260790   -0.223102
     11          8           0       -3.814295    0.451506   -0.050165
     12          6           0       -4.729751   -0.655165    0.059531
     13          1           0       -4.573579   -1.175798    1.010537
     14          1           0       -4.586190   -1.342951   -0.781100
     15          1           0       -5.723055   -0.208992    0.024153
     16          6           0        1.775318    0.026176   -0.016473
     17          6           0        2.749654    1.165770    0.025920
     18          7           0        2.454395   -1.151034   -0.079202
     19          6           0        3.897381   -0.962397   -0.202279
     20          6           0        4.093988    0.464137    0.335991
     21          1           0        2.483511    1.923694    0.771714
     22          1           0        2.781716    1.678166   -0.950650
     23          1           0        4.191947   -1.045508   -1.261805
     24          1           0        4.434678   -1.735606    0.356939
     25          1           0        4.256746    0.431527    1.418993
     26          1           0        4.949030    0.963185   -0.126526
     27          1           0        2.019144   -2.035671   -0.326808
 ---------------------------------------------------------------------
                    Distance matrix (angstroms):
                    1          2          3          4          5
     1  C    0.000000
     2  C    1.414773   0.000000
     3  C    2.414468   1.381586   0.000000
     4  C    2.832034   2.469529   1.449621   0.000000
     5  C    2.441731   2.841642   2.465681   1.426212   0.000000
     6  C    1.435744   2.469965   2.813528   2.438195   1.379153
     7  H    2.172494   3.439443   3.898478   3.432044   2.153949
     8  H    2.178790   1.084317   2.138822   3.450588   3.925926
     9  H    3.392055   2.125160   1.084889   2.203281   3.453253
    10  H    3.423614   3.926383   3.455824   2.180344   1.084769
    11  O    1.337762   2.443641   3.671135   4.165048   3.609800
    12  C    2.412557   2.884988   4.264175   5.120042   4.849418
    13  H    2.723911   2.862267   4.184844   5.171452   5.078687
    14  H    2.733811   2.872495   4.199664   5.183702   5.088522
    15  H    3.262256   3.939862   5.309587   6.065633   5.626633
    16  C    4.273778   3.791912   2.529443   1.441818   2.482671
    17  C    5.323078   5.109047   3.950374   2.642921   3.079218
    18  N    5.140633   4.327709   2.949305   2.457922   3.737639
    19  C    6.505648   5.773067   4.398771   3.720051   4.811625
    20  C    6.600401   6.148772   4.846185   3.793225   4.526633
    21  H    5.312131   5.297494   4.288639   2.929754   2.999902
    22  H    5.543711   5.475362   4.416177   3.063726   3.224438
    23  H    6.919557   6.208881   4.876377   4.211330   5.233377
    24  H    7.215133   6.348879   4.971112   4.503564   5.690692
    25  H    6.904919   6.433153   5.155156   4.187951   4.919078
    26  H    7.477193   7.102809   5.818878   4.696995   5.283287
    27  H    5.064469   4.039313   2.712872   2.731826   4.122275
                    6          7          8          9         10
     6  C    0.000000
     7  H    1.085755   0.000000
     8  H    3.458267   4.339372   0.000000
     9  H    3.898318   4.983142   2.438673   0.000000
    10  H    2.132327   2.476505   5.010648   4.362727   0.000000
    11  O    2.336174   2.523921   2.744855   4.559366   4.467724
    12  C    3.688298   3.964275   2.604283   4.915422   5.792272
    13  H    4.049018   4.451359   2.398191   4.703757   6.063285
    14  H    4.060439   4.463545   2.399665   4.724754   6.070583
    15  H    4.351774   4.379435   3.690781   5.997380   6.483979
    16  C    3.748460   4.634367   4.665854   2.772834   2.703914
    17  C    4.457129   5.110254   6.058408   4.266737   2.724802
    18  N    4.890695   5.854607   4.979841   2.660383   4.055348
    19  C    6.086313   6.963529   6.439196   4.096912   4.854779
    20  C    5.889885   6.610613   6.977112   4.837703   4.264530
    21  H    4.304353   4.814323   6.293944   4.749213   2.452777
    22  H    4.559195   5.092174   6.457028   4.825236   2.681877
    23  H    6.488790   7.337512   6.858575   4.583530   5.235985
    24  H    6.919599   7.838618   6.898813   4.474443   5.803188
    25  H    6.233062   6.947250   7.227061   5.103381   4.686212
    26  H    6.662320   7.296487   7.956513   5.835870   4.859455
    27  H    5.088007   6.119800   4.506109   2.114575   4.641149
                   11         12         13         14         15
    11  O    0.000000
    12  C    1.440421   0.000000
    13  H    2.085598   1.095381   0.000000
    14  H    2.085705   1.095591   1.799461   0.000000
    15  H    2.021174   1.089483   1.796931   1.796318   0.000000
    16  C    5.605873   6.541095   6.542781   6.551942   7.502170
    17  C    6.603135   7.697950   7.751268   7.794843   8.583517
    18  N    6.470351   7.202575   7.112001   7.078088   8.232181
    19  C    7.841696   8.636570   8.560002   8.511805   9.652548
    20  C    7.917715   8.898744   8.847097   8.936384   9.845033
    21  H    6.519599   7.693430   7.711446   7.941213   8.512045
    22  H    6.769263   7.930135   8.129682   7.965045   8.765999
    23  H    8.234623   9.027457   9.056211   8.796319  10.032981
    24  H    8.543696   9.232690   9.049270   9.100845  10.277200
    25  H    8.203690   9.153479   8.984708   9.283680  10.097142
    26  H    8.778582   9.814911   9.825896   9.831945  10.737322
    27  H    6.347565   6.899466   6.781730   6.657077   7.962510
                   16         17         18         19         20
    16  C    0.000000
    17  C    1.499934   0.000000
    18  N    1.360479   2.337907   0.000000
    19  C    2.348394   2.428672   1.460459   0.000000
    20  C    2.385848   1.547794   2.338682   1.537332   0.000000
    21  H    2.173327   1.096125   3.190432   3.358157   2.216709
    22  H    2.148161   1.103299   2.978411   2.962658   2.202583
    23  H    2.922234   2.937378   2.104465   1.102847   2.200359
    24  H    3.211777   3.371478   2.110324   1.095110   2.226069
    25  H    2.895230   2.179700   2.827996   2.168108   1.095649
    26  H    3.310973   2.213941   3.270377   2.195352   1.092733
    27  H    2.099279   3.302618   1.016531   2.166841   3.315618
                   21         22         23         24         25
    21  H    0.000000
    22  H    1.765149   0.000000
    23  H    3.983731   3.082850   0.000000
    24  H    4.167682   4.011972   1.776370   0.000000
    25  H    2.406221   3.056965   3.061456   2.419935   0.000000
    26  H    2.794315   2.426444   2.428349   2.789582   1.774978
    27  H    4.135089   3.842302   2.564316   2.528311   3.760552
                   26         27
    26  H    0.000000
    27  H    4.197318   0.000000
 Stoichiometry    C11H14NO(1+)
 Framework group  C1[X(C11H14NO)]
 Deg. of freedom    75
 Full point group                 C1      NOp   1
 RotChk:  IX=0 Diff= 2.57D-16
 Largest Abelian subgroup         C1      NOp   1
 Largest concise Abelian subgroup C1      NOp   1
                         Standard orientation:                         
 ---------------------------------------------------------------------
 Center     Atomic      Atomic             Coordinates (Angstroms)
 Number     Number       Type             X           Y           Z
 ---------------------------------------------------------------------
      1          6           0       -2.492994    0.245734   -0.013022
      2          6           0       -1.868071   -1.019742    0.085077
      3          6           0       -0.488637   -1.095998    0.096359
      4          6           0        0.334884    0.092473   -0.007336
      5          6           0       -0.320064    1.355149   -0.111118
      6          6           0       -1.696790    1.436808   -0.106631
      7          1           0       -2.206332    2.393134   -0.174967
      8          1           0       -2.458827   -1.926679    0.150019
      9          1           0       -0.024853   -2.072105    0.191756
     10          1           0        0.266720    2.263765   -0.193727
     11          8           0       -3.814448    0.453097   -0.032156
     12          6           0       -4.729809   -0.654683    0.066590
     13          1           0       -4.571322   -1.186692    1.010894
     14          1           0       -4.588487   -1.332370   -0.782579
     15          1           0       -5.723125   -0.207983    0.039071
     16          6           0        1.775161    0.026630   -0.017694
     17          6           0        2.749791    1.165502    0.035883
     18          7           0        2.453880   -1.149836   -0.096236
     19          6           0        3.896582   -0.959936   -0.220693
     20          6           0        4.094787    0.460022    0.334127
     21          1           0        2.485659    1.914474    0.791372
     22          1           0        2.779471    1.689554   -0.934559
     23          1           0        4.188456   -1.030389   -1.281880
     24          1           0        4.435162   -1.739862    0.327863
     25          1           0        4.260275    0.414419    1.416246
     26          1           0        4.948740    0.964457   -0.124540
     27          1           0        2.017857   -2.031385   -0.353319
 ---------------------------------------------------------------------
 Rotational constants (GHZ):           2.8187001           0.3488643           0.3142416
 Leave Link  202 at Wed Aug 12 17:32:36 2026, MaxMem=   104857600 cpu:               0.0 elap:               0.0
 (Enter /opt/packages/gaussian/g16RevC.01/g16/l301.exe)
 Standard basis: 6-31+G(d) (6D, 7F)
 Ernie: Thresh=  0.10000D-02 Tol=  0.10000D-05 Strict=F.
 There are   275 symmetry adapted cartesian basis functions of A   symmetry.
 There are   275 symmetry adapted basis functions of A   symmetry.
   275 basis functions,   472 primitive gaussians,   275 cartesian basis functions
    47 alpha electrons       47 beta electrons
       nuclear repulsion energy       751.9387321928 Hartrees.
 IExCor=  402 DFT=T Ex+Corr=B3LYP ExCW=0 ScaHFX=  0.200000
 ScaDFX=  0.800000  0.720000  1.000000  0.810000 ScalE2=  1.000000  1.000000
 IRadAn=      5 IRanWt=     -1 IRanGd=            0 ICorTp=0 IEmpDi=  4
 NAtoms=   27 NActive=   27 NUniq=   27 SFac= 1.00D+00 NAtFMM=   60 NAOKFM=F Big=F
 Integral buffers will be    131072 words long.
 Regular integral format.
 Two-electron integral symmetry is turned on.
 ------------------------------------------------------------------------------
 Polarizable Continuum Model (PCM)
 =================================
 Model                : PCM.
 Atomic radii         : SMD-Coulomb.
 Polarization charges : Total charges.
 Charge compensation  : None.
 Solution method      : On-the-fly selection.
 Cavity type          : VdW (van der Waals Surface) (Alpha=1.000).
 Cavity algorithm     : GePol (No added spheres)
                        Default sphere list used, NSphG=   27.
                        Lebedev-Laikov grids with approx.  5.0 points / Ang**2.
                        Smoothing algorithm: York/Karplus (Gamma=1.0000).
                        Polarization charges: spherical gaussians, with
                                              point-specific exponents (IZeta= 3).
                        Self-potential: point-specific (ISelfS= 7).
                        Self-field    : sphere-specific E.n sum rule (ISelfD= 2).
 Solvent              : Methanol, Eps=  32.613000 Eps(inf)=   1.765709
 ------------------------------------------------------------------------------
 GePol: Number of generator spheres                  =      27
 GePol: Total number of spheres                      =      27
 GePol: Number of exposed spheres                    =      27 (100.00%)
 GePol: Number of points                             =    2000
 GePol: Average weight of points                     =       0.11
 GePol: Minimum weight of points                     =   0.53D-10
 GePol: Maximum weight of points                     =    0.21991
 GePol: Number of points with low weight             =     108
 GePol: Fraction of low-weight points (<1% of avg)   =       5.40%
 GePol: Cavity surface area                          =    217.072 Ang**2
 GePol: Cavity volume                                =    192.652 Ang**3
 ------------------------------------------------------------------------------
 Atomic radii for non-electrostatic terms: SMD-CDS.
 ------------------------------------------------------------------------------
 PCM non-electrostatic energy =        -0.0004213278 Hartrees.
 Nuclear repulsion after PCM non-electrostatic terms =      751.9383108650 Hartrees.
 Leave Link  301 at Wed Aug 12 17:32:37 2026, MaxMem=   104857600 cpu:               0.0 elap:               0.1
 (Enter /opt/packages/gaussian/g16RevC.01/g16/l302.exe)
 NPDir=0 NMtPBC=     1 NCelOv=     1 NCel=       1 NClECP=     1 NCelD=      1
         NCelK=      1 NCelE2=     1 NClLst=     1 CellRange=     0.0.
 One-electron integrals computed using PRISM.
 One-electron integral symmetry used in STVInt
 NBasis=   275 RedAO= T EigKep=  1.12D-06  NBF=   275
 NBsUse=   274 1.00D-06 EigRej=  4.70D-07 NBFU=   274
 Precomputing XC quadrature grid using
 IXCGrd= 4 IRadAn=           5 IRanWt=          -1 IRanGd=           0 AccXCQ= 0.00D+00.
 Generated NRdTot=       0 NPtTot=           0 NUsed=           0 NTot=          32
 NSgBfM=   274   274   274   274   274 MxSgAt=    27 MxSgA2=    27.
 Leave Link  302 at Wed Aug 12 17:32:37 2026, MaxMem=   104857600 cpu:               0.7 elap:               0.7
 (Enter /opt/packages/gaussian/g16RevC.01/g16/l303.exe)
 DipDrv:  MaxL=1.
 Leave Link  303 at Wed Aug 12 17:32:38 2026, MaxMem=   104857600 cpu:               0.0 elap:               0.1
 (Enter /opt/packages/gaussian/g16RevC.01/g16/l308.exe)
 Leave Link  308 at Wed Aug 12 17:32:38 2026, MaxMem=   104857600 cpu:               0.0 elap:               0.3
 (Enter /opt/packages/gaussian/g16RevC.01/g16/l401.exe)
 ExpMin= 4.38D-02 ExpMax= 5.48D+03 ExpMxC= 8.25D+02 IAcc=3 IRadAn=         5 AccDes= 0.00D+00
 Harris functional with IExCor=  402 and IRadAn=       5 diagonalized for initial guess.
 HarFok:  IExCor=  402 AccDes= 0.00D+00 IRadAn=         5 IDoV= 1 UseB2=F ITyADJ=14
 ICtDFT=  3500011 ScaDFX=  1.000000  1.000000  1.000000  1.000000
 FoFCou: FMM=F IPFlag=           0 FMFlag=      100000 FMFlg1=           0
         NFxFlg=           0 DoJE=T BraDBF=F KetDBF=T FulRan=T
         wScrn=  0.000000 ICntrl=       500 IOpCl=  0 I1Cent=   200000004 NGrid=           0
         NMat0=    1 NMatS0=      1 NMatT0=    0 NMatD0=    1 NMtDS0=    0 NMtDT0=    0
 Petite list used in FoFCou.
 Harris En= -557.357481378191    
 JPrj=0 DoOrth=F DoCkMO=F.
 Leave Link  401 at Wed Aug 12 17:32:44 2026, MaxMem=   104857600 cpu:               5.5 elap:               5.6
 (Enter /opt/packages/gaussian/g16RevC.01/g16/l502.exe)
 Integral symmetry usage will be decided dynamically.
 Closed shell SCF:
 Using DIIS extrapolation, IDIIS=  1040.
 NGot=   104857600 LenX=   104701058 LenY=   104624992
 Requested convergence on RMS density matrix=1.00D-08 within 128 cycles.
 Requested convergence on MAX density matrix=1.00D-06.
 Requested convergence on             energy=1.00D-06.
 No special actions if energy rises.
 Fock matrices will be formed incrementally for  20 cycles.

 Cycle   1  Pass 1  IDiag  1:
 FoFJK:  IHMeth= 1 ICntrl=       0 DoSepK=F KAlg= 0 I1Cent=           0 FoldK=F
 IRaf= 880000000 NMat=       1 IRICut=       1 DoRegI=T DoRafI=F ISym2E= 0 IDoP0=0 IntGTp=1.
 FoFCou: FMM=F IPFlag=           0 FMFlag=      100000 FMFlg1=           0
         NFxFlg=           0 DoJE=F BraDBF=F KetDBF=F FulRan=T
         wScrn=  0.000000 ICntrl=         0 IOpCl=  0 I1Cent=           0 NGrid=           0
         NMat0=    1 NMatS0=      1 NMatT0=    0 NMatD0=    1 NMtDS0=    0 NMtDT0=    0
 Symmetry not used in FoFCou.
 Inv3:  Mode=1 IEnd=    12000000.
 Iteration    1 A*A^-1 deviation from unit magnitude is 3.77D-15 for   1099.
 Iteration    1 A*A^-1 deviation from orthogonality  is 3.01D-15 for    769    602.
 Iteration    1 A^-1*A deviation from unit magnitude is 3.55D-15 for   1099.
 Iteration    1 A^-1*A deviation from orthogonality  is 2.03D-14 for    810    808.
 E= -557.230245068851    
 DIIS: error= 2.07D-02 at cycle   1 NSaved=   1.
 NSaved= 1 IEnMin= 1 EnMin= -557.230245068851     IErMin= 1 ErrMin= 2.07D-02
 ErrMax= 2.07D-02  0.00D+00 EMaxC= 1.00D-01 BMatC= 2.21D-01 BMatP= 2.21D-01
 IDIUse=3 WtCom= 7.93D-01 WtEn= 2.07D-01
 Coeff-Com:  0.100D+01
 Coeff-En:   0.100D+01
 Coeff:      0.100D+01
 Gap=     0.127 Goal=   None    Shift=    0.000
 GapD=    0.127 DampG=1.000 DampE=0.500 DampFc=0.5000 IDamp=-1.
 Damping current iteration by 5.00D-01
 RMSDP=2.13D-02 MaxDP=1.20D+00              OVMax= 1.68D-01

 Cycle   2  Pass 1  IDiag  1:
 RMSU=  9.36D-03    CP:  9.34D-01
 E= -557.335191725094     Delta-E=       -0.104946656244 Rises=F Damp=T
 DIIS: error= 6.36D-03 at cycle   2 NSaved=   2.
 NSaved= 2 IEnMin= 2 EnMin= -557.335191725094     IErMin= 2 ErrMin= 6.36D-03
 ErrMax= 6.36D-03  0.00D+00 EMaxC= 1.00D-01 BMatC= 1.53D-02 BMatP= 2.21D-01
 IDIUse=3 WtCom= 9.36D-01 WtEn= 6.36D-02
 Coeff-Com:  0.727D-02 0.993D+00
 Coeff-En:   0.227D-01 0.977D+00
 Coeff:      0.825D-02 0.992D+00
 Gap=     0.170 Goal=   None    Shift=    0.000
 RMSDP=1.91D-02 MaxDP=1.83D+00 DE=-1.05D-01 OVMax= 1.20D-01

 Cycle   3  Pass 1  IDiag  1:
 RMSU=  8.30D-03    CP:  7.15D-01  5.95D-01
 E= -557.449414995211     Delta-E=       -0.114223270116 Rises=F Damp=F
 DIIS: error= 3.31D-03 at cycle   3 NSaved=   3.
 NSaved= 3 IEnMin= 3 EnMin= -557.449414995211     IErMin= 3 ErrMin= 3.31D-03
 ErrMax= 3.31D-03  0.00D+00 EMaxC= 1.00D-01 BMatC= 5.82D-03 BMatP= 1.53D-02
 IDIUse=3 WtCom= 9.67D-01 WtEn= 3.31D-02
 Coeff-Com: -0.540D-01 0.372D+00 0.683D+00
 Coeff-En:   0.000D+00 0.000D+00 0.100D+01
 Coeff:     -0.523D-01 0.359D+00 0.693D+00
 Gap=     0.145 Goal=   None    Shift=    0.000
 RMSDP=1.95D-03 MaxDP=7.01D-02 DE=-1.14D-01 OVMax= 3.24D-02

 Cycle   4  Pass 1  IDiag  1:
 RMSU=  1.84D-03    CP:  7.21D-01  6.05D-01  9.58D-01
 E= -557.453719911358     Delta-E=       -0.004304916148 Rises=F Damp=F
 DIIS: error= 1.51D-03 at cycle   4 NSaved=   4.
 NSaved= 4 IEnMin= 4 EnMin= -557.453719911358     IErMin= 4 ErrMin= 1.51D-03
 ErrMax= 1.51D-03  0.00D+00 EMaxC= 1.00D-01 BMatC= 1.29D-03 BMatP= 5.82D-03
 IDIUse=3 WtCom= 9.85D-01 WtEn= 1.51D-02
 Coeff-Com: -0.278D-01 0.982D-01 0.363D+00 0.566D+00
 Coeff-En:   0.000D+00 0.000D+00 0.163D+00 0.837D+00
 Coeff:     -0.273D-01 0.967D-01 0.360D+00 0.570D+00
 Gap=     0.147 Goal=   None    Shift=    0.000
 RMSDP=1.27D-03 MaxDP=6.23D-02 DE=-4.30D-03 OVMax= 1.49D-02

 Cycle   5  Pass 1  IDiag  1:
 RMSU=  9.20D-04    CP:  7.17D-01  6.22D-01  9.06D-01  6.45D-01
 E= -557.454940987059     Delta-E=       -0.001221075701 Rises=F Damp=F
 DIIS: error= 3.96D-04 at cycle   5 NSaved=   5.
 NSaved= 5 IEnMin= 5 EnMin= -557.454940987059     IErMin= 5 ErrMin= 3.96D-04
 ErrMax= 3.96D-04  0.00D+00 EMaxC= 1.00D-01 BMatC= 9.02D-05 BMatP= 1.29D-03
 IDIUse=3 WtCom= 9.96D-01 WtEn= 3.96D-03
 Coeff-Com: -0.984D-02 0.236D-01 0.129D+00 0.291D+00 0.566D+00
 Coeff-En:   0.000D+00 0.000D+00 0.000D+00 0.000D+00 0.100D+01
 Coeff:     -0.980D-02 0.235D-01 0.129D+00 0.290D+00 0.568D+00
 Gap=     0.147 Goal=   None    Shift=    0.000
 RMSDP=3.29D-04 MaxDP=1.57D-02 DE=-1.22D-03 OVMax= 4.00D-03

 Cycle   6  Pass 1  IDiag  1:
 RMSU=  1.94D-04    CP:  7.18D-01  6.19D-01  9.20D-01  6.54D-01  7.59D-01
 E= -557.455015301593     Delta-E=       -0.000074314534 Rises=F Damp=F
 DIIS: error= 1.55D-04 at cycle   6 NSaved=   6.
 NSaved= 6 IEnMin= 6 EnMin= -557.455015301593     IErMin= 6 ErrMin= 1.55D-04
 ErrMax= 1.55D-04  0.00D+00 EMaxC= 1.00D-01 BMatC= 1.30D-05 BMatP= 9.02D-05
 IDIUse=3 WtCom= 9.98D-01 WtEn= 1.55D-03
 Coeff-Com: -0.408D-02 0.705D-02 0.499D-01 0.133D+00 0.347D+00 0.467D+00
 Coeff-En:   0.000D+00 0.000D+00 0.000D+00 0.000D+00 0.603D-01 0.940D+00
 Coeff:     -0.408D-02 0.704D-02 0.498D-01 0.133D+00 0.347D+00 0.468D+00
 Gap=     0.147 Goal=   None    Shift=    0.000
 RMSDP=7.62D-05 MaxDP=2.87D-03 DE=-7.43D-05 OVMax= 1.15D-03

 Cycle   7  Pass 1  IDiag  1:
 RMSU=  4.63D-05    CP:  7.18D-01  6.20D-01  9.23D-01  6.61D-01  7.22D-01
                    CP:  7.79D-01
 E= -557.455027036803     Delta-E=       -0.000011735209 Rises=F Damp=F
 DIIS: error= 2.67D-05 at cycle   7 NSaved=   7.
 NSaved= 7 IEnMin= 7 EnMin= -557.455027036803     IErMin= 7 ErrMin= 2.67D-05
 ErrMax= 2.67D-05  0.00D+00 EMaxC= 1.00D-01 BMatC= 4.71D-07 BMatP= 1.30D-05
 IDIUse=1 WtCom= 1.00D+00 WtEn= 0.00D+00
 Coeff-Com: -0.148D-02 0.216D-02 0.167D-01 0.494D-01 0.142D+00 0.231D+00
 Coeff-Com:  0.560D+00
 Coeff:     -0.148D-02 0.216D-02 0.167D-01 0.494D-01 0.142D+00 0.231D+00
 Coeff:      0.560D+00
 Gap=     0.147 Goal=   None    Shift=    0.000
 RMSDP=1.61D-05 MaxDP=6.68D-04 DE=-1.17D-05 OVMax= 2.17D-04

 Cycle   8  Pass 1  IDiag  1:
 RMSU=  1.31D-05    CP:  7.18D-01  6.21D-01  9.22D-01  6.61D-01  7.29D-01
                    CP:  7.60D-01  8.85D-01
 E= -557.455027433309     Delta-E=       -0.000000396507 Rises=F Damp=F
 DIIS: error= 8.14D-06 at cycle   8 NSaved=   8.
 NSaved= 8 IEnMin= 8 EnMin= -557.455027433309     IErMin= 8 ErrMin= 8.14D-06
 ErrMax= 8.14D-06  0.00D+00 EMaxC= 1.00D-01 BMatC= 5.14D-08 BMatP= 4.71D-07
 IDIUse=1 WtCom= 1.00D+00 WtEn= 0.00D+00
 Coeff-Com: -0.654D-04-0.117D-03-0.271D-03 0.237D-02 0.122D-01 0.308D-01
 Coeff-Com:  0.267D+00 0.689D+00
 Coeff:     -0.654D-04-0.117D-03-0.271D-03 0.237D-02 0.122D-01 0.308D-01
 Coeff:      0.267D+00 0.689D+00
 Gap=     0.147 Goal=   None    Shift=    0.000
 RMSDP=7.03D-06 MaxDP=4.77D-04 DE=-3.97D-07 OVMax= 6.27D-05

 Cycle   9  Pass 1  IDiag  1:
 RMSU=  3.86D-06    CP:  7.18D-01  6.21D-01  9.22D-01  6.62D-01  7.30D-01
                    CP:  7.72D-01  9.30D-01  8.58D-01
 E= -557.455027479685     Delta-E=       -0.000000046376 Rises=F Damp=F
 DIIS: error= 2.52D-06 at cycle   9 NSaved=   9.
 NSaved= 9 IEnMin= 9 EnMin= -557.455027479685     IErMin= 9 ErrMin= 2.52D-06
 ErrMax= 2.52D-06  0.00D+00 EMaxC= 1.00D-01 BMatC= 4.02D-09 BMatP= 5.14D-08
 IDIUse=1 WtCom= 1.00D+00 WtEn= 0.00D+00
 Coeff-Com:  0.283D-04-0.141D-03-0.881D-03-0.107D-02-0.416D-03 0.330D-02
 Coeff-Com:  0.102D+00 0.331D+00 0.566D+00
 Coeff:      0.283D-04-0.141D-03-0.881D-03-0.107D-02-0.416D-03 0.330D-02
 Coeff:      0.102D+00 0.331D+00 0.566D+00
 Gap=     0.147 Goal=   None    Shift=    0.000
 RMSDP=1.41D-06 MaxDP=6.58D-05 DE=-4.64D-08 OVMax= 2.38D-05

 Cycle  10  Pass 1  IDiag  1:
 RMSU=  1.11D-06    CP:  7.18D-01  6.21D-01  9.22D-01  6.62D-01  7.30D-01
                    CP:  7.74D-01  9.38D-01  8.63D-01  9.38D-01
 E= -557.455027483009     Delta-E=       -0.000000003324 Rises=F Damp=F
 DIIS: error= 9.06D-07 at cycle  10 NSaved=  10.
 NSaved=10 IEnMin=10 EnMin= -557.455027483009     IErMin=10 ErrMin= 9.06D-07
 ErrMax= 9.06D-07  0.00D+00 EMaxC= 1.00D-01 BMatC= 5.97D-10 BMatP= 4.02D-09
 IDIUse=1 WtCom= 1.00D+00 WtEn= 0.00D+00
 Coeff-Com:  0.268D-04-0.545D-04-0.465D-03-0.103D-02-0.224D-02-0.358D-02
 Coeff-Com:  0.122D-01 0.645D-01 0.301D+00 0.629D+00
 Coeff:      0.268D-04-0.545D-04-0.465D-03-0.103D-02-0.224D-02-0.358D-02
 Coeff:      0.122D-01 0.645D-01 0.301D+00 0.629D+00
 Gap=     0.147 Goal=   None    Shift=    0.000
 RMSDP=4.87D-07 MaxDP=3.35D-05 DE=-3.32D-09 OVMax= 9.46D-06

 Cycle  11  Pass 1  IDiag  1:
 RMSU=  3.15D-07    CP:  7.18D-01  6.21D-01  9.22D-01  6.62D-01  7.30D-01
                    CP:  7.74D-01  9.42D-01  8.66D-01  9.83D-01  8.19D-01
 E= -557.455027483563     Delta-E=       -0.000000000555 Rises=F Damp=F
 DIIS: error= 2.81D-07 at cycle  11 NSaved=  11.
 NSaved=11 IEnMin=11 EnMin= -557.455027483563     IErMin=11 ErrMin= 2.81D-07
 ErrMax= 2.81D-07  0.00D+00 EMaxC= 1.00D-01 BMatC= 3.19D-11 BMatP= 5.97D-10
 IDIUse=1 WtCom= 1.00D+00 WtEn= 0.00D+00
 Coeff-Com:  0.123D-04-0.209D-04-0.197D-03-0.481D-03-0.115D-02-0.206D-02
 Coeff-Com:  0.684D-03 0.143D-01 0.123D+00 0.308D+00 0.557D+00
 Coeff:      0.123D-04-0.209D-04-0.197D-03-0.481D-03-0.115D-02-0.206D-02
 Coeff:      0.684D-03 0.143D-01 0.123D+00 0.308D+00 0.557D+00
 Gap=     0.147 Goal=   None    Shift=    0.000
 RMSDP=1.25D-07 MaxDP=1.02D-05 DE=-5.55D-10 OVMax= 3.16D-06

 Cycle  12  Pass 1  IDiag  1:
 RMSU=  9.07D-08    CP:  7.18D-01  6.21D-01  9.22D-01  6.62D-01  7.30D-01
                    CP:  7.74D-01  9.42D-01  8.67D-01  9.87D-01  8.39D-01
                    CP:  1.06D+00
 E= -557.455027483593     Delta-E=       -0.000000000030 Rises=F Damp=F
 DIIS: error= 9.61D-08 at cycle  12 NSaved=  12.
 NSaved=12 IEnMin=12 EnMin= -557.455027483593     IErMin=12 ErrMin= 9.61D-08
 ErrMax= 9.61D-08  0.00D+00 EMaxC= 1.00D-01 BMatC= 3.02D-12 BMatP= 3.19D-11
 IDIUse=1 WtCom= 1.00D+00 WtEn= 0.00D+00
 Coeff-Com:  0.317D-06 0.124D-05-0.496D-05-0.212D-04-0.894D-04-0.231D-03
 Coeff-Com: -0.158D-02-0.496D-02 0.345D-02 0.219D-01 0.246D+00 0.736D+00
 Coeff:      0.317D-06 0.124D-05-0.496D-05-0.212D-04-0.894D-04-0.231D-03
 Coeff:     -0.158D-02-0.496D-02 0.345D-02 0.219D-01 0.246D+00 0.736D+00
 Gap=     0.147 Goal=   None    Shift=    0.000
 RMSDP=5.78D-08 MaxDP=4.28D-06 DE=-2.97D-11 OVMax= 6.68D-07

 Cycle  13  Pass 1  IDiag  1:
 RMSU=  2.99D-08    CP:  7.18D-01  6.21D-01  9.22D-01  6.62D-01  7.30D-01
                    CP:  7.74D-01  9.42D-01  8.67D-01  9.94D-01  8.50D-01
                    CP:  1.08D+00  9.14D-01
 E= -557.455027483598     Delta-E=       -0.000000000005 Rises=F Damp=F
 DIIS: error= 2.67D-08 at cycle  13 NSaved=  13.
 NSaved=13 IEnMin=13 EnMin= -557.455027483598     IErMin=13 ErrMin= 2.67D-08
 ErrMax= 2.67D-08  0.00D+00 EMaxC= 1.00D-01 BMatC= 9.40D-14 BMatP= 3.02D-12
 IDIUse=1 WtCom= 1.00D+00 WtEn= 0.00D+00
 Coeff-Com: -0.284D-06 0.108D-05 0.378D-05 0.739D-05 0.198D-05-0.192D-04
 Coeff-Com: -0.563D-03-0.218D-02-0.185D-02-0.185D-02 0.669D-01 0.246D+00
 Coeff-Com:  0.694D+00
 Coeff:     -0.284D-06 0.108D-05 0.378D-05 0.739D-05 0.198D-05-0.192D-04
 Coeff:     -0.563D-03-0.218D-02-0.185D-02-0.185D-02 0.669D-01 0.246D+00
 Coeff:      0.694D+00
 Gap=     0.147 Goal=   None    Shift=    0.000
 RMSDP=1.53D-08 MaxDP=1.76D-06 DE=-4.55D-12 OVMax= 2.86D-07

 Cycle  14  Pass 1  IDiag  1:
 RMSU=  6.78D-09    CP:  7.18D-01  6.21D-01  9.22D-01  6.62D-01  7.30D-01
                    CP:  7.74D-01  9.42D-01  8.67D-01  9.96D-01  8.50D-01
                    CP:  1.10D+00  9.67D-01  1.07D+00
 E= -557.455027483595     Delta-E=        0.000000000003 Rises=F Damp=F
 DIIS: error= 1.15D-08 at cycle  14 NSaved=  14.
 NSaved=14 IEnMin=13 EnMin= -557.455027483598     IErMin=14 ErrMin= 1.15D-08
 ErrMax= 1.15D-08  0.00D+00 EMaxC= 1.00D-01 BMatC= 4.45D-14 BMatP= 9.40D-14
 IDIUse=1 WtCom= 1.00D+00 WtEn= 0.00D+00
 Coeff-Com: -0.244D-06 0.498D-06 0.337D-05 0.870D-05 0.164D-04 0.286D-04
 Coeff-Com: -0.987D-04-0.572D-03-0.188D-02-0.550D-02-0.257D-02 0.206D-01
 Coeff-Com:  0.432D+00 0.558D+00
 Coeff:     -0.244D-06 0.498D-06 0.337D-05 0.870D-05 0.164D-04 0.286D-04
 Coeff:     -0.987D-04-0.572D-03-0.188D-02-0.550D-02-0.257D-02 0.206D-01
 Coeff:      0.432D+00 0.558D+00
 Gap=     0.147 Goal=   None    Shift=    0.000
 RMSDP=4.87D-09 MaxDP=4.38D-07 DE= 2.84D-12 OVMax= 1.05D-07

 Error on total polarization charges =  0.05314
 SCF Done:  E(RB3LYP) =  -557.455027484     A.U. after   14 cycles
            NFock= 14  Conv=0.49D-08     -V/T= 2.0104
 KE= 5.517333759876D+02 PE=-2.781644834820D+03 EE= 9.205181204842D+02
 SMD-CDS (non-electrostatic) energy       (kcal/mol) =      -0.26
 (included in total energy above)
 Leave Link  502 at Wed Aug 12 17:35:57 2026, MaxMem=   104857600 cpu:             190.1 elap:             192.9
 (Enter /opt/packages/gaussian/g16RevC.01/g16/l801.exe)
 DoSCS=F DFT=T ScalE2(SS,OS)=  1.000000  1.000000
 ExpMin= 4.38D-02 ExpMax= 5.48D+03 ExpMxC= 8.25D+02 IAcc=3 IRadAn=         5 AccDes= 0.00D+00
 HarFok:  IExCor=  205 AccDes= 0.00D+00 IRadAn=         5 IDoV=-2 UseB2=F ITyADJ=14
 ICtDFT= 12500011 ScaDFX=  1.000000  1.000000  1.000000  1.000000
 Largest valence mixing into a core orbital is  5.49D-05
 Largest core mixing into a valence orbital is  1.18D-05
 Range of M.O.s used for correlation:    14   274
 NBasis=   275 NAE=    47 NBE=    47 NFC=    13 NFV=     0
 NROrb=    261 NOA=    34 NOB=    34 NVA=   227 NVB=   227

 **** Warning!!: The largest alpha MO coefficient is  0.21562850D+03

 Leave Link  801 at Wed Aug 12 17:35:58 2026, MaxMem=   104857600 cpu:               0.6 elap:               0.6
 (Enter /opt/packages/gaussian/g16RevC.01/g16/l914.exe)
 RHF ground state
 Two-electron integrals replicated using symmetry.
 MDV=   104857600 DFT=T DoStab=F Mixed=T DoRPA=T DoScal=F NonHer=T
 NEqPCM:  Using non-equilibrium solvation (IEInf=1, Eps=  32.6130, EpsInf=   1.7657)
 Inv3:  Mode=1 IEnd=    12000000.
 Iteration    1 A*A^-1 deviation from unit magnitude is 2.89D-15 for   1145.
 Iteration    1 A*A^-1 deviation from orthogonality  is 2.04D-15 for   1778   1090.
 Iteration    1 A^-1*A deviation from unit magnitude is 2.89D-15 for   1145.
 Iteration    1 A^-1*A deviation from orthogonality  is 1.79D-15 for   1501   1297.
 Making orbital integer symmetry assigments:
 Orbital symmetries:
       Occupied  (A) (A) (A) (A) (A) (A) (A) (A) (A) (A) (A) (A)
                 (A) (A) (A) (A) (A) (A) (A) (A) (A) (A) (A) (A)
                 (A) (A) (A) (A) (A) (A) (A) (A) (A) (A) (A) (A)
                 (A) (A) (A) (A) (A) (A) (A) (A) (A) (A) (A)
       Virtual   (A) (A) (A) (A) (A) (A) (A) (A) (A) (A) (A) (A)
                 (A) (A) (A) (A) (A) (A) (A) (A) (A) (A) (A) (A)
                 (A) (A) (A) (A) (A) (A) (A) (A) (A) (A) (A) (A)
                 (A) (A) (A) (A) (A) (A) (A) (A) (A) (A) (A) (A)
                 (A) (A) (A) (A) (A) (A) (A) (A) (A) (A) (A) (A)
                 (A) (A) (A) (A) (A) (A) (A) (A) (A) (A) (A) (A)
                 (A) (A) (A) (A) (A) (A) (A) (A) (A) (A) (A) (A)
                 (A) (A) (A) (A) (A) (A) (A) (A) (A) (A) (A) (A)
                 (A) (A) (A) (A) (A) (A) (A) (A) (A) (A) (A) (A)
                 (A) (A) (A) (A) (A) (A) (A) (A) (A) (A) (A) (A)
                 (A) (A) (A) (A) (A) (A) (A) (A) (A) (A) (A) (A)
                 (A) (A) (A) (A) (A) (A) (A) (A) (A) (A) (A) (A)
                 (A) (A) (A) (A) (A) (A) (A) (A) (A) (A) (A) (A)
                 (A) (A) (A) (A) (A) (A) (A) (A) (A) (A) (A) (A)
                 (A) (A) (A) (A) (A) (A) (A) (A) (A) (A) (A) (A)
                 (A) (A) (A) (A) (A) (A) (A) (A) (A) (A) (A) (A)
                 (A) (A) (A) (A) (A) (A) (A) (A) (A) (A) (A) (A)
                 (A) (A) (A) (A) (A) (A) (A) (A) (A) (A) (A) (A)
                 (A) (A) (A) (A) (A) (A) (A) (A) (A) (A) (A)
    40 initial guesses have been made.
 Convergence on wavefunction:    0.001000000000000
 Davidson Disk Diagonalization:  ConvIn= 1.00D-03 SkipCon=T Conv= 1.00D-03.
 Max sub-space:  2000 roots to seek:    40 dimension of matrix:        15436
 Iteration     1 Dimension    40 NMult     0 NNew     40
 CISAX will form    40 AO SS matrices at one time.
 NMat=    40 NSing=    40 JSym2X= 0.
 FoFJK:  IHMeth= 1 ICntrl=       0 DoSepK=F KAlg= 0 I1Cent=           0 FoldK=F
 IRaf= 880000000 NMat=      80 IRICut=     100 DoRegI=T DoRafI=T ISym2E= 0 IDoP0=0 IntGTp=1.
 New state      8 was old state     10
 New state      9 was old state     12
 New state     10 was old state     15
 Excitation Energies [eV] at current iteration:
 Root      1 :     4.293654462526632
 Root      2 :     4.502586949979521
 Root      3 :     5.574214752082707
 Root      4 :     5.696439892518679
 Root      5 :     5.783966392902590
 Root      6 :     6.019299343456143
 Root      7 :     6.312054849630620
 Root      8 :     6.420340605571782
 Root      9 :     6.430676048943728
 Root     10 :     6.580749628731787
 Root     11 :     6.607163477268919
 Root     12 :     6.814139258847095
 Root     13 :     6.849048888113361
 Root     14 :     6.886789229195666
 Root     15 :     6.910251558359191
 Root     16 :     6.957706293669076
 Root     17 :     7.004957853788591
 Root     18 :     7.111999385568802
 Root     19 :     7.200446592481917
 Root     20 :     7.264784274024566
 Root     21 :     7.394804268989709
 Root     22 :     7.443522793089908
 Root     23 :     7.463862349782739
 Root     24 :     7.479506891458965
 Root     25 :     7.504711203141277
 Root     26 :     7.517352996783172
 Root     27 :     7.591979228424885
 Root     28 :     7.717534309040705
 Root     29 :     7.801008250659313
 Root     30 :     7.815457983480859
 Root     31 :     7.912216531747420
 Root     32 :     7.933272102792433
 Root     33 :     7.946798141212745
 Root     34 :     7.998735698402870
 Root     35 :     8.059263035977034
 Root     36 :     8.152433288941980
 Root     37 :     8.192092161552539
 Root     38 :     8.456214045120715
 Root     39 :     8.508180866157256
 Root     40 :     8.698977986462586
 Iteration     2 Dimension    60 NMult    40 NNew     20
 CISAX will form    20 AO SS matrices at one time.
 NMat=    20 NSing=    20 JSym2X= 0.
 Root      1 not converged, maximum delta is    0.162931048076823
 Root      2 not converged, maximum delta is    0.141002014638722
 Root      3 not converged, maximum delta is    0.102246759827248
 Root      4 not converged, maximum delta is    0.103193640187984
 Root      5 not converged, maximum delta is    0.050887963948058
 Root      6 not converged, maximum delta is    0.027698774855675
 Root      7 not converged, maximum delta is    0.242655415867090
 New state      8 was old state      9
 Root      8 not converged, maximum delta is    0.202219079399193
 New state      9 was old state      8
 Root      9 not converged, maximum delta is    0.048545594321033
 Root     10 not converged, maximum delta is    0.097054459739978
 Excitation Energies [eV] at current iteration:
 Root      1 :     3.776820394604551   Change is   -0.516834067922082
 Root      2 :     4.281900536678285   Change is   -0.220686413301236
 Root      3 :     5.299124339218171   Change is   -0.275090412864536
 Root      4 :     5.393753216429724   Change is   -0.302686676088956
 Root      5 :     5.736044497290214   Change is   -0.047921895612376
 Root      6 :     5.998828589821766   Change is   -0.020470753634377
 Root      7 :     6.077459845129543   Change is   -0.234595004501077
 Root      8 :     6.357312450656387   Change is   -0.073363598287341
 Root      9 :     6.396370724575232   Change is   -0.023969880996550
 Root     10 :     6.503461680572696   Change is   -0.077287948159091
 Iteration     3 Dimension    80 NMult    60 NNew     20
 CISAX will form    20 AO SS matrices at one time.
 NMat=    20 NSing=    20 JSym2X= 0.
 Root      1 not converged, maximum delta is    0.010445955046430
 Root      2 not converged, maximum delta is    0.004230168431085
 Root      3 not converged, maximum delta is    0.008732788095478
 Root      4 not converged, maximum delta is    0.015389970264359
 Root      5 not converged, maximum delta is    0.004295461648525
 Root      6 not converged, maximum delta is    0.010626036897113
 Root      7 not converged, maximum delta is    0.040585247190965
 Root      8 not converged, maximum delta is    0.141188229890364
 Root      9 not converged, maximum delta is    0.427513055242046
 Root     10 not converged, maximum delta is    0.595637968920931
 Excitation Energies [eV] at current iteration:
 Root      1 :     3.755912818792077   Change is   -0.020907575812473
 Root      2 :     4.275265618074735   Change is   -0.006634918603550
 Root      3 :     5.286580560191521   Change is   -0.012543779026649
 Root      4 :     5.377111552339208   Change is   -0.016641664090516
 Root      5 :     5.734466344240238   Change is   -0.001578153049976
 Root      6 :     5.998112367535545   Change is   -0.000716222286222
 Root      7 :     6.066126208535342   Change is   -0.011333636594201
 Root      8 :     6.353330517247114   Change is   -0.003981933409273
 Root      9 :     6.370771894818062   Change is   -0.025598829757170
 Root     10 :     6.405912771182164   Change is   -0.097548909390531
 Iteration     4 Dimension   100 NMult    80 NNew     20
 CISAX will form    20 AO SS matrices at one time.
 NMat=    20 NSing=    20 JSym2X= 0.
 Root      1 not converged, maximum delta is    0.001402269999409
 Root      2 has converged.
 Root      3 not converged, maximum delta is    0.002115575800548
 Root      4 not converged, maximum delta is    0.003101951465943
 Root      5 has converged.
 Root      6 not converged, maximum delta is    0.002866356907754
 Root      7 not converged, maximum delta is    0.009616373858072
 New state      8 was old state      9
 Root      8 not converged, maximum delta is    0.271085944552953
 New state      9 was old state      8
 Root      9 not converged, maximum delta is    0.197116135885982
 Root     10 not converged, maximum delta is    0.235287471628522
 Excitation Energies [eV] at current iteration:
 Root      1 :     3.754531606902525   Change is   -0.001381211889552
 Root      2 :     4.274955551294378   Change is   -0.000310066780356
 Root      3 :     5.285679221369972   Change is   -0.000901338821549
 Root      4 :     5.375810023096994   Change is   -0.001301529242214
 Root      5 :     5.734335657238216   Change is   -0.000130687002022
 Root      6 :     5.998025521167717   Change is   -0.000086846367828
 Root      7 :     6.064782528407830   Change is   -0.001343680127513
 Root      8 :     6.302109679059898   Change is   -0.068662215758164
 Root      9 :     6.354704222403866   Change is    0.001373705156752
 Root     10 :     6.397895533753006   Change is   -0.008017237429159
 Iteration     5 Dimension   116 NMult   100 NNew     16
 CISAX will form    16 AO SS matrices at one time.
 NMat=    16 NSing=    16 JSym2X= 0.
 Root      1 has converged.
 Root      2 has converged.
 Root      3 has converged.
 Root      4 has converged.
 Root      5 has converged.
 Root      6 has converged.
 Root      7 has converged.
 Root      8 not converged, maximum delta is    0.015396078752600
 Root      9 not converged, maximum delta is    0.005968964909731
 Root     10 not converged, maximum delta is    0.009065587746793
 Excitation Energies [eV] at current iteration:
 Root      1 :     3.754474943216676   Change is   -0.000056663685850
 Root      2 :     4.274948040554897   Change is   -0.000007510739481
 Root      3 :     5.285609441199155   Change is   -0.000069780170818
 Root      4 :     5.375723833298770   Change is   -0.000086189798224
 Root      5 :     5.734333169562237   Change is   -0.000002487675979
 Root      6 :     5.998017078671919   Change is   -0.000008442495798
 Root      7 :     6.064661061466563   Change is   -0.000121466941266
 Root      8 :     6.295754034227137   Change is   -0.006355644832761
 Root      9 :     6.354638231089480   Change is   -0.000065991314386
 Root     10 :     6.397668408495831   Change is   -0.000227125257175
 Iteration     6 Dimension   122 NMult   116 NNew      6
 CISAX will form     6 AO SS matrices at one time.
 NMat=     6 NSing=     6 JSym2X= 0.
 Root      1 has converged.
 Root      2 has converged.
 Root      3 has converged.
 Root      4 has converged.
 Root      5 has converged.
 Root      6 has converged.
 Root      7 has converged.
 Root      8 not converged, maximum delta is    0.001694244767427
 Root      9 has converged.
 Root     10 has converged.
 Excitation Energies [eV] at current iteration:
 Root      1 :     3.754474865500812   Change is   -0.000000077715863
 Root      2 :     4.274947453755265   Change is   -0.000000586799632
 Root      3 :     5.285609348991075   Change is   -0.000000092208079
 Root      4 :     5.375723209295318   Change is   -0.000000624003453
 Root      5 :     5.734332926837886   Change is   -0.000000242724352
 Root      6 :     5.998016756965651   Change is   -0.000000321706268
 Root      7 :     6.064658468962190   Change is   -0.000002592504374
 Root      8 :     6.295255711016953   Change is   -0.000498323210184
 Root      9 :     6.354632347858111   Change is   -0.000005883231369
 Root     10 :     6.397650827613134   Change is   -0.000017580882697
 Iteration     7 Dimension   124 NMult   122 NNew      2
 CISAX will form     2 AO SS matrices at one time.
 NMat=     2 NSing=     2 JSym2X= 0.
 Root      1 has converged.
 Root      2 has converged.
 Root      3 has converged.
 Root      4 has converged.
 Root      5 has converged.
 Root      6 has converged.
 Root      7 has converged.
 Root      8 has converged.
 Root      9 has converged.
 Root     10 has converged.
 Excitation Energies [eV] at current iteration:
 Root      1 :     3.754474844941131   Change is   -0.000000020559681
 Root      2 :     4.274947340605063   Change is   -0.000000113150202
 Root      3 :     5.285609336773523   Change is   -0.000000012217552
 Root      4 :     5.375723181468920   Change is   -0.000000027826398
 Root      5 :     5.734332905531448   Change is   -0.000000021306437
 Root      6 :     5.998016739264783   Change is   -0.000000017700867
 Root      7 :     6.064658313375153   Change is   -0.000000155587036
 Root      8 :     6.295200726396896   Change is   -0.000054984620057
 Root      9 :     6.354632061027417   Change is   -0.000000286830693
 Root     10 :     6.397649051060109   Change is   -0.000001776553025
 Convergence achieved on expansion vectors.
 ***********************************************************************
 Excited states from <AA,BB:AA,BB> singles matrix:
 ***********************************************************************
 
 1PDM for each excited state written to RWF  633
 Ground to excited state transition densities written to RWF  633
 Ground to excited state transition electric dipole moments (Au):
       state          X           Y           Z        Dip. S.      Osc.
         1         2.6660     -0.0465     -0.0632      7.1137      0.6543
         2         0.5827     -0.3993      0.0201      0.4994      0.0523
         3         0.4994     -0.6819      0.0713      0.7194      0.0932
         4         0.4241     -0.8856     -0.0298      0.9651      0.1271
         5        -0.1318      0.0388     -0.0223      0.0194      0.0027
         6         0.0378      0.0301      0.0696      0.0072      0.0011
         7         0.3658      0.1062     -0.0038      0.1451      0.0216
         8         0.5084     -0.2854      0.0357      0.3412      0.0526
         9        -0.2480      0.0393     -0.0057      0.0631      0.0098
        10        -0.1396      0.0331      0.3048      0.1135      0.0178
 Ground to excited state transition velocity dipole moments (Au):
       state          X           Y           Z        Dip. S.      Osc.
         1        -0.3570      0.0035      0.0095      0.1276      0.6165
         2        -0.0897      0.0608     -0.0032      0.0117      0.0498
         3        -0.0867      0.1319     -0.0134      0.0251      0.0861
         4        -0.0839      0.1708      0.0066      0.0363      0.1223
         5         0.0271     -0.0083      0.0049      0.0008      0.0026
         6        -0.0078     -0.0062     -0.0191      0.0005      0.0014
         7        -0.0825     -0.0222      0.0006      0.0073      0.0218
         8        -0.1103      0.0619     -0.0074      0.0161      0.0463
         9         0.0595     -0.0078     -0.0025      0.0036      0.0103
        10         0.0314     -0.0069     -0.0643      0.0052      0.0146
 Ground to excited state transition magnetic dipole moments (Au):
       state          X           Y           Z
         1         0.0206     -0.0072      0.4139
         2         0.0028     -0.0556     -0.6349
         3        -0.0077     -0.0093     -0.1347
         4         0.0462     -0.0367     -0.0041
         5         0.1347     -0.0028      0.0022
         6         0.0194     -0.4016     -0.0223
         7         0.0143     -0.0536     -0.0034
         8         0.0110     -0.1011     -0.0042
         9         0.0522     -0.1155     -0.1142
        10         0.0269     -0.2252      0.0635
 Ground to excited state transition velocity quadrupole moments (Au):
       state          XX          YY          ZZ          XY          XZ          YZ
         1         0.1726     -0.0788     -0.0191      0.2754      0.0420     -0.0173
         2         0.0735      0.0062     -0.0037      0.0441      0.0110     -0.0055
         3         0.3403      0.0883     -0.0180     -0.5940      0.0152      0.0047
         4        -1.0908      0.1057     -0.0022      0.4122      0.1280     -0.0671
         5        -0.0097     -0.0059      0.0037     -0.0369      0.0104      0.0344
         6         0.1396     -0.0054     -0.0487      0.0091      0.2771      0.0119
         7        -1.1363      0.0727      0.0179     -0.2353      0.0039      0.0166
         8        -0.9958      0.1804      0.0706     -0.0151      0.1015     -0.0055
         9         0.4519     -0.1073      0.0129      0.0667     -0.0488     -0.0278
        10         0.0153     -0.0291      0.0414      0.0501      0.2293      0.0128
 <0|del|b> * <b|rxdel|0> + <0|del|b> * <b|delr+rdel|0>
 Rotatory Strengths (R) in cgs (10**-40 erg-esu-cm/Gauss)
       state          XX          YY          ZZ    R(velocity)    E-M Angle
         1        16.2715      0.3375    -34.3804     -5.9238       91.34
         2        -4.8341      5.4762     -7.7757     -2.3779       91.31
         3        11.9115    -10.7436      3.3745      1.5141       86.66
         4       -45.4828     -1.7985     10.9041    -12.1257      154.57
         5        -0.1026      8.0111      4.4519      4.1201       18.21
         6         7.1677      0.5675      1.1460      2.9604       71.40
         7         1.7975     -3.8184      2.0520      0.0103       90.00
         8       -18.9516     -1.0403     -2.7440     -7.5786      125.23
         9         0.9685      2.8805      9.1559      4.3350       65.23
        10        -6.2955      0.5717      0.6223     -1.7005       95.75
 1/2[<0|r|b>*<b|rxdel|0> + (<0|rxdel|b>*<b|r|0>)*]
 Rotatory Strengths (R) in cgs (10**-40 erg-esu-cm/Gauss)
       state          XX          YY          ZZ     R(length)
         1       -38.8501     -0.2360     18.4985     -6.8626
         2        -1.1406    -15.7106      9.0017     -2.6165
         3         2.7138     -4.4861      6.7927      1.6735
         4       -13.8487    -22.9588     -0.0857    -12.2977
         5        12.5530      0.0757      0.0345      4.2211
         6        -0.5178      8.5475      1.0974      3.0424
         7        -3.6922      4.0235     -0.0090      0.1074
         8        -3.9426    -20.3953      0.1068     -8.0770
         9         9.1622      3.2117     -0.4633      3.9702
        10         2.6542      5.2677    -13.6951     -1.9244
  1/2[<0|del|b>*<b|r|0> + (<0|r|b>*<b|del|0>)*] (Au)
       state          X           Y           Z        Dip. S.   Osc.(frdel)
         1        -0.9519     -0.0002     -0.0006      0.9526      0.6351
         2        -0.0523     -0.0243     -0.0001      0.0766      0.0511
         3        -0.0433     -0.0900     -0.0010      0.1342      0.0895
         4        -0.0356     -0.1513     -0.0002      0.1870      0.1247
         5        -0.0036     -0.0003     -0.0001      0.0040      0.0027
         6        -0.0003     -0.0002     -0.0013      0.0018      0.0012
         7        -0.0302     -0.0024     -0.0000      0.0325      0.0217
         8        -0.0561     -0.0177     -0.0003      0.0740      0.0493
         9        -0.0148     -0.0003      0.0000      0.0151      0.0100
        10        -0.0044     -0.0002     -0.0196      0.0242      0.0161

 Excitation energies and oscillator strengths:
 
 Excited State   1:      Singlet-A      3.7545 eV  330.23 nm  f=0.6543  <S**2>=0.000
      47 -> 48         0.70066
 This state for optimization and/or second-order correction.
 Total Energy, E(TD-HF/TD-DFT) =  -557.317053072    
 Copying the excited state density for this state as the 1-particle RhoCI density.
 
 Excited State   2:      Singlet-A      4.2749 eV  290.03 nm  f=0.0523  <S**2>=0.000
      46 -> 48         0.67133
      47 -> 49        -0.20725
 
 Excited State   3:      Singlet-A      5.2856 eV  234.57 nm  f=0.0932  <S**2>=0.000
      45 -> 48        -0.23420
      46 -> 48         0.18714
      46 -> 51         0.13363
      47 -> 49         0.61653
 
 Excited State   4:      Singlet-A      5.3757 eV  230.64 nm  f=0.1271  <S**2>=0.000
      45 -> 48         0.65188
      47 -> 49         0.22217
 
 Excited State   5:      Singlet-A      5.7343 eV  216.21 nm  f=0.0027  <S**2>=0.000
      41 -> 48         0.11854
      44 -> 48         0.68932
 
 Excited State   6:      Singlet-A      5.9980 eV  206.71 nm  f=0.0011  <S**2>=0.000
      47 -> 50         0.68958
 
 Excited State   7:      Singlet-A      6.0647 eV  204.44 nm  f=0.0216  <S**2>=0.000
      43 -> 48         0.68303
      46 -> 49        -0.10313
 
 Excited State   8:      Singlet-A      6.2952 eV  196.95 nm  f=0.0526  <S**2>=0.000
      46 -> 49        -0.36061
      47 -> 51         0.59256
 
 Excited State   9:      Singlet-A      6.3546 eV  195.11 nm  f=0.0098  <S**2>=0.000
      41 -> 48         0.14943
      42 -> 48         0.67409
 
 Excited State  10:      Singlet-A      6.3976 eV  193.80 nm  f=0.0178  <S**2>=0.000
      47 -> 52         0.64537
      47 -> 53        -0.20217
 SavETr:  write IOETrn=   770 NScale= 10 NData=  16 NLR=1 NState=   10 LETran=     190.
 Leave Link  914 at Wed Aug 12 17:50:30 2026, MaxMem=   104857600 cpu:             865.4 elap:             871.7
 (Enter /opt/packages/gaussian/g16RevC.01/g16/l601.exe)
 Copying SCF densities to generalized density rwf, IOpCl= 0 IROHF=0.

 **********************************************************************

            Population analysis using the SCF Density.

 **********************************************************************

 Orbital symmetries:
       Occupied  (A) (A) (A) (A) (A) (A) (A) (A) (A) (A) (A) (A)
                 (A) (A) (A) (A) (A) (A) (A) (A) (A) (A) (A) (A)
                 (A) (A) (A) (A) (A) (A) (A) (A) (A) (A) (A) (A)
                 (A) (A) (A) (A) (A) (A) (A) (A) (A) (A) (A)
       Virtual   (A) (A) (A) (A) (A) (A) (A) (A) (A) (A) (A) (A)
                 (A) (A) (A) (A) (A) (A) (A) (A) (A) (A) (A) (A)
                 (A) (A) (A) (A) (A) (A) (A) (A) (A) (A) (A) (A)
                 (A) (A) (A) (A) (A) (A) (A) (A) (A) (A) (A) (A)
                 (A) (A) (A) (A) (A) (A) (A) (A) (A) (A) (A) (A)
                 (A) (A) (A) (A) (A) (A) (A) (A) (A) (A) (A) (A)
                 (A) (A) (A) (A) (A) (A) (A) (A) (A) (A) (A) (A)
                 (A) (A) (A) (A) (A) (A) (A) (A) (A) (A) (A) (A)
                 (A) (A) (A) (A) (A) (A) (A) (A) (A) (A) (A) (A)
                 (A) (A) (A) (A) (A) (A) (A) (A) (A) (A) (A) (A)
                 (A) (A) (A) (A) (A) (A) (A) (A) (A) (A) (A) (A)
                 (A) (A) (A) (A) (A) (A) (A) (A) (A) (A) (A) (A)
                 (A) (A) (A) (A) (A) (A) (A) (A) (A) (A) (A) (A)
                 (A) (A) (A) (A) (A) (A) (A) (A) (A) (A) (A) (A)
                 (A) (A) (A) (A) (A) (A) (A) (A) (A) (A) (A) (A)
                 (A) (A) (A) (A) (A) (A) (A) (A) (A) (A) (A) (A)
                 (A) (A) (A) (A) (A) (A) (A) (A) (A) (A) (A) (A)
                 (A) (A) (A) (A) (A) (A) (A) (A) (A) (A) (A) (A)
                 (A) (A) (A) (A) (A) (A) (A) (A) (A) (A) (A)
 The electronic state is 1-A.
 Alpha  occ. eigenvalues --  -19.21226 -14.41588 -10.30283 -10.28827 -10.24158
 Alpha  occ. eigenvalues --  -10.23593 -10.23010 -10.22948 -10.22328 -10.21408
 Alpha  occ. eigenvalues --  -10.21365 -10.21020 -10.20086  -1.09589  -0.99836
 Alpha  occ. eigenvalues --   -0.87687  -0.80543  -0.79815  -0.77604  -0.74903
 Alpha  occ. eigenvalues --   -0.70634  -0.64403  -0.63202  -0.61461  -0.60573
 Alpha  occ. eigenvalues --   -0.56444  -0.54140  -0.51140  -0.50145  -0.48142
 Alpha  occ. eigenvalues --   -0.47458  -0.45825  -0.45228  -0.44008  -0.43038
 Alpha  occ. eigenvalues --   -0.42587  -0.41153  -0.40635  -0.38987  -0.38379
 Alpha  occ. eigenvalues --   -0.37410  -0.36771  -0.34661  -0.34459  -0.31610
 Alpha  occ. eigenvalues --   -0.28230  -0.24507
 Alpha virt. eigenvalues --   -0.09789  -0.02900   0.00213   0.00951   0.01590
 Alpha virt. eigenvalues --    0.02203   0.02839   0.03052   0.03367   0.04223
 Alpha virt. eigenvalues --    0.04866   0.05135   0.05286   0.06461   0.06986
 Alpha virt. eigenvalues --    0.07370   0.07900   0.08200   0.09451   0.09930
 Alpha virt. eigenvalues --    0.10613   0.11195   0.11488   0.12122   0.12303
 Alpha virt. eigenvalues --    0.12517   0.13145   0.13741   0.14006   0.14208
 Alpha virt. eigenvalues --    0.14778   0.15107   0.15599   0.16179   0.16739
 Alpha virt. eigenvalues --    0.17329   0.17985   0.18132   0.18630   0.19352
 Alpha virt. eigenvalues --    0.19817   0.20227   0.20738   0.20972   0.21327
 Alpha virt. eigenvalues --    0.22075   0.22533   0.23133   0.23695   0.23902
 Alpha virt. eigenvalues --    0.24284   0.25039   0.25178   0.25824   0.26112
 Alpha virt. eigenvalues --    0.26624   0.27191   0.28115   0.28314   0.28777
 Alpha virt. eigenvalues --    0.29686   0.29801   0.30130   0.30772   0.30892
 Alpha virt. eigenvalues --    0.31564   0.31826   0.32903   0.33305   0.34082
 Alpha virt. eigenvalues --    0.35136   0.35552   0.36208   0.37759   0.39266
 Alpha virt. eigenvalues --    0.40254   0.42234   0.42749   0.44436   0.45531
 Alpha virt. eigenvalues --    0.46085   0.55133   0.58137   0.62907   0.65295
 Alpha virt. eigenvalues --    0.66014   0.66374   0.66750   0.67712   0.68123
 Alpha virt. eigenvalues --    0.68623   0.68811   0.69720   0.70872   0.71774
 Alpha virt. eigenvalues --    0.71869   0.72598   0.74268   0.74889   0.75124
 Alpha virt. eigenvalues --    0.75640   0.77379   0.79417   0.82586   0.83460
 Alpha virt. eigenvalues --    0.85149   0.87539   0.90101   0.91586   0.92160
 Alpha virt. eigenvalues --    0.92724   0.94241   0.95101   0.96169   0.96869
 Alpha virt. eigenvalues --    0.97808   0.98386   1.00619   1.02957   1.03502
 Alpha virt. eigenvalues --    1.05247   1.05981   1.06926   1.08840   1.09548
 Alpha virt. eigenvalues --    1.10556   1.12593   1.13428   1.14933   1.15355
 Alpha virt. eigenvalues --    1.17821   1.19768   1.20904   1.21779   1.22166
 Alpha virt. eigenvalues --    1.24739   1.26725   1.28245   1.28845   1.32911
 Alpha virt. eigenvalues --    1.33065   1.35323   1.38817   1.40727   1.41702
 Alpha virt. eigenvalues --    1.42714   1.43220   1.44395   1.47234   1.48107
 Alpha virt. eigenvalues --    1.53193   1.54382   1.54787   1.60080   1.63742
 Alpha virt. eigenvalues --    1.70336   1.72850   1.75188   1.77648   1.80146
 Alpha virt. eigenvalues --    1.81399   1.82607   1.86138   1.87202   1.88325
 Alpha virt. eigenvalues --    1.91439   1.93126   1.93352   1.96247   1.98034
 Alpha virt. eigenvalues --    1.99703   2.01104   2.02072   2.04114   2.05828
 Alpha virt. eigenvalues --    2.08356   2.09674   2.10225   2.11797   2.13710
 Alpha virt. eigenvalues --    2.17072   2.19076   2.19934   2.21527   2.23045
 Alpha virt. eigenvalues --    2.27423   2.29186   2.29307   2.30132   2.33514
 Alpha virt. eigenvalues --    2.36667   2.36931   2.41674   2.45703   2.49193
 Alpha virt. eigenvalues --    2.52274   2.53628   2.56505   2.58647   2.60967
 Alpha virt. eigenvalues --    2.62208   2.66584   2.69151   2.74303   2.75591
 Alpha virt. eigenvalues --    2.77922   2.81292   2.82383   2.87035   3.01770
 Alpha virt. eigenvalues --    3.02423   3.09515   3.22609   3.38406   4.08057
 Alpha virt. eigenvalues --    4.22277   4.24549   4.25237   4.27666   4.31341
 Alpha virt. eigenvalues --    4.35442   4.37293   4.42906   4.48795   4.56470
 Alpha virt. eigenvalues --    4.62821   4.77822
          Condensed to atoms (all electrons):
               1          2          3          4          5          6
     1  C    6.812070  -0.002941   0.366106  -1.120240  -0.044546  -0.141346
     2  C   -0.002941  13.388756  -7.203128   0.422371   0.894227  -1.301585
     3  C    0.366106  -7.203128  19.154884  -2.825952  -4.826137  -0.386698
     4  C   -1.120240   0.422371  -2.825952   9.950161  -1.102460   1.295819
     5  C   -0.044546   0.894227  -4.826137  -1.102460  14.269357  -2.673827
     6  C   -0.141346  -1.301585  -0.386698   1.295819  -2.673827  10.887686
     7  H   -0.065069   0.023489  -0.022777   0.040463  -0.076548   0.408395
     8  H   -0.036238   0.236359   0.083404   0.027448  -0.017101   0.022115
     9  H    0.005271  -0.004656   0.283762  -0.051374   0.023905  -0.027261
    10  H    0.030299  -0.028516   0.034051  -0.040678   0.316748  -0.021409
    11  O    0.408966   0.233731  -0.078310  -0.026484   0.012204  -0.559755
    12  C   -0.127183  -0.178149   0.041623  -0.024361   0.017086   0.092120
    13  H   -0.050328   0.008316   0.035693  -0.001038  -0.001081  -0.001934
    14  H   -0.053967   0.011444   0.034278  -0.000145   0.001890  -0.004607
    15  H    0.034126  -0.036608  -0.012396  -0.000160   0.000335   0.022083
    16  C    0.056766  -0.831435   0.952693  -0.556349   1.032544  -0.527001
    17  C    0.043109  -0.564272   1.041084  -0.667726  -0.898455  -0.332387
    18  N   -0.020940   0.199386  -0.188212   0.217016  -0.032569   0.032569
    19  C    0.000586  -0.000095  -0.183727  -0.046776   0.119347  -0.047184
    20  C   -0.002011   0.031908   0.170733   0.019696  -0.165391  -0.025705
    21  H   -0.000847   0.001844  -0.004904  -0.030372  -0.005672   0.002722
    22  H   -0.000427   0.008357   0.002734  -0.008059   0.000282  -0.005872
    23  H   -0.000228   0.003248   0.011427  -0.007490  -0.007049   0.000301
    24  H    0.000035  -0.002437  -0.007083   0.001277   0.001714  -0.000096
    25  H   -0.000059   0.001625   0.010111   0.001948  -0.007818  -0.000265
    26  H    0.000058  -0.000446   0.000075   0.001197  -0.001530  -0.000545
    27  H    0.001358   0.046879   0.062533  -0.057685  -0.031483  -0.001382
               7          8          9         10         11         12
     1  C   -0.065069  -0.036238   0.005271   0.030299   0.408966  -0.127183
     2  C    0.023489   0.236359  -0.004656  -0.028516   0.233731  -0.178149
     3  C   -0.022777   0.083404   0.283762   0.034051  -0.078310   0.041623
     4  C    0.040463   0.027448  -0.051374  -0.040678  -0.026484  -0.024361
     5  C   -0.076548  -0.017101   0.023905   0.316748   0.012204   0.017086
     6  C    0.408395   0.022115  -0.027261  -0.021409  -0.559755   0.092120
     7  H    0.465657  -0.000097   0.000011  -0.003658  -0.003430  -0.001223
     8  H   -0.000097   0.463928  -0.004058   0.000012  -0.010822  -0.002688
     9  H    0.000011  -0.004058   0.475286  -0.000096  -0.000631   0.000622
    10  H   -0.003658   0.000012  -0.000096   0.466205  -0.000437   0.000294
    11  O   -0.003430  -0.010822  -0.000631  -0.000437   8.479796   0.066645
    12  C   -0.001223  -0.002688   0.000622   0.000294   0.066645   5.291457
    13  H    0.000001  -0.000713   0.000003   0.000000  -0.033499   0.384658
    14  H    0.000002  -0.000809   0.000002   0.000000  -0.032882   0.384344
    15  H   -0.000007   0.000112  -0.000000  -0.000000  -0.051682   0.392939
    16  C   -0.002511  -0.002438   0.040261  -0.001208  -0.004563   0.002917
    17  C    0.000522  -0.000042   0.015104   0.002197  -0.001016  -0.000109
    18  N    0.000082   0.000399   0.000733   0.000131  -0.000017  -0.000076
    19  C   -0.000002   0.000055   0.006743   0.000787  -0.000064   0.000188
    20  C   -0.000055  -0.000013  -0.001019  -0.000027   0.000088  -0.000099
    21  H    0.000001  -0.000000   0.000000  -0.000224   0.000001  -0.000008
    22  H   -0.000000  -0.000000  -0.000002  -0.000761  -0.000000   0.000004
    23  H    0.000000   0.000000  -0.000002  -0.000000   0.000000   0.000000
    24  H    0.000000   0.000000   0.000001   0.000000  -0.000000  -0.000000
    25  H    0.000000   0.000000  -0.000001  -0.000004   0.000000   0.000000
    26  H    0.000000   0.000000   0.000000   0.000001  -0.000000  -0.000000
    27  H    0.000000  -0.000001   0.003933  -0.000001  -0.000002   0.000015
              13         14         15         16         17         18
     1  C   -0.050328  -0.053967   0.034126   0.056766   0.043109  -0.020940
     2  C    0.008316   0.011444  -0.036608  -0.831435  -0.564272   0.199386
     3  C    0.035693   0.034278  -0.012396   0.952693   1.041084  -0.188212
     4  C   -0.001038  -0.000145  -0.000160  -0.556349  -0.667726   0.217016
     5  C   -0.001081   0.001890   0.000335   1.032544  -0.898455  -0.032569
     6  C   -0.001934  -0.004607   0.022083  -0.527001  -0.332387   0.032569
     7  H    0.000001   0.000002  -0.000007  -0.002511   0.000522   0.000082
     8  H   -0.000713  -0.000809   0.000112  -0.002438  -0.000042   0.000399
     9  H    0.000003   0.000002  -0.000000   0.040261   0.015104   0.000733
    10  H    0.000000   0.000000  -0.000000  -0.001208   0.002197   0.000131
    11  O   -0.033499  -0.032882  -0.051682  -0.004563  -0.001016  -0.000017
    12  C    0.384658   0.384344   0.392939   0.002917  -0.000109  -0.000076
    13  H    0.478654  -0.035599  -0.024457   0.000450   0.000020  -0.000001
    14  H   -0.035599   0.478660  -0.024747   0.000579   0.000011   0.000004
    15  H   -0.024457  -0.024747   0.461465  -0.000132  -0.000005  -0.000000
    16  C    0.000450   0.000579  -0.000132   6.838484  -1.471715   0.295995
    17  C    0.000020   0.000011  -0.000005  -1.471715   9.438384  -0.382391
    18  N   -0.000001   0.000004  -0.000000   0.295995  -0.382391   6.992739
    19  C   -0.000004   0.000005  -0.000000  -0.449640   0.345325   0.078798
    20  C    0.000004  -0.000004   0.000000   0.264997  -0.909386  -0.063811
    21  H    0.000000  -0.000000   0.000000  -0.098013   0.445515   0.010382
    22  H   -0.000000   0.000000   0.000000   0.022492   0.292695   0.004049
    23  H    0.000000  -0.000000   0.000000  -0.006246   0.005015  -0.037657
    24  H   -0.000000   0.000000  -0.000000  -0.014817   0.048031  -0.041232
    25  H   -0.000000   0.000000  -0.000000   0.037463  -0.126077   0.015225
    26  H    0.000000  -0.000000   0.000000   0.013798  -0.070604   0.005528
    27  H    0.000000   0.000000  -0.000000  -0.019959  -0.017131   0.262502
              19         20         21         22         23         24
     1  C    0.000586  -0.002011  -0.000847  -0.000427  -0.000228   0.000035
     2  C   -0.000095   0.031908   0.001844   0.008357   0.003248  -0.002437
     3  C   -0.183727   0.170733  -0.004904   0.002734   0.011427  -0.007083
     4  C   -0.046776   0.019696  -0.030372  -0.008059  -0.007490   0.001277
     5  C    0.119347  -0.165391  -0.005672   0.000282  -0.007049   0.001714
     6  C   -0.047184  -0.025705   0.002722  -0.005872   0.000301  -0.000096
     7  H   -0.000002  -0.000055   0.000001  -0.000000   0.000000   0.000000
     8  H    0.000055  -0.000013  -0.000000  -0.000000   0.000000   0.000000
     9  H    0.006743  -0.001019   0.000000  -0.000002  -0.000002   0.000001
    10  H    0.000787  -0.000027  -0.000224  -0.000761  -0.000000   0.000000
    11  O   -0.000064   0.000088   0.000001  -0.000000   0.000000  -0.000000
    12  C    0.000188  -0.000099  -0.000008   0.000004   0.000000  -0.000000
    13  H   -0.000004   0.000004   0.000000  -0.000000   0.000000  -0.000000
    14  H    0.000005  -0.000004  -0.000000   0.000000  -0.000000   0.000000
    15  H   -0.000000   0.000000   0.000000   0.000000   0.000000  -0.000000
    16  C   -0.449640   0.264997  -0.098013   0.022492  -0.006246  -0.014817
    17  C    0.345325  -0.909386   0.445515   0.292695   0.005015   0.048031
    18  N    0.078798  -0.063811   0.010382   0.004049  -0.037657  -0.041232
    19  C    6.092404  -0.295674   0.027112  -0.001393   0.402339   0.426149
    20  C   -0.295674   6.827652  -0.028777  -0.009604  -0.054370  -0.085262
    21  H    0.027112  -0.028777   0.436424  -0.024700  -0.000210  -0.000042
    22  H   -0.001393  -0.009604  -0.024700   0.433274   0.001569  -0.000167
    23  H    0.402339  -0.054370  -0.000210   0.001569   0.472838  -0.033389
    24  H    0.426149  -0.085262  -0.000042  -0.000167  -0.033389   0.467673
    25  H   -0.090936   0.477985  -0.005302   0.003108   0.003198  -0.005449
    26  H   -0.044951   0.424740   0.000871  -0.004835  -0.003370   0.001156
    27  H   -0.037641   0.025017  -0.000074  -0.000197   0.000059  -0.000866
              25         26         27
     1  C   -0.000059   0.000058   0.001358
     2  C    0.001625  -0.000446   0.046879
     3  C    0.010111   0.000075   0.062533
     4  C    0.001948   0.001197  -0.057685
     5  C   -0.007818  -0.001530  -0.031483
     6  C   -0.000265  -0.000545  -0.001382
     7  H    0.000000   0.000000   0.000000
     8  H    0.000000   0.000000  -0.000001
     9  H   -0.000001   0.000000   0.003933
    10  H   -0.000004   0.000001  -0.000001
    11  O    0.000000  -0.000000  -0.000002
    12  C    0.000000  -0.000000   0.000015
    13  H   -0.000000   0.000000   0.000000
    14  H    0.000000  -0.000000   0.000000
    15  H   -0.000000   0.000000  -0.000000
    16  C    0.037463   0.013798  -0.019959
    17  C   -0.126077  -0.070604  -0.017131
    18  N    0.015225   0.005528   0.262502
    19  C   -0.090936  -0.044951  -0.037641
    20  C    0.477985   0.424740   0.025017
    21  H   -0.005302   0.000871  -0.000074
    22  H    0.003108  -0.004835  -0.000197
    23  H    0.003198  -0.003370   0.000059
    24  H   -0.005449   0.001156  -0.000866
    25  H    0.463031  -0.025193  -0.000167
    26  H   -0.025193   0.461843  -0.000082
    27  H   -0.000167  -0.000082   0.281179
 Mulliken charges:
               1
     1  C   -0.092380
     2  C    0.642329
     3  C   -0.545869
     4  C    0.589955
     5  C   -0.797971
     6  C   -0.704951
     7  H    0.236753
     8  H    0.241188
     9  H    0.233463
    10  H    0.246295
    11  O   -0.397836
    12  C   -0.341015
    13  H    0.240854
    14  H    0.241539
    15  H    0.239134
    16  C    0.426587
    17  C   -0.235697
    18  N   -0.348631
    19  C   -0.301748
    20  C   -0.601610
    21  H    0.274273
    22  H    0.287453
    23  H    0.250017
    24  H    0.244804
    25  H    0.247576
    26  H    0.242292
    27  H    0.483194
 Sum of Mulliken charges =   1.00000
 Mulliken charges with hydrogens summed into heavy atoms:
               1
     1  C   -0.092380
     2  C    0.883517
     3  C   -0.312406
     4  C    0.589955
     5  C   -0.551676
     6  C   -0.468198
    11  O   -0.397836
    12  C    0.380513
    16  C    0.426587
    17  C    0.326029
    18  N    0.134564
    19  C    0.193073
    20  C   -0.111742
 Electronic spatial extent (au):  <R**2>=           3413.9241
 Charge=              1.0000 electrons
 Dipole moment (field-independent basis, Debye):
    X=              5.3335    Y=             -3.3250    Z=             -0.6191  Tot=              6.3155
 Quadrupole moment (field-independent basis, Debye-Ang):
   XX=            -24.0610   YY=            -58.8679   ZZ=            -77.5647
   XY=              4.9321   XZ=             -2.8448   YZ=              0.4971
 Traceless Quadrupole moment (field-independent basis, Debye-Ang):
   XX=             29.4369   YY=             -5.3700   ZZ=            -24.0668
   XY=              4.9321   XZ=             -2.8448   YZ=              0.4971
 Octapole moment (field-independent basis, Debye-Ang**2):
  XXX=              6.7695  YYY=            -11.6395  ZZZ=             -0.6407  XYY=             12.5327
  XXY=            -47.6005  XXZ=             -2.8130  XZZ=              6.2919  YZZ=             -1.5662
  YYZ=             -3.2420  XYZ=              3.3582
 Hexadecapole moment (field-independent basis, Debye-Ang**3):
 XXXX=          -2834.0017 YYYY=           -470.2923 ZZZZ=           -121.0931 XXXY=            103.3175
 XXXZ=            -37.1578 YYYX=            -28.3976 YYYZ=              0.7545 ZZZX=             -3.8740
 ZZZY=              2.8079 XXYY=           -642.8678 XXZZ=           -643.1412 YYZZ=           -114.7865
 XXYZ=              1.0537 YYXZ=             -5.8390 ZZXY=              4.1504
 N-N= 7.519383108650D+02 E-N=-2.781644834725D+03  KE= 5.517333759876D+02
 Leave Link  601 at Wed Aug 12 17:50:30 2026, MaxMem=   104857600 cpu:               0.1 elap:               0.1
 (Enter /opt/packages/gaussian/g16RevC.01/g16/l9999.exe)
 Electronic transition elements 
                 1             2             3             4             5 
      1  -0.557317D+03 -0.557298D+03 -0.557261D+03 -0.557257D+03 -0.557244D+03
      2   0.266615D+01  0.582705D+00  0.499277D+00  0.424291D+00 -0.131700D+00
      3  -0.468246D-01 -0.398928D+00 -0.680889D+00 -0.885869D+00  0.384933D-01
      4  -0.559006D-01  0.263040D-01  0.807115D-01 -0.181601D-01 -0.231211D-01
      5  -0.357067D+00 -0.896884D-01 -0.866902D-01 -0.839544D-01  0.270758D-01
      6   0.351850D-02  0.606985D-01  0.131734D+00  0.170835D+00 -0.828515D-02
      7   0.851428D-02 -0.417355D-02 -0.152211D-01  0.437473D-02  0.509928D-02
      8   0.195612D-01  0.438094D-02 -0.734293D-02  0.461919D-01  0.134727D+00
      9  -0.221397D-02 -0.632388D-01 -0.109180D-01 -0.366962D-01 -0.271167D-02
     10   0.414019D+00 -0.634149D+00 -0.134642D+00 -0.350629D-02  0.256015D-02
     11   0.172303D+00  0.734468D-01  0.340382D+00 -0.109157D+01 -0.975083D-02
     12  -0.791544D-01  0.612097D-02  0.881992D-01  0.104185D+00 -0.512301D-02
     13  -0.184670D-01 -0.351496D-02 -0.179981D-01  0.833736D-05  0.294524D-02
     14   0.275939D+00  0.442237D-01 -0.593742D+00  0.413703D+00 -0.368584D-01
     15   0.391478D-01  0.106855D-01  0.232628D-01  0.120302D+00  0.108205D-01
     16  -0.158811D-01 -0.552994D-02  0.188642D-02 -0.673147D-01  0.344324D-01
                 6             7             8             9            10 
      1  -0.557235D+03 -0.557232D+03 -0.557224D+03 -0.557221D+03 -0.557220D+03
      2   0.376399D-01  0.365760D+00  0.508385D+00 -0.248035D+00 -0.140387D+00
      3   0.309366D-01  0.106211D+00 -0.284820D+00  0.391983D-01  0.367003D-01
      4   0.693761D-01 -0.413008D-02  0.403968D-01 -0.683551D-02  0.304008D+00
      5  -0.779064D-02 -0.824560D-01 -0.110290D+00  0.595253D-01  0.315302D-01
      6  -0.644131D-02 -0.221957D-01  0.618220D-01 -0.784348D-02 -0.762393D-02
      7  -0.190425D-01  0.652292D-03 -0.841116D-02 -0.222421D-02 -0.641107D-01
      8   0.194715D-01  0.142903D-01  0.109898D-01  0.525377D-01  0.267541D-01
      9  -0.401820D+00 -0.536076D-01 -0.101113D+00 -0.116881D+00 -0.224434D+00
     10  -0.174197D-01 -0.270026D-02 -0.299313D-02 -0.112648D+00  0.663025D-01
     11   0.138243D+00 -0.113622D+01 -0.996309D+00  0.452167D+00  0.141374D-01
     12  -0.511906D-02  0.729769D-01  0.180208D+00 -0.107904D+00 -0.287626D-01
     13  -0.476047D-01  0.175029D-01  0.712337D-01  0.132533D-01  0.422507D-01
     14   0.123764D-01 -0.235517D+00 -0.140985D-01  0.662304D-01  0.528043D-01
     15   0.277458D+00  0.378388D-02  0.989310D-01 -0.484548D-01  0.228594D+00
     16   0.114224D-01  0.153329D-01 -0.685697D-02 -0.261630D-01  0.138153D-01
 Unable to Open any file for archive entry.
 1\1\GINC-R043\SP\RB3LYP TD-FC\6-31+G(d)\C11H14N1O1(1+)\ZLAB\12-Aug-202
 6\0\\#p TD(NStates=10) B3LYP/6-31+G(d) Geom=AllCheck SCRF=(SMD,Solvent
 =Methanol)\\S1 excited-state optimization\\1,1\C,0,-2.4928649682,0.244
 6072153,-0.0252095779\C,0,-1.8680188834,-1.0194983461,0.0896196653\C,0
 ,-0.4886075978,-1.0953831945,0.1052990603\C,0,0.3350110677,0.091897116
 7,-0.010543098\C,0,-0.3198452789,1.3531308111,-0.1310968885\C,0,-1.696
 5893469,1.4346072496,-0.1310668316\H,0,-2.2060878177,2.3899613184,-0.2
 12140934\H,0,-2.458813538,-1.9256904981,0.1639275626\H,0,-0.0249323326
 ,-2.0702008447,0.2135530609\H,0,0.267021877,2.2607901411,-0.2231017384
 \O,0,-3.8142946356,0.4515057992,-0.0501651531\C,0,-4.729751087,-0.6551
 647782,0.059530721\H,0,-4.5735794004,-1.1757979466,1.0105365569\H,0,-4
 .5861900213,-1.342951195,-0.7811001926\H,0,-5.7230548805,-0.2089920938
 ,0.0241527607\C,0,1.7753179982,0.0261759761,-0.0164730739\C,0,2.749654
 1506,1.1657698159,0.0259203798\N,0,2.4543946844,-1.1510339616,-0.07920
 20951\C,0,3.8973809398,-0.9623972664,-0.2022791432\C,0,4.0939881773,0.
 4641374925,0.3359914635\H,0,2.4835105285,1.9236942703,0.7717139251\H,0
 ,2.7817159465,1.6781661039,-0.950650396\H,0,4.1919465412,-1.0455075241
 ,-1.2618051185\H,0,4.4346784018,-1.735606332,0.3569393746\H,0,4.256746
 2736,0.431526956,1.4189933442\H,0,4.9490296385,0.9631847328,-0.1265259
 23\H,0,2.0191435631,-2.0356710177,-0.3268077113\\Version=ES64L-G16RevC
 .01\State=1-A\HF=-557.4550275\RMSD=4.869e-09\PG=C01 [X(C11H14N1O1)]\\@
 The archive entry for this job was punched.


 HE THAT WALD REACHE THE SWEITE ROSE
 SULD NOW AND THEN BE SCRATCHED WT THE SCHARPE BREERES.
 -- PROVERBS AND REASONS OF THE YEAR 1585
           AS REPRINTED IN PAISLEY MAGAZINE 1828.
 Job cpu time:       0 days  0 hours 17 minutes 42.8 seconds.
 Elapsed time:       0 days  0 hours 17 minutes 52.5 seconds.
 File lengths (MBytes):  RWF=    695 Int=      0 D2E=      0 Chk=     51 Scr=      1
 Normal termination of Gaussian 16 at Wed Aug 12 17:50:30 2026.
