 Entering Gaussian System, Link 0=g16
 Initial command:
 /opt/packages/gaussian/g16RevC.01/g16/l1.exe "/ocean/projects/che200051p/zlab/tmp/Gau-95432.inp" -scrdir="/ocean/projects/che200051p/zlab/tmp/"
 Entering Link 1 = /opt/packages/gaussian/g16RevC.01/g16/l1.exe PID=     95433.
  
 Copyright (c) 1988-2019, Gaussian, Inc.  All Rights Reserved.
  
 This is part of the Gaussian(R) 16 program.  It is based on
 the Gaussian(R) 09 system (copyright 2009, Gaussian, Inc.),
 the Gaussian(R) 03 system (copyright 2003, Gaussian, Inc.),
 the Gaussian(R) 98 system (copyright 1998, Gaussian, Inc.),
 the Gaussian(R) 94 system (copyright 1995, Gaussian, Inc.),
 the Gaussian 92(TM) system (copyright 1992, Gaussian, Inc.),
 the Gaussian 90(TM) system (copyright 1990, Gaussian, Inc.),
 the Gaussian 88(TM) system (copyright 1988, Gaussian, Inc.),
 the Gaussian 86(TM) system (copyright 1986, Carnegie Mellon
 University), and the Gaussian 82(TM) system (copyright 1983,
 Carnegie Mellon University). Gaussian is a federally registered
 trademark of Gaussian, Inc.
  
 This software contains proprietary and confidential information,
 including trade secrets, belonging to Gaussian, Inc.
  
 This software is provided under written license and may be
 used, copied, transmitted, or stored only in accord with that
 written license.
  
 The following legend is applicable only to US Government
 contracts under FAR:
  
                    RESTRICTED RIGHTS LEGEND
  
 Use, reproduction and disclosure by the US Government is
 subject to restrictions as set forth in subparagraphs (a)
 and (c) of the Commercial Computer Software - Restricted
 Rights clause in FAR 52.227-19.
  
 Gaussian, Inc.
 340 Quinnipiac St., Bldg. 40, Wallingford CT 06492
  
  
 ---------------------------------------------------------------
 Warning -- This program may not be used in any manner that
 competes with the business of Gaussian, Inc. or will provide
 assistance to any competitor of Gaussian, Inc.  The licensee
 of this program is prohibited from giving any competitor of
 Gaussian, Inc. access to this program.  By using this program,
 the user acknowledges that Gaussian, Inc. is engaged in the
 business of creating and licensing software in the field of
 computational chemistry and represents and warrants to the
 licensee that it is not a competitor of Gaussian, Inc. and that
 it will not use this program in any manner prohibited above.
 ---------------------------------------------------------------
  

 Cite this work as:
 Gaussian 16, Revision C.01,
 M. J. Frisch, G. W. Trucks, H. B. Schlegel, G. E. Scuseria, 
 M. A. Robb, J. R. Cheeseman, G. Scalmani, V. Barone, 
 G. A. Petersson, H. Nakatsuji, X. Li, M. Caricato, A. V. Marenich, 
 J. Bloino, B. G. Janesko, R. Gomperts, B. Mennucci, H. P. Hratchian, 
 J. V. Ortiz, A. F. Izmaylov, J. L. Sonnenberg, D. Williams-Young, 
 F. Ding, F. Lipparini, F. Egidi, J. Goings, B. Peng, A. Petrone, 
 T. Henderson, D. Ranasinghe, V. G. Zakrzewski, J. Gao, N. Rega, 
 G. Zheng, W. Liang, M. Hada, M. Ehara, K. Toyota, R. Fukuda, 
 J. Hasegawa, M. Ishida, T. Nakajima, Y. Honda, O. Kitao, H. Nakai, 
 T. Vreven, K. Throssell, J. A. Montgomery, Jr., J. E. Peralta, 
 F. Ogliaro, M. J. Bearpark, J. J. Heyd, E. N. Brothers, K. N. Kudin, 
 V. N. Staroverov, T. A. Keith, R. Kobayashi, J. Normand, 
 K. Raghavachari, A. P. Rendell, J. C. Burant, S. S. Iyengar, 
 J. Tomasi, M. Cossi, J. M. Millam, M. Klene, C. Adamo, R. Cammi, 
 J. W. Ochterski, R. L. Martin, K. Morokuma, O. Farkas, 
 J. B. Foresman, and D. J. Fox, Gaussian, Inc., Wallingford CT, 2019.
 
 ******************************************
 Gaussian 16:  ES64L-G16RevC.01  3-Jul-2019
                24-Jun-2026 
 ******************************************
 %chk=iminium_singlet.chk
 %mem=30GB
 %nprocshared=8
 Will use up to    8 processors via shared memory.
 ----------------------------------------------------------------------
 #p B3LYP/6-31+G(d) Opt TD(NStates=5,Root=1,Singlets) SCRF=(SMD,Solvent
 =Methanol)
 ----------------------------------------------------------------------
 1/18=20,19=15,26=3,38=1/1,3;
 2/9=110,12=2,17=6,18=5,40=1/2;
 3/5=1,6=6,7=11,11=9,25=1,30=1,70=32201,71=1,72=3,74=-5/1,2,3,8;
 4//1;
 5/5=2,38=5,53=3/2;
 8/6=1,10=2,107=1,108=5/1;
 9/8=1,15=2,41=5,42=1,48=1,70=2/14;
 10/5=4,28=1/2;
 6/7=2,8=2,9=2,10=2/1;
 7/12=6,13=5,14=1/1,2,3,16;
 1/18=20,19=15,26=3/3(2);
 2/9=110/2;
 99//99;
 2/9=110/2;
 3/5=1,6=6,7=11,11=9,25=1,30=1,70=32205,71=1,72=3,74=-5/1,2,3,8;
 4/5=5,16=3,69=1/1;
 5/5=2,38=5,53=3/2;
 8/6=1,10=2,107=1,108=5/1;
 9/8=1,15=2,41=5,42=1,48=1,49=4,70=2/14;
 10/5=4,28=1/2;
 7/12=6,13=5,14=1/1,2,3,16;
 1/18=20,19=15,26=3/3(-8);
 2/9=110/2;
 6/7=2,8=2,9=2,10=2/1;
 99/9=10/99;
 Leave Link    1 at Wed Jun 24 11:34:21 2026, MaxMem=  4026531840 cpu:               1.0 elap:               0.1
 (Enter /opt/packages/gaussian/g16RevC.01/g16/l101.exe)
 ---------------------------------------
 Singlet excited-state optimization (S1)
 ---------------------------------------
 Symbolic Z-matrix:
 Charge =  1 Multiplicity = 1
 C                     2.4891    0.18352   0.22156 
 C                     1.80543  -0.79831  -0.56024 
 C                     0.43257  -0.7997   -0.5526 
 C                    -0.31673   0.16697   0.19272 
 C                     0.38739   1.1402    0.95789 
 C                     1.75965   1.15964   0.98001 
 H                     2.32177   1.88616   1.55948 
 H                     2.36045  -1.52115  -1.14603 
 H                    -0.10329  -1.53935  -1.14079 
 H                    -0.18604   1.86188   1.53419 
 O                     3.7965    0.27144   0.31523 
 C                     4.68665  -0.63775  -0.38887 
 H                     4.57332  -0.50251  -1.46737 
 H                     4.47899  -1.66735  -0.08749 
 H                     5.68756  -0.34741  -0.07298 
 C                    -1.79529   0.14579   0.19163 
 C                    -2.60035  -0.96409   0.82318 
 N                    -2.48395   0.60205  -0.9331 
 C                    -3.90396   0.20055  -0.88511 
 C                    -4.04434  -0.53913   0.4613 
 H                    -2.44087  -1.02517   1.90543 
 H                    -2.36499  -1.95655   0.3996 
 H                    -4.11996  -0.4567   -1.73678 
 H                    -4.55959   1.07462  -0.95492 
 H                    -4.42408   0.14727   1.22751 
 H                    -4.7278   -1.39191   0.39943 
 H                    -2.24437   1.49782  -1.34585 
 
 ITRead=  0  0  0  0  0  0  0  0  0  0  0  0  0  0  0  0  0  0  0  0
 ITRead=  0  0  0  0  0  0  0
 MicOpt= -1 -1 -1 -1 -1 -1 -1 -1 -1 -1 -1 -1 -1 -1 -1 -1 -1 -1 -1 -1
 MicOpt= -1 -1 -1 -1 -1 -1 -1
 NAtoms=     27 NQM=       27 NQMF=       0 NMMI=      0 NMMIF=      0
                NMic=       0 NMicF=      0.
                    Isotopes and Nuclear Properties:
 (Nuclear quadrupole moments (NQMom) in fm**2, nuclear magnetic moments (NMagM)
  in nuclear magnetons)

  Atom         1           2           3           4           5           6           7           8           9          10
 IAtWgt=          12          12          12          12          12          12           1           1           1           1
 AtmWgt=  12.0000000  12.0000000  12.0000000  12.0000000  12.0000000  12.0000000   1.0078250   1.0078250   1.0078250   1.0078250
 NucSpn=           0           0           0           0           0           0           1           1           1           1
 AtZEff=  -0.0000000  -0.0000000  -0.0000000  -0.0000000  -0.0000000  -0.0000000  -0.0000000  -0.0000000  -0.0000000  -0.0000000
 NQMom=    0.0000000   0.0000000   0.0000000   0.0000000   0.0000000   0.0000000   0.0000000   0.0000000   0.0000000   0.0000000
 NMagM=    0.0000000   0.0000000   0.0000000   0.0000000   0.0000000   0.0000000   2.7928460   2.7928460   2.7928460   2.7928460
 AtZNuc=   6.0000000   6.0000000   6.0000000   6.0000000   6.0000000   6.0000000   1.0000000   1.0000000   1.0000000   1.0000000

  Atom        11          12          13          14          15          16          17          18          19          20
 IAtWgt=          16          12           1           1           1          12          12          14          12          12
 AtmWgt=  15.9949146  12.0000000   1.0078250   1.0078250   1.0078250  12.0000000  12.0000000  14.0030740  12.0000000  12.0000000
 NucSpn=           0           0           1           1           1           0           0           2           0           0
 AtZEff=  -0.0000000  -0.0000000  -0.0000000  -0.0000000  -0.0000000  -0.0000000  -0.0000000  -0.0000000  -0.0000000  -0.0000000
 NQMom=    0.0000000   0.0000000   0.0000000   0.0000000   0.0000000   0.0000000   0.0000000   2.0440000   0.0000000   0.0000000
 NMagM=    0.0000000   0.0000000   2.7928460   2.7928460   2.7928460   0.0000000   0.0000000   0.4037610   0.0000000   0.0000000
 AtZNuc=   8.0000000   6.0000000   1.0000000   1.0000000   1.0000000   6.0000000   6.0000000   7.0000000   6.0000000   6.0000000

  Atom        21          22          23          24          25          26          27
 IAtWgt=           1           1           1           1           1           1           1
 AtmWgt=   1.0078250   1.0078250   1.0078250   1.0078250   1.0078250   1.0078250   1.0078250
 NucSpn=           1           1           1           1           1           1           1
 AtZEff=  -0.0000000  -0.0000000  -0.0000000  -0.0000000  -0.0000000  -0.0000000  -0.0000000
 NQMom=    0.0000000   0.0000000   0.0000000   0.0000000   0.0000000   0.0000000   0.0000000
 NMagM=    2.7928460   2.7928460   2.7928460   2.7928460   2.7928460   2.7928460   2.7928460
 AtZNuc=   1.0000000   1.0000000   1.0000000   1.0000000   1.0000000   1.0000000   1.0000000
 Leave Link  101 at Wed Jun 24 11:34:21 2026, MaxMem=  4026531840 cpu:               1.2 elap:               0.2
 (Enter /opt/packages/gaussian/g16RevC.01/g16/l103.exe)

 GradGradGradGradGradGradGradGradGradGradGradGradGradGradGradGradGradGrad
 Berny optimization.
 Initialization pass.
                           ----------------------------
                           !    Initial Parameters    !
                           ! (Angstroms and Degrees)  !
 --------------------------                            --------------------------
 ! Name  Definition              Value          Derivative Info.                !
 --------------------------------------------------------------------------------
 ! R1    R(1,2)                  1.4292         estimate D2E/DX2                !
 ! R2    R(1,6)                  1.4353         estimate D2E/DX2                !
 ! R3    R(1,11)                 1.3137         estimate D2E/DX2                !
 ! R4    R(2,3)                  1.3729         estimate D2E/DX2                !
 ! R5    R(2,8)                  1.0834         estimate D2E/DX2                !
 ! R6    R(3,4)                  1.4323         estimate D2E/DX2                !
 ! R7    R(3,9)                  1.0864         estimate D2E/DX2                !
 ! R8    R(4,5)                  1.4242         estimate D2E/DX2                !
 ! R9    R(4,16)                 1.4787         estimate D2E/DX2                !
 ! R10   R(5,6)                  1.3726         estimate D2E/DX2                !
 ! R11   R(5,10)                 1.0871         estimate D2E/DX2                !
 ! R12   R(6,7)                  1.0861         estimate D2E/DX2                !
 ! R13   R(11,12)                1.4542         estimate D2E/DX2                !
 ! R14   R(12,13)                1.0928         estimate D2E/DX2                !
 ! R15   R(12,14)                1.0927         estimate D2E/DX2                !
 ! R16   R(12,15)                1.089          estimate D2E/DX2                !
 ! R17   R(16,17)                1.5096         estimate D2E/DX2                !
 ! R18   R(16,18)                1.3955         estimate D2E/DX2                !
 ! R19   R(17,20)                1.5481         estimate D2E/DX2                !
 ! R20   R(17,21)                1.0956         estimate D2E/DX2                !
 ! R21   R(17,22)                1.1044         estimate D2E/DX2                !
 ! R22   R(18,19)                1.4765         estimate D2E/DX2                !
 ! R23   R(18,27)                1.015          estimate D2E/DX2                !
 ! R24   R(19,20)                1.5426         estimate D2E/DX2                !
 ! R25   R(19,23)                1.0973         estimate D2E/DX2                !
 ! R26   R(19,24)                1.0949         estimate D2E/DX2                !
 ! R27   R(20,25)                1.0966         estimate D2E/DX2                !
 ! R28   R(20,26)                1.0946         estimate D2E/DX2                !
 ! A1    A(2,1,6)              120.8729         estimate D2E/DX2                !
 ! A2    A(2,1,11)             124.1283         estimate D2E/DX2                !
 ! A3    A(6,1,11)             114.9982         estimate D2E/DX2                !
 ! A4    A(1,2,3)              118.4248         estimate D2E/DX2                !
 ! A5    A(1,2,8)              120.602          estimate D2E/DX2                !
 ! A6    A(3,2,8)              120.9729         estimate D2E/DX2                !
 ! A7    A(2,3,4)              121.6924         estimate D2E/DX2                !
 ! A8    A(2,3,9)              119.4015         estimate D2E/DX2                !
 ! A9    A(4,3,9)              118.8954         estimate D2E/DX2                !
 ! A10   A(3,4,5)              118.8244         estimate D2E/DX2                !
 ! A11   A(3,4,16)             120.8676         estimate D2E/DX2                !
 ! A12   A(5,4,16)             120.299          estimate D2E/DX2                !
 ! A13   A(4,5,6)              120.8375         estimate D2E/DX2                !
 ! A14   A(4,5,10)             118.5334         estimate D2E/DX2                !
 ! A15   A(6,5,10)             120.6255         estimate D2E/DX2                !
 ! A16   A(1,6,5)              119.3376         estimate D2E/DX2                !
 ! A17   A(1,6,7)              118.2819         estimate D2E/DX2                !
 ! A18   A(5,6,7)              122.379          estimate D2E/DX2                !
 ! A19   A(1,11,12)            122.1959         estimate D2E/DX2                !
 ! A20   A(11,12,13)           109.6931         estimate D2E/DX2                !
 ! A21   A(11,12,14)           109.8302         estimate D2E/DX2                !
 ! A22   A(11,12,15)           104.8016         estimate D2E/DX2                !
 ! A23   A(13,12,14)           111.6587         estimate D2E/DX2                !
 ! A24   A(13,12,15)           110.4008         estimate D2E/DX2                !
 ! A25   A(14,12,15)           110.2354         estimate D2E/DX2                !
 ! A26   A(4,16,17)            122.9198         estimate D2E/DX2                !
 ! A27   A(4,16,18)            119.2972         estimate D2E/DX2                !
 ! A28   A(17,16,18)           108.3242         estimate D2E/DX2                !
 ! A29   A(16,17,20)           101.4093         estimate D2E/DX2                !
 ! A30   A(16,17,21)           112.1237         estimate D2E/DX2                !
 ! A31   A(16,17,22)           112.7428         estimate D2E/DX2                !
 ! A32   A(20,17,21)           112.4553         estimate D2E/DX2                !
 ! A33   A(20,17,22)           110.8416         estimate D2E/DX2                !
 ! A34   A(21,17,22)           107.3209         estimate D2E/DX2                !
 ! A35   A(16,18,19)           111.0699         estimate D2E/DX2                !
 ! A36   A(16,18,27)           119.9882         estimate D2E/DX2                !
 ! A37   A(19,18,27)           118.7008         estimate D2E/DX2                !
 ! A38   A(18,19,20)           104.2576         estimate D2E/DX2                !
 ! A39   A(18,19,23)           109.0857         estimate D2E/DX2                !
 ! A40   A(18,19,24)           110.9013         estimate D2E/DX2                !
 ! A41   A(20,19,23)           111.8589         estimate D2E/DX2                !
 ! A42   A(20,19,24)           112.5796         estimate D2E/DX2                !
 ! A43   A(23,19,24)           108.1095         estimate D2E/DX2                !
 ! A44   A(17,20,19)           104.523          estimate D2E/DX2                !
 ! A45   A(17,20,25)           109.3603         estimate D2E/DX2                !
 ! A46   A(17,20,26)           112.4423         estimate D2E/DX2                !
 ! A47   A(19,20,25)           109.952          estimate D2E/DX2                !
 ! A48   A(19,20,26)           112.399          estimate D2E/DX2                !
 ! A49   A(25,20,26)           108.115          estimate D2E/DX2                !
 ! D1    D(6,1,2,3)             -1.0085         estimate D2E/DX2                !
 ! D2    D(6,1,2,8)            178.8248         estimate D2E/DX2                !
 ! D3    D(11,1,2,3)           178.7            estimate D2E/DX2                !
 ! D4    D(11,1,2,8)            -1.4666         estimate D2E/DX2                !
 ! D5    D(2,1,6,5)              0.4323         estimate D2E/DX2                !
 ! D6    D(2,1,6,7)            179.9896         estimate D2E/DX2                !
 ! D7    D(11,1,6,5)          -179.3015         estimate D2E/DX2                !
 ! D8    D(11,1,6,7)             0.2558         estimate D2E/DX2                !
 ! D9    D(2,1,11,12)            0.3323         estimate D2E/DX2                !
 ! D10   D(6,1,11,12)         -179.9437         estimate D2E/DX2                !
 ! D11   D(1,2,3,4)              1.2282         estimate D2E/DX2                !
 ! D12   D(1,2,3,9)           -179.97           estimate D2E/DX2                !
 ! D13   D(8,2,3,4)           -178.6046         estimate D2E/DX2                !
 ! D14   D(8,2,3,9)              0.1973         estimate D2E/DX2                !
 ! D15   D(2,3,4,5)             -0.8759         estimate D2E/DX2                !
 ! D16   D(2,3,4,16)          -179.7935         estimate D2E/DX2                !
 ! D17   D(9,3,4,5)           -179.6837         estimate D2E/DX2                !
 ! D18   D(9,3,4,16)             1.3987         estimate D2E/DX2                !
 ! D19   D(3,4,5,6)              0.2661         estimate D2E/DX2                !
 ! D20   D(3,4,5,10)          -179.0529         estimate D2E/DX2                !
 ! D21   D(16,4,5,6)           179.19           estimate D2E/DX2                !
 ! D22   D(16,4,5,10)           -0.129          estimate D2E/DX2                !
 ! D23   D(3,4,16,17)           67.2751         estimate D2E/DX2                !
 ! D24   D(3,4,16,18)          -75.1668         estimate D2E/DX2                !
 ! D25   D(5,4,16,17)         -111.6266         estimate D2E/DX2                !
 ! D26   D(5,4,16,18)          105.9315         estimate D2E/DX2                !
 ! D27   D(4,5,6,1)             -0.0638         estimate D2E/DX2                !
 ! D28   D(4,5,6,7)           -179.6022         estimate D2E/DX2                !
 ! D29   D(10,5,6,1)           179.2409         estimate D2E/DX2                !
 ! D30   D(10,5,6,7)            -0.2975         estimate D2E/DX2                !
 ! D31   D(1,11,12,13)          64.354          estimate D2E/DX2                !
 ! D32   D(1,11,12,14)         -58.7245         estimate D2E/DX2                !
 ! D33   D(1,11,12,15)        -177.1223         estimate D2E/DX2                !
 ! D34   D(4,16,17,20)        -176.5836         estimate D2E/DX2                !
 ! D35   D(4,16,17,21)          63.2393         estimate D2E/DX2                !
 ! D36   D(4,16,17,22)         -58.019          estimate D2E/DX2                !
 ! D37   D(18,16,17,20)        -30.639          estimate D2E/DX2                !
 ! D38   D(18,16,17,21)       -150.8161         estimate D2E/DX2                !
 ! D39   D(18,16,17,22)         87.9256         estimate D2E/DX2                !
 ! D40   D(4,16,18,19)         166.0007         estimate D2E/DX2                !
 ! D41   D(4,16,18,27)         -49.2618         estimate D2E/DX2                !
 ! D42   D(17,16,18,19)         18.6178         estimate D2E/DX2                !
 ! D43   D(17,16,18,27)        163.3553         estimate D2E/DX2                !
 ! D44   D(16,17,20,19)         30.7119         estimate D2E/DX2                !
 ! D45   D(16,17,20,25)        -86.9755         estimate D2E/DX2                !
 ! D46   D(16,17,20,26)        152.9122         estimate D2E/DX2                !
 ! D47   D(21,17,20,19)        150.6541         estimate D2E/DX2                !
 ! D48   D(21,17,20,25)         32.9667         estimate D2E/DX2                !
 ! D49   D(21,17,20,26)        -87.1456         estimate D2E/DX2                !
 ! D50   D(22,17,20,19)        -89.2105         estimate D2E/DX2                !
 ! D51   D(22,17,20,25)        153.1021         estimate D2E/DX2                !
 ! D52   D(22,17,20,26)         32.9899         estimate D2E/DX2                !
 ! D53   D(16,18,19,20)          1.9755         estimate D2E/DX2                !
 ! D54   D(16,18,19,23)       -117.6561         estimate D2E/DX2                !
 ! D55   D(16,18,19,24)        123.3827         estimate D2E/DX2                !
 ! D56   D(27,18,19,20)       -143.269          estimate D2E/DX2                !
 ! D57   D(27,18,19,23)         97.0994         estimate D2E/DX2                !
 ! D58   D(27,18,19,24)        -21.8618         estimate D2E/DX2                !
 ! D59   D(18,19,20,17)        -20.8832         estimate D2E/DX2                !
 ! D60   D(18,19,20,25)         96.398          estimate D2E/DX2                !
 ! D61   D(18,19,20,26)       -143.1119         estimate D2E/DX2                !
 ! D62   D(23,19,20,17)         96.8561         estimate D2E/DX2                !
 ! D63   D(23,19,20,25)       -145.8628         estimate D2E/DX2                !
 ! D64   D(23,19,20,26)        -25.3726         estimate D2E/DX2                !
 ! D65   D(24,19,20,17)       -141.1697         estimate D2E/DX2                !
 ! D66   D(24,19,20,25)        -23.8885         estimate D2E/DX2                !
 ! D67   D(24,19,20,26)         96.6016         estimate D2E/DX2                !
 --------------------------------------------------------------------------------
 Trust Radius=3.00D-01 FncErr=1.00D-07 GrdErr=1.00D-06 EigMax=2.50D+02 EigMin=1.00D-04
 Number of steps in this run=    154 maximum allowed number of steps=    162.
 GradGradGradGradGradGradGradGradGradGradGradGradGradGradGradGradGradGrad

 Leave Link  103 at Wed Jun 24 11:34:21 2026, MaxMem=  4026531840 cpu:               0.1 elap:               0.0
 (Enter /opt/packages/gaussian/g16RevC.01/g16/l202.exe)
                          Input orientation:                          
 ---------------------------------------------------------------------
 Center     Atomic      Atomic             Coordinates (Angstroms)
 Number     Number       Type             X           Y           Z
 ---------------------------------------------------------------------
      1          6           0        2.489101    0.183524    0.221558
      2          6           0        1.805431   -0.798306   -0.560236
      3          6           0        0.432570   -0.799696   -0.552599
      4          6           0       -0.316729    0.166966    0.192720
      5          6           0        0.387392    1.140199    0.957891
      6          6           0        1.759646    1.159639    0.980005
      7          1           0        2.321772    1.886160    1.559478
      8          1           0        2.360454   -1.521147   -1.146028
      9          1           0       -0.103294   -1.539354   -1.140794
     10          1           0       -0.186040    1.861882    1.534194
     11          8           0        3.796499    0.271444    0.315228
     12          6           0        4.686647   -0.637747   -0.388869
     13          1           0        4.573321   -0.502512   -1.467373
     14          1           0        4.478988   -1.667345   -0.087494
     15          1           0        5.687562   -0.347409   -0.072983
     16          6           0       -1.795294    0.145794    0.191634
     17          6           0       -2.600346   -0.964092    0.823176
     18          7           0       -2.483951    0.602053   -0.933103
     19          6           0       -3.903965    0.200551   -0.885112
     20          6           0       -4.044339   -0.539134    0.461297
     21          1           0       -2.440872   -1.025168    1.905427
     22          1           0       -2.364991   -1.956555    0.399601
     23          1           0       -4.119959   -0.456703   -1.736777
     24          1           0       -4.559591    1.074622   -0.954924
     25          1           0       -4.424084    0.147268    1.227508
     26          1           0       -4.727805   -1.391909    0.399435
     27          1           0       -2.244374    1.497816   -1.345848
 ---------------------------------------------------------------------
                    Distance matrix (angstroms):
                    1          2          3          4          5
     1  C    0.000000
     2  C    1.429194   0.000000
     3  C    2.407355   1.372883   0.000000
     4  C    2.806027   2.449951   1.432266   0.000000
     5  C    2.423756   2.841363   2.459027   1.424238   0.000000
     6  C    1.435322   2.491583   2.819397   2.432396   1.372569
     7  H    2.171866   3.459213   3.904328   3.432979   2.158748
     8  H    2.189233   1.083375   2.142285   3.436464   3.924564
     9  H    3.397767   2.128246   1.086378   2.176085   3.438786
    10  H    3.419983   3.928002   3.438224   2.165495   1.087096
    11  O    1.313695   2.423872   3.635448   4.116379   3.576278
    12  C    2.424111   2.890770   4.260306   5.100939   4.843392
    13  H    2.768954   2.927730   4.250994   5.207370   5.109051
    14  H    2.735119   2.850722   4.164449   5.142190   5.071123
    15  H    3.255580   3.938485   5.296182   6.032139   5.600668
    16  C    4.284665   3.797612   2.532037   1.478716   2.517957
    17  C    5.251803   4.620843   3.334421   2.625200   3.656879
    18  N    5.122466   4.527564   3.258186   2.480651   3.479953
    19  C    6.488166   5.805210   4.462801   3.745812   4.763963
    20  C    6.577655   5.943948   4.597673   3.803392   4.765187
    21  H    5.347989   4.915491   3.788060   2.977672   3.685881
    22  H    5.307904   4.433424   3.173540   2.957620   4.180572
    23  H    6.922763   6.050719   4.716508   4.310044   5.488857
    24  H    7.201543   6.646589   5.347579   4.488074   5.304320
    25  H    6.986085   6.549581   5.258575   4.235745   4.920255
    26  H    7.389002   6.629970   5.280772   4.682992   5.734865
    27  H    5.156541   4.721259   3.615776   2.802529   3.515864
                    6          7          8          9         10
     6  C    0.000000
     7  H    1.086098   0.000000
     8  H    3.473845   4.350977   0.000000
     9  H    3.905495   4.990648   2.463821   0.000000
    10  H    2.141486   2.508057   5.011298   4.327911   0.000000
    11  O    2.319395   2.516006   2.722292   4.539535   4.458250
    12  C    3.697533   3.969735   2.600934   4.931716   5.804257
    13  H    4.082790   4.465093   2.457165   4.801294   6.103383
    14  H    4.065245   4.471409   2.372773   4.703523   6.070239
    15  H    4.336878   4.356869   3.687646   6.007909   6.477900
    16  C    3.779815   4.674410   4.673143   2.734584   2.708712
    17  C    4.852253   5.735271   5.366340   3.228524   3.784250
    18  N    4.688176   5.563890   5.293541   3.208782   3.599322
    19  C    6.039453   6.897616   6.501943   4.187809   4.736668
    20  C    6.069689   6.900393   6.676018   4.370237   4.669310
    21  H    4.824327   5.592700   5.710525   3.874031   3.682002
    22  H    5.201938   6.170699   4.990830   2.768058   4.540439
    23  H    6.675569   7.605933   6.593769   4.202491   5.617011
    24  H    6.609382   7.371159   7.393346   5.169720   5.093470
    25  H    6.270938   6.974276   7.378837   5.207953   4.582027
    26  H    6.995318   7.860533   7.255933   4.876489   5.701093
    27  H    4.642858   5.425995   5.509856   3.721650   3.558641
                   11         12         13         14         15
    11  O    0.000000
    12  C    1.454215   0.000000
    13  H    2.092875   1.092842   0.000000
    14  H    2.094487   1.092713   1.808259   0.000000
    15  H    2.027265   1.088996   1.791624   1.789719   0.000000
    16  C    5.594570   6.554882   6.613007   6.536971   7.503760
    17  C    6.534844   7.394310   7.544612   7.172228   8.358997
    18  N    6.411840   7.297312   7.163141   7.372092   8.271331
    19  C    7.793779   8.645670   8.526295   8.625493   9.641432
    20  C    7.883979   8.772835   8.830922   8.615169   9.748442
    21  H    6.566181   7.497694   7.800503   7.229701   8.393146
    22  H    6.552485   7.217100   7.330758   6.867383   8.225345
    23  H    8.210435   8.911002   8.697574   8.838986   9.948248
    24  H    8.490149   9.420486   9.282243   9.485079  10.382878
    25  H    8.271981   9.286245   9.414770   9.180781  10.206928
    26  H    8.685482   9.477451   9.528218   9.223773  10.478265
    27  H    6.383989   7.315429   7.106128   7.536929   8.242613
                   16         17         18         19         20
    16  C    0.000000
    17  C    1.509570   0.000000
    18  N    1.395512   2.356029   0.000000
    19  C    2.368306   2.444190   1.476464   0.000000
    20  C    2.366443   1.548116   2.383584   1.542614   0.000000
    21  H    2.173709   1.095641   3.272149   3.380849   2.211978
    22  H    2.188076   1.104441   2.887338   2.944832   2.198431
    23  H    3.079909   3.019939   2.107932   1.097256   2.200919
    24  H    3.133474   3.340155   2.128868   1.094860   2.208026
    25  H    2.825522   2.173621   2.939249   2.176356   1.096555
    26  H    3.317730   2.211032   3.284269   2.205607   1.094613
    27  H    2.096065   3.300360   1.014962   2.156250   3.264172
                   21         22         23         24         25
    21  H    0.000000
    22  H    1.772217   0.000000
    23  H    4.050696   3.145406   0.000000
    24  H    4.132760   3.979829   1.774690   0.000000
    25  H    2.401523   3.058000   3.040437   2.375154   0.000000
    26  H    2.762711   2.429344   2.409873   2.818928   1.773983
    27  H    4.120055   3.872185   2.736931   2.385822   3.632806
                   26         27
    26  H    0.000000
    27  H    4.190937   0.000000
 Stoichiometry    C11H14NO(1+)
 Framework group  C1[X(C11H14NO)]
 Deg. of freedom    75
 Full point group                 C1      NOp   1
 Largest Abelian subgroup         C1      NOp   1
 Largest concise Abelian subgroup C1      NOp   1
                         Standard orientation:                         
 ---------------------------------------------------------------------
 Center     Atomic      Atomic             Coordinates (Angstroms)
 Number     Number       Type             X           Y           Z
 ---------------------------------------------------------------------
      1          6           0        2.486203    0.237291   -0.003033
      2          6           0        1.784141   -1.007382   -0.025225
      3          6           0        0.411611   -0.983948   -0.004690
      4          6           0       -0.319767    0.247393    0.011833
      5          6           0        0.402419    1.474872    0.025782
      6          6           0        1.774938    1.483808    0.018033
      7          1           0        2.350682    2.404596    0.034670
      8          1           0        2.325288   -1.945272   -0.060198
      9          1           0       -0.138094   -1.920852   -0.020591
     10          1           0       -0.157300    2.406372    0.054080
     11          8           0        3.795450    0.344966    0.005444
     12          6           0        4.668662   -0.817726   -0.014395
     13          1           0        4.538124   -1.360334   -0.953991
     14          1           0        4.460330   -1.452570    0.850239
     15          1           0        5.676305   -0.410052    0.051705
     16          6           0       -1.798239    0.251332    0.038431
     17          6           0       -2.598813   -0.239201    1.220488
     18          7           0       -2.503003   -0.055190   -1.126389
     19          6           0       -3.924232   -0.325353   -0.831318
     20          6           0       -4.046252   -0.098537    0.689644
     21          1           0       -2.421659    0.364068    2.117769
     22          1           0       -2.376080   -1.289135    1.480907
     23          1           0       -4.158050   -1.360537   -1.110051
     24          1           0       -4.576057    0.338129   -1.408929
     25          1           0       -4.409344    0.916852    0.888601
     26          1           0       -4.735389   -0.805221    1.162787
     27          1           0       -2.265361    0.405272   -1.999114
 ---------------------------------------------------------------------
 Rotational constants (GHZ):           2.7069673           0.3402358           0.3287842
 Leave Link  202 at Wed Jun 24 11:34:22 2026, MaxMem=  4026531840 cpu:               0.1 elap:               0.0
 (Enter /opt/packages/gaussian/g16RevC.01/g16/l301.exe)
 Standard basis: 6-31+G(d) (6D, 7F)
 Ernie: Thresh=  0.10000D-02 Tol=  0.10000D-05 Strict=F.
 There are   275 symmetry adapted cartesian basis functions of A   symmetry.
 There are   275 symmetry adapted basis functions of A   symmetry.
   275 basis functions,   472 primitive gaussians,   275 cartesian basis functions
    47 alpha electrons       47 beta electrons
       nuclear repulsion energy       750.5509800739 Hartrees.
 IExCor=  402 DFT=T Ex+Corr=B3LYP ExCW=0 ScaHFX=  0.200000
 ScaDFX=  0.800000  0.720000  1.000000  0.810000 ScalE2=  1.000000  1.000000
 IRadAn=      5 IRanWt=     -1 IRanGd=            0 ICorTp=0 IEmpDi=  4
 NAtoms=   27 NActive=   27 NUniq=   27 SFac= 1.00D+00 NAtFMM=   60 NAOKFM=F Big=F
 Integral buffers will be    131072 words long.
 Regular integral format.
 Two-electron integral symmetry is turned on.
 ------------------------------------------------------------------------------
 Polarizable Continuum Model (PCM)
 =================================
 Model                : PCM.
 Atomic radii         : SMD-Coulomb.
 Polarization charges : Total charges.
 Charge compensation  : None.
 Solution method      : On-the-fly selection.
 Cavity type          : VdW (van der Waals Surface) (Alpha=1.000).
 Cavity algorithm     : GePol (No added spheres)
                        Default sphere list used, NSphG=   27.
                        Lebedev-Laikov grids with approx.  5.0 points / Ang**2.
                        Smoothing algorithm: York/Karplus (Gamma=1.0000).
                        Polarization charges: spherical gaussians, with
                                              point-specific exponents (IZeta= 3).
                        Self-potential: point-specific (ISelfS= 7).
                        Self-field    : sphere-specific E.n sum rule (ISelfD= 2).
 1st derivatives      : Analytical E(r).r(x)/FMM algorithm (CHGder, D1EAlg=3).
                        Cavity 1st derivative terms included.
 Solvent              : Methanol, Eps=  32.613000 Eps(inf)=   1.765709
 ------------------------------------------------------------------------------
 GePol: Number of generator spheres                  =      27
 GePol: Total number of spheres                      =      27
 GePol: Number of exposed spheres                    =      27 (100.00%)
 GePol: Number of points                             =    2010
 GePol: Average weight of points                     =       0.11
 GePol: Minimum weight of points                     =   0.10D-08
 GePol: Maximum weight of points                     =    0.21991
 GePol: Number of points with low weight             =     104
 GePol: Fraction of low-weight points (<1% of avg)   =       5.17%
 GePol: Cavity surface area                          =    221.082 Ang**2
 GePol: Cavity volume                                =    194.327 Ang**3
 ------------------------------------------------------------------------------
 Atomic radii for non-electrostatic terms: SMD-CDS.
 ------------------------------------------------------------------------------
 PCM non-electrostatic energy =        -0.0003495486 Hartrees.
 Nuclear repulsion after PCM non-electrostatic terms =      750.5506305252 Hartrees.
 Leave Link  301 at Wed Jun 24 11:34:22 2026, MaxMem=  4026531840 cpu:               0.6 elap:               0.1
 (Enter /opt/packages/gaussian/g16RevC.01/g16/l302.exe)
 NPDir=0 NMtPBC=     1 NCelOv=     1 NCel=       1 NClECP=     1 NCelD=      1
         NCelK=      1 NCelE2=     1 NClLst=     1 CellRange=     0.0.
 One-electron integrals computed using PRISM.
 One-electron integral symmetry used in STVInt
 NBasis=   275 RedAO= T EigKep=  1.35D-06  NBF=   275
 NBsUse=   275 1.00D-06 EigRej= -1.00D+00 NBFU=   275
 Precomputing XC quadrature grid using
 IXCGrd= 4 IRadAn=           5 IRanWt=          -1 IRanGd=           0 AccXCQ= 0.00D+00.
 Generated NRdTot=       0 NPtTot=           0 NUsed=           0 NTot=          32
 NSgBfM=   274   274   274   274   274 MxSgAt=    27 MxSgA2=    27.
 Leave Link  302 at Wed Jun 24 11:34:22 2026, MaxMem=  4026531840 cpu:               1.8 elap:               0.3
 (Enter /opt/packages/gaussian/g16RevC.01/g16/l303.exe)
 DipDrv:  MaxL=1.
 Leave Link  303 at Wed Jun 24 11:34:22 2026, MaxMem=  4026531840 cpu:               0.2 elap:               0.1
 (Enter /opt/packages/gaussian/g16RevC.01/g16/l308.exe)
 Leave Link  308 at Wed Jun 24 11:34:23 2026, MaxMem=  4026531840 cpu:               0.5 elap:               0.1
 (Enter /opt/packages/gaussian/g16RevC.01/g16/l401.exe)
 ExpMin= 4.38D-02 ExpMax= 5.48D+03 ExpMxC= 8.25D+02 IAcc=3 IRadAn=         5 AccDes= 0.00D+00
 Harris functional with IExCor=  402 and IRadAn=       5 diagonalized for initial guess.
 HarFok:  IExCor=  402 AccDes= 0.00D+00 IRadAn=         5 IDoV= 1 UseB2=F ITyADJ=14
 ICtDFT=  3500011 ScaDFX=  1.000000  1.000000  1.000000  1.000000
 FoFCou: FMM=F IPFlag=           0 FMFlag=      100000 FMFlg1=           0
         NFxFlg=           0 DoJE=T BraDBF=F KetDBF=T FulRan=T
         wScrn=  0.000000 ICntrl=       500 IOpCl=  0 I1Cent=   200000004 NGrid=           0
         NMat0=    1 NMatS0=      1 NMatT0=    0 NMatD0=    1 NMtDS0=    0 NMtDT0=    0
 Petite list used in FoFCou.
 Harris En= -557.328528864032    
 JPrj=0 DoOrth=F DoCkMO=F.
 Leave Link  401 at Wed Jun 24 11:34:24 2026, MaxMem=  4026531840 cpu:               6.6 elap:               0.9
 (Enter /opt/packages/gaussian/g16RevC.01/g16/l502.exe)
 Integral symmetry usage will be decided dynamically.
 Closed shell SCF:
 Using DIIS extrapolation, IDIIS=  1040.
 NGot=  4026531840 LenX=  4026374748 LenY=  4026298682
 Requested convergence on RMS density matrix=1.00D-08 within 128 cycles.
 Requested convergence on MAX density matrix=1.00D-06.
 Requested convergence on             energy=1.00D-06.
 No special actions if energy rises.
 Fock matrices will be formed incrementally for  20 cycles.

 Cycle   1  Pass 1  IDiag  1:
 FoFJK:  IHMeth= 1 ICntrl=       0 DoSepK=F KAlg= 0 I1Cent=           0 FoldK=F
 IRaf= 880000000 NMat=       1 IRICut=       1 DoRegI=T DoRafI=F ISym2E= 0 IDoP0=0 IntGTp=1.
 FoFCou: FMM=F IPFlag=           0 FMFlag=      100000 FMFlg1=           0
         NFxFlg=           0 DoJE=F BraDBF=F KetDBF=F FulRan=T
         wScrn=  0.000000 ICntrl=         0 IOpCl=  0 I1Cent=           0 NGrid=           0
         NMat0=    1 NMatS0=      1 NMatT0=    0 NMatD0=    1 NMtDS0=    0 NMtDT0=    0
 Symmetry not used in FoFCou.
 Inv3:  Mode=1 IEnd=    12120300.
 Iteration    1 A*A^-1 deviation from unit magnitude is 3.11D-15 for   1442.
 Iteration    1 A*A^-1 deviation from orthogonality  is 2.83D-15 for    976    241.
 Iteration    1 A^-1*A deviation from unit magnitude is 3.55D-15 for    583.
 Iteration    1 A^-1*A deviation from orthogonality  is 9.10D-13 for   1044   1004.
 E= -557.167219733171    
 DIIS: error= 1.85D-02 at cycle   1 NSaved=   1.
 NSaved= 1 IEnMin= 1 EnMin= -557.167219733171     IErMin= 1 ErrMin= 1.85D-02
 ErrMax= 1.85D-02  0.00D+00 EMaxC= 1.00D-01 BMatC= 2.38D-01 BMatP= 2.38D-01
 IDIUse=3 WtCom= 8.15D-01 WtEn= 1.85D-01
 Coeff-Com:  0.100D+01
 Coeff-En:   0.100D+01
 Coeff:      0.100D+01
 Gap=     0.030 Goal=   None    Shift=    0.000
 GapD=    0.030 DampG=0.250 DampE=0.500 DampFc=0.2500 IDamp=-1.
 Damping current iteration by 2.50D-01
 RMSDP=2.65D-02 MaxDP=1.71D+00              OVMax= 1.65D-01

 Cycle   2  Pass 1  IDiag  1:
 RMSU=  6.10D-03    CP:  1.03D+00
 E= -557.254404399363     Delta-E=       -0.087184666191 Rises=F Damp=T
 DIIS: error= 1.18D-02 at cycle   2 NSaved=   2.
 NSaved= 2 IEnMin= 2 EnMin= -557.254404399363     IErMin= 2 ErrMin= 1.18D-02
 ErrMax= 1.18D-02  0.00D+00 EMaxC= 1.00D-01 BMatC= 6.78D-02 BMatP= 2.38D-01
 IDIUse=3 WtCom= 8.82D-01 WtEn= 1.18D-01
 Coeff-Com: -0.943D+00 0.194D+01
 Coeff-En:   0.000D+00 0.100D+01
 Coeff:     -0.832D+00 0.183D+01
 Gap=     0.114 Goal=   None    Shift=    0.000
 RMSDP=3.08D-02 MaxDP=2.23D+00 DE=-8.72D-02 OVMax= 8.65D-02

 Cycle   3  Pass 1  IDiag  1:
 RMSU=  1.11D-02    CP:  7.41D-01  1.25D+00
 E= -557.407836063263     Delta-E=       -0.153431663900 Rises=F Damp=F
 DIIS: error= 1.98D-03 at cycle   3 NSaved=   3.
 NSaved= 3 IEnMin= 3 EnMin= -557.407836063263     IErMin= 3 ErrMin= 1.98D-03
 ErrMax= 1.98D-03  0.00D+00 EMaxC= 1.00D-01 BMatC= 3.57D-03 BMatP= 6.78D-02
 IDIUse=3 WtCom= 9.80D-01 WtEn= 1.98D-02
 Coeff-Com: -0.285D+00 0.561D+00 0.724D+00
 Coeff-En:   0.000D+00 0.000D+00 0.100D+01
 Coeff:     -0.279D+00 0.550D+00 0.730D+00
 Gap=     0.111 Goal=   None    Shift=    0.000
 RMSDP=2.66D-03 MaxDP=1.40D-01 DE=-1.53D-01 OVMax= 1.92D-02

 Cycle   4  Pass 1  IDiag  1:
 RMSU=  2.13D-03    CP:  7.27D-01  1.18D+00  1.05D+00
 E= -557.409825884767     Delta-E=       -0.001989821504 Rises=F Damp=F
 DIIS: error= 1.48D-03 at cycle   4 NSaved=   4.
 NSaved= 4 IEnMin= 4 EnMin= -557.409825884767     IErMin= 4 ErrMin= 1.48D-03
 ErrMax= 1.48D-03  0.00D+00 EMaxC= 1.00D-01 BMatC= 1.55D-03 BMatP= 3.57D-03
 IDIUse=3 WtCom= 9.85D-01 WtEn= 1.48D-02
 Coeff-Com: -0.693D-01 0.128D+00 0.402D+00 0.539D+00
 Coeff-En:   0.000D+00 0.000D+00 0.304D+00 0.696D+00
 Coeff:     -0.682D-01 0.126D+00 0.401D+00 0.541D+00
 Gap=     0.111 Goal=   None    Shift=    0.000
 RMSDP=1.38D-03 MaxDP=7.06D-02 DE=-1.99D-03 OVMax= 1.32D-02

 Cycle   5  Pass 1  IDiag  1:
 RMSU=  6.81D-04    CP:  7.34D-01  1.21D+00  1.01D+00  6.14D-01
 E= -557.411178957521     Delta-E=       -0.001353072755 Rises=F Damp=F
 DIIS: error= 6.05D-04 at cycle   5 NSaved=   5.
 NSaved= 5 IEnMin= 5 EnMin= -557.411178957521     IErMin= 5 ErrMin= 6.05D-04
 ErrMax= 6.05D-04  0.00D+00 EMaxC= 1.00D-01 BMatC= 2.15D-04 BMatP= 1.55D-03
 IDIUse=3 WtCom= 9.94D-01 WtEn= 6.05D-03
 Coeff-Com: -0.180D-01 0.295D-01 0.179D+00 0.330D+00 0.480D+00
 Coeff-En:   0.000D+00 0.000D+00 0.000D+00 0.452D-01 0.955D+00
 Coeff:     -0.179D-01 0.294D-01 0.178D+00 0.328D+00 0.483D+00
 Gap=     0.112 Goal=   None    Shift=    0.000
 RMSDP=4.14D-04 MaxDP=2.82D-02 DE=-1.35D-03 OVMax= 6.01D-03

 Cycle   6  Pass 1  IDiag  1:
 RMSU=  3.05D-04    CP:  7.32D-01  1.21D+00  1.01D+00  6.11D-01  8.10D-01
 E= -557.411345084205     Delta-E=       -0.000166126683 Rises=F Damp=F
 DIIS: error= 2.26D-04 at cycle   6 NSaved=   6.
 NSaved= 6 IEnMin= 6 EnMin= -557.411345084205     IErMin= 6 ErrMin= 2.26D-04
 ErrMax= 2.26D-04  0.00D+00 EMaxC= 1.00D-01 BMatC= 2.13D-05 BMatP= 2.15D-04
 IDIUse=3 WtCom= 9.98D-01 WtEn= 2.26D-03
 Coeff-Com: -0.384D-02 0.468D-02 0.600D-01 0.138D+00 0.293D+00 0.508D+00
 Coeff-En:   0.000D+00 0.000D+00 0.000D+00 0.000D+00 0.576D-01 0.942D+00
 Coeff:     -0.383D-02 0.467D-02 0.599D-01 0.138D+00 0.292D+00 0.509D+00
 Gap=     0.112 Goal=   None    Shift=    0.000
 RMSDP=1.54D-04 MaxDP=8.90D-03 DE=-1.66D-04 OVMax= 1.58D-03

 Cycle   7  Pass 1  IDiag  1:
 RMSU=  7.04D-05    CP:  7.33D-01  1.21D+00  1.01D+00  6.12D-01  7.60D-01
                    CP:  7.27D-01
 E= -557.411363357537     Delta-E=       -0.000018273332 Rises=F Damp=F
 DIIS: error= 3.73D-05 at cycle   7 NSaved=   7.
 NSaved= 7 IEnMin= 7 EnMin= -557.411363357537     IErMin= 7 ErrMin= 3.73D-05
 ErrMax= 3.73D-05  0.00D+00 EMaxC= 1.00D-01 BMatC= 1.25D-06 BMatP= 2.13D-05
 IDIUse=1 WtCom= 1.00D+00 WtEn= 0.00D+00
 Coeff-Com: -0.150D-02 0.138D-02 0.253D-01 0.629D-01 0.144D+00 0.296D+00
 Coeff-Com:  0.471D+00
 Coeff:     -0.150D-02 0.138D-02 0.253D-01 0.629D-01 0.144D+00 0.296D+00
 Coeff:      0.471D+00
 Gap=     0.112 Goal=   None    Shift=    0.000
 RMSDP=3.16D-05 MaxDP=1.99D-03 DE=-1.83D-05 OVMax= 3.24D-04

 Cycle   8  Pass 1  IDiag  1:
 RMSU=  2.34D-05    CP:  7.33D-01  1.21D+00  1.01D+00  6.15D-01  7.54D-01
                    CP:  7.37D-01  8.28D-01
 E= -557.411364457924     Delta-E=       -0.000001100387 Rises=F Damp=F
 DIIS: error= 1.11D-05 at cycle   8 NSaved=   8.
 NSaved= 8 IEnMin= 8 EnMin= -557.411364457924     IErMin= 8 ErrMin= 1.11D-05
 ErrMax= 1.11D-05  0.00D+00 EMaxC= 1.00D-01 BMatC= 6.81D-08 BMatP= 1.25D-06
 IDIUse=1 WtCom= 1.00D+00 WtEn= 0.00D+00
 Coeff-Com: -0.217D-03 0.461D-04 0.278D-02 0.945D-02 0.253D-01 0.659D-01
 Coeff-Com:  0.212D+00 0.685D+00
 Coeff:     -0.217D-03 0.461D-04 0.278D-02 0.945D-02 0.253D-01 0.659D-01
 Coeff:      0.212D+00 0.685D+00
 Gap=     0.112 Goal=   None    Shift=    0.000
 RMSDP=8.70D-06 MaxDP=4.66D-04 DE=-1.10D-06 OVMax= 1.48D-04

 Cycle   9  Pass 1  IDiag  1:
 RMSU=  5.46D-06    CP:  7.33D-01  1.21D+00  1.01D+00  6.14D-01  7.59D-01
                    CP:  7.42D-01  8.56D-01  8.44D-01
 E= -557.411364506905     Delta-E=       -0.000000048981 Rises=F Damp=F
 DIIS: error= 4.74D-06 at cycle   9 NSaved=   9.
 NSaved= 9 IEnMin= 9 EnMin= -557.411364506905     IErMin= 9 ErrMin= 4.74D-06
 ErrMax= 4.74D-06  0.00D+00 EMaxC= 1.00D-01 BMatC= 1.56D-08 BMatP= 6.81D-08
 IDIUse=1 WtCom= 1.00D+00 WtEn= 0.00D+00
 Coeff-Com: -0.396D-05-0.725D-04-0.947D-03-0.940D-03-0.759D-04 0.762D-02
 Coeff-Com:  0.680D-01 0.392D+00 0.535D+00
 Coeff:     -0.396D-05-0.725D-04-0.947D-03-0.940D-03-0.759D-04 0.762D-02
 Coeff:      0.680D-01 0.392D+00 0.535D+00
 Gap=     0.112 Goal=   None    Shift=    0.000
 RMSDP=3.10D-06 MaxDP=1.73D-04 DE=-4.90D-08 OVMax= 5.88D-05

 Cycle  10  Pass 1  IDiag  1:
 RMSU=  2.06D-06    CP:  7.33D-01  1.21D+00  1.01D+00  6.15D-01  7.60D-01
                    CP:  7.44D-01  8.57D-01  8.99D-01  9.78D-01
 E= -557.411364521294     Delta-E=       -0.000000014389 Rises=F Damp=F
 DIIS: error= 7.15D-07 at cycle  10 NSaved=  10.
 NSaved=10 IEnMin=10 EnMin= -557.411364521294     IErMin=10 ErrMin= 7.15D-07
 ErrMax= 7.15D-07  0.00D+00 EMaxC= 1.00D-01 BMatC= 3.37D-10 BMatP= 1.56D-08
 IDIUse=1 WtCom= 1.00D+00 WtEn= 0.00D+00
 Coeff-Com:  0.469D-05-0.929D-05-0.515D-03-0.108D-02-0.205D-02-0.277D-02
 Coeff-Com:  0.121D-02 0.614D-01 0.167D+00 0.777D+00
 Coeff:      0.469D-05-0.929D-05-0.515D-03-0.108D-02-0.205D-02-0.277D-02
 Coeff:      0.121D-02 0.614D-01 0.167D+00 0.777D+00
 Gap=     0.112 Goal=   None    Shift=    0.000
 RMSDP=8.48D-07 MaxDP=5.67D-05 DE=-1.44D-08 OVMax= 1.78D-05

 Cycle  11  Pass 1  IDiag  1:
 RMSU=  5.47D-07    CP:  7.33D-01  1.21D+00  1.01D+00  6.15D-01  7.60D-01
                    CP:  7.45D-01  8.62D-01  9.13D-01  1.01D+00  9.80D-01
 E= -557.411364521661     Delta-E=       -0.000000000367 Rises=F Damp=F
 DIIS: error= 2.48D-07 at cycle  11 NSaved=  11.
 NSaved=11 IEnMin=11 EnMin= -557.411364521661     IErMin=11 ErrMin= 2.48D-07
 ErrMax= 2.48D-07  0.00D+00 EMaxC= 1.00D-01 BMatC= 6.08D-11 BMatP= 3.37D-10
 IDIUse=1 WtCom= 1.00D+00 WtEn= 0.00D+00
 Coeff-Com:  0.120D-05 0.937D-06-0.240D-03-0.553D-03-0.112D-02-0.182D-02
 Coeff-Com: -0.255D-02 0.154D-01 0.644D-01 0.402D+00 0.524D+00
 Coeff:      0.120D-05 0.937D-06-0.240D-03-0.553D-03-0.112D-02-0.182D-02
 Coeff:     -0.255D-02 0.154D-01 0.644D-01 0.402D+00 0.524D+00
 Gap=     0.112 Goal=   None    Shift=    0.000
 RMSDP=2.71D-07 MaxDP=1.70D-05 DE=-3.67D-10 OVMax= 5.80D-06

 Cycle  12  Pass 1  IDiag  1:
 RMSU=  1.84D-07    CP:  7.33D-01  1.21D+00  1.01D+00  6.15D-01  7.60D-01
                    CP:  7.45D-01  8.62D-01  9.15D-01  1.02D+00  1.02D+00
                    CP:  9.87D-01
 E= -557.411364521740     Delta-E=       -0.000000000080 Rises=F Damp=F
 DIIS: error= 9.96D-08 at cycle  12 NSaved=  12.
 NSaved=12 IEnMin=12 EnMin= -557.411364521740     IErMin=12 ErrMin= 9.96D-08
 ErrMax= 9.96D-08  0.00D+00 EMaxC= 1.00D-01 BMatC= 4.72D-12 BMatP= 6.08D-11
 IDIUse=1 WtCom= 1.00D+00 WtEn= 0.00D+00
 Coeff-Com: -0.123D-05 0.304D-05-0.722D-05-0.334D-04-0.860D-04-0.221D-03
 Coeff-Com: -0.130D-02-0.463D-02-0.195D-02 0.260D-01 0.217D+00 0.765D+00
 Coeff:     -0.123D-05 0.304D-05-0.722D-05-0.334D-04-0.860D-04-0.221D-03
 Coeff:     -0.130D-02-0.463D-02-0.195D-02 0.260D-01 0.217D+00 0.765D+00
 Gap=     0.112 Goal=   None    Shift=    0.000
 RMSDP=1.27D-07 MaxDP=8.46D-06 DE=-7.96D-11 OVMax= 3.70D-06

 Cycle  13  Pass 1  IDiag  1:
 RMSU=  6.15D-08    CP:  7.33D-01  1.21D+00  1.01D+00  6.15D-01  7.60D-01
                    CP:  7.45D-01  8.62D-01  9.17D-01  1.02D+00  1.04D+00
                    CP:  1.13D+00  1.02D+00
 E= -557.411364521742     Delta-E=       -0.000000000002 Rises=F Damp=F
 DIIS: error= 4.71D-08 at cycle  13 NSaved=  13.
 NSaved=13 IEnMin=13 EnMin= -557.411364521742     IErMin=13 ErrMin= 4.71D-08
 ErrMax= 4.71D-08  0.00D+00 EMaxC= 1.00D-01 BMatC= 7.58D-13 BMatP= 4.72D-12
 IDIUse=1 WtCom= 1.00D+00 WtEn= 0.00D+00
 Coeff-Com: -0.824D-06 0.157D-05 0.167D-04 0.307D-04 0.511D-04 0.462D-04
 Coeff-Com: -0.457D-03-0.369D-02-0.633D-02-0.220D-01 0.659D-01 0.390D+00
 Coeff-Com:  0.576D+00
 Coeff:     -0.824D-06 0.157D-05 0.167D-04 0.307D-04 0.511D-04 0.462D-04
 Coeff:     -0.457D-03-0.369D-02-0.633D-02-0.220D-01 0.659D-01 0.390D+00
 Coeff:      0.576D+00
 Gap=     0.112 Goal=   None    Shift=    0.000
 RMSDP=5.03D-08 MaxDP=3.74D-06 DE=-1.59D-12 OVMax= 1.11D-06

 Cycle  14  Pass 1  IDiag  1:
 RMSU=  1.71D-08    CP:  7.33D-01  1.21D+00  1.01D+00  6.15D-01  7.60D-01
                    CP:  7.45D-01  8.62D-01  9.17D-01  1.02D+00  1.05D+00
                    CP:  1.15D+00  1.12D+00  1.12D+00
 E= -557.411364521742     Delta-E=       -0.000000000000 Rises=F Damp=F
 DIIS: error= 1.29D-08 at cycle  14 NSaved=  14.
 NSaved=14 IEnMin=14 EnMin= -557.411364521742     IErMin=14 ErrMin= 1.29D-08
 ErrMax= 1.29D-08  0.00D+00 EMaxC= 1.00D-01 BMatC= 6.33D-14 BMatP= 7.58D-13
 IDIUse=1 WtCom= 1.00D+00 WtEn= 0.00D+00
 Coeff-Com: -0.658D-07-0.349D-07 0.738D-05 0.180D-04 0.354D-04 0.616D-04
 Coeff-Com:  0.103D-03-0.331D-03-0.180D-02-0.142D-01-0.233D-01-0.232D-01
 Coeff-Com:  0.216D+00 0.847D+00
 Coeff:     -0.658D-07-0.349D-07 0.738D-05 0.180D-04 0.354D-04 0.616D-04
 Coeff:      0.103D-03-0.331D-03-0.180D-02-0.142D-01-0.233D-01-0.232D-01
 Coeff:      0.216D+00 0.847D+00
 Gap=     0.112 Goal=   None    Shift=    0.000
 RMSDP=2.71D-08 MaxDP=1.76D-06 DE=-4.55D-13 OVMax= 7.43D-07

 Cycle  15  Pass 1  IDiag  1:
 RMSU=  6.35D-09    CP:  7.33D-01  1.21D+00  1.01D+00  6.15D-01  7.60D-01
                    CP:  7.45D-01  8.62D-01  9.17D-01  1.03D+00  1.05D+00
                    CP:  1.18D+00  1.17D+00  1.28D+00  1.10D+00
 E= -557.411364521747     Delta-E=       -0.000000000005 Rises=F Damp=F
 DIIS: error= 2.37D-09 at cycle  15 NSaved=  15.
 NSaved=15 IEnMin=15 EnMin= -557.411364521747     IErMin=15 ErrMin= 2.37D-09
 ErrMax= 2.37D-09  0.00D+00 EMaxC= 1.00D-01 BMatC= 2.73D-15 BMatP= 6.33D-14
 IDIUse=1 WtCom= 1.00D+00 WtEn= 0.00D+00
 Coeff-Com:  0.249D-07-0.902D-07 0.116D-05 0.337D-05 0.725D-05 0.150D-04
 Coeff-Com:  0.609D-04 0.151D-03-0.117D-03-0.267D-02-0.102D-01-0.282D-01
 Coeff-Com:  0.336D-01 0.239D+00 0.768D+00
 Coeff:      0.249D-07-0.902D-07 0.116D-05 0.337D-05 0.725D-05 0.150D-04
 Coeff:      0.609D-04 0.151D-03-0.117D-03-0.267D-02-0.102D-01-0.282D-01
 Coeff:      0.336D-01 0.239D+00 0.768D+00
 Gap=     0.112 Goal=   None    Shift=    0.000
 RMSDP=4.96D-09 MaxDP=2.71D-07 DE=-5.12D-12 OVMax= 1.15D-07

 Error on total polarization charges =  0.05319
 SCF Done:  E(RB3LYP) =  -557.411364522     A.U. after   15 cycles
            NFock= 15  Conv=0.50D-08     -V/T= 2.0104
 KE= 5.516713717966D+02 PE=-2.779037648804D+03 EE= 9.194042819609D+02
 SMD-CDS (non-electrostatic) energy       (kcal/mol) =      -0.22
 (included in total energy above)
 Leave Link  502 at Wed Jun 24 11:34:54 2026, MaxMem=  4026531840 cpu:             235.0 elap:              29.8
 (Enter /opt/packages/gaussian/g16RevC.01/g16/l801.exe)
 DoSCS=F DFT=T ScalE2(SS,OS)=  1.000000  1.000000
 ExpMin= 4.38D-02 ExpMax= 5.48D+03 ExpMxC= 8.25D+02 IAcc=3 IRadAn=         5 AccDes= 0.00D+00
 HarFok:  IExCor=  205 AccDes= 0.00D+00 IRadAn=         5 IDoV=-2 UseB2=F ITyADJ=14
 ICtDFT= 12500011 ScaDFX=  1.000000  1.000000  1.000000  1.000000
 Largest valence mixing into a core orbital is  5.71D-05
 Largest core mixing into a valence orbital is  1.22D-05
 Range of M.O.s used for correlation:    14   275
 NBasis=   275 NAE=    47 NBE=    47 NFC=    13 NFV=     0
 NROrb=    262 NOA=    34 NOB=    34 NVA=   228 NVB=   228

 **** Warning!!: The largest alpha MO coefficient is  0.24920160D+03

 Leave Link  801 at Wed Jun 24 11:34:54 2026, MaxMem=  4026531840 cpu:               0.9 elap:               0.2
 (Enter /opt/packages/gaussian/g16RevC.01/g16/l914.exe)
 RHF ground state
 Keep R1, R2, and R3 ints in memory in canonical form, NReq=2224030735.
 FoFCou: FMM=F IPFlag=           0 FMFlag=           0 FMFlg1=           0
         NFxFlg=           0 DoJE=F BraDBF=F KetDBF=F FulRan=T
         wScrn=  0.000000 ICntrl=       600 IOpCl=  0 I1Cent=           0 NGrid=           0
         NMat0=    1 NMatS0=  37950 NMatT0=    0 NMatD0=    1 NMtDS0=    0 NMtDT0=    0
 Symmetry not used in FoFCou.
 Two-electron integral symmetry not used.
 MDV=  4026531840 DFT=T DoStab=F Mixed=T DoRPA=T DoScal=F NonHer=T
 NEqPCM:  Using equilibrium solvation (IEInf=0, Eps=  32.6130, EpsInf=   1.7657)
 Making orbital integer symmetry assigments:
 Orbital symmetries:
       Occupied  (A) (A) (A) (A) (A) (A) (A) (A) (A) (A) (A) (A)
                 (A) (A) (A) (A) (A) (A) (A) (A) (A) (A) (A) (A)
                 (A) (A) (A) (A) (A) (A) (A) (A) (A) (A) (A) (A)
                 (A) (A) (A) (A) (A) (A) (A) (A) (A) (A) (A)
       Virtual   (A) (A) (A) (A) (A) (A) (A) (A) (A) (A) (A) (A)
                 (A) (A) (A) (A) (A) (A) (A) (A) (A) (A) (A) (A)
                 (A) (A) (A) (A) (A) (A) (A) (A) (A) (A) (A) (A)
                 (A) (A) (A) (A) (A) (A) (A) (A) (A) (A) (A) (A)
                 (A) (A) (A) (A) (A) (A) (A) (A) (A) (A) (A) (A)
                 (A) (A) (A) (A) (A) (A) (A) (A) (A) (A) (A) (A)
                 (A) (A) (A) (A) (A) (A) (A) (A) (A) (A) (A) (A)
                 (A) (A) (A) (A) (A) (A) (A) (A) (A) (A) (A) (A)
                 (A) (A) (A) (A) (A) (A) (A) (A) (A) (A) (A) (A)
                 (A) (A) (A) (A) (A) (A) (A) (A) (A) (A) (A) (A)
                 (A) (A) (A) (A) (A) (A) (A) (A) (A) (A) (A) (A)
                 (A) (A) (A) (A) (A) (A) (A) (A) (A) (A) (A) (A)
                 (A) (A) (A) (A) (A) (A) (A) (A) (A) (A) (A) (A)
                 (A) (A) (A) (A) (A) (A) (A) (A) (A) (A) (A) (A)
                 (A) (A) (A) (A) (A) (A) (A) (A) (A) (A) (A) (A)
                 (A) (A) (A) (A) (A) (A) (A) (A) (A) (A) (A) (A)
                 (A) (A) (A) (A) (A) (A) (A) (A) (A) (A) (A) (A)
                 (A) (A) (A) (A) (A) (A) (A) (A) (A) (A) (A) (A)
                 (A) (A) (A) (A) (A) (A) (A) (A) (A) (A) (A) (A)
    20 initial guesses have been made.
 Convergence on wavefunction:    0.000001000000000
 Davidson Disk Diagonalization:  ConvIn= 1.00D-06 SkipCon=T Conv= 1.00D-06.
 Max sub-space:  2000 roots to seek:    20 dimension of matrix:        15504
 Iteration     1 Dimension    20 NMult     0 NNew     20
 CISAX will form    20 AO SS matrices at one time.
 NMat=    20 NSing=    20 JSym2X= 0.
 New state      3 was old state      5
 New state      4 was old state      7
 New state      5 was old state      4
 Excitation Energies [eV] at current iteration:
 Root      1 :     2.137837444097248
 Root      2 :     3.436770815150925
 Root      3 :     5.029758838929175
 Root      4 :     5.095233631137670
 Root      5 :     5.162704962166107
 Root      6 :     5.255945894860406
 Root      7 :     5.655786532194059
 Root      8 :     5.767525070568388
 Root      9 :     5.923652161928517
 Root     10 :     5.987985897804792
 Root     11 :     6.045340416912091
 Root     12 :     6.210789986906855
 Root     13 :     6.303760494892503
 Root     14 :     6.416452687369905
 Root     15 :     6.465971483951508
 Root     16 :     6.543609028350777
 Root     17 :     6.672841530649011
 Root     18 :     7.034494987154983
 Root     19 :     7.336681467139586
 Root     20 :     7.665948658325872
 Iteration     2 Dimension    30 NMult    20 NNew     10
 CISAX will form    10 AO SS matrices at one time.
 NMat=    10 NSing=    10 JSym2X= 0.
 Root      1 not converged, maximum delta is    0.017023292445173
 Root      2 not converged, maximum delta is    0.008844430427438
 Root      3 not converged, maximum delta is    0.112871104368846
 New state      4 was old state      5
 Root      4 not converged, maximum delta is    0.363985442563839
 New state      5 was old state      4
 Root      5 not converged, maximum delta is    0.393664668482332
 Excitation Energies [eV] at current iteration:
 Root      1 :     2.122473863229722   Change is   -0.015363580867526
 Root      2 :     3.427730236811157   Change is   -0.009040578339767
 Root      3 :     4.810841071723194   Change is   -0.218917767205982
 Root      4 :     4.842010176414104   Change is   -0.320694785752004
 Root      5 :     5.088595938261825   Change is   -0.006637692875845
 Iteration     3 Dimension    40 NMult    30 NNew     10
 CISAX will form    10 AO SS matrices at one time.
 NMat=    10 NSing=    10 JSym2X= 0.
 Root      1 not converged, maximum delta is    0.001363055694088
 Root      2 not converged, maximum delta is    0.001463367814685
 Root      3 not converged, maximum delta is    0.037633312407017
 Root      4 not converged, maximum delta is    0.028397510092390
 Root      5 not converged, maximum delta is    0.018030654921894
 Excitation Energies [eV] at current iteration:
 Root      1 :     2.121672805671754   Change is   -0.000801057557968
 Root      2 :     3.426995963463555   Change is   -0.000734273347602
 Root      3 :     4.784349638323084   Change is   -0.026491433400109
 Root      4 :     4.820813667009745   Change is   -0.021196509404359
 Root      5 :     5.084706730072733   Change is   -0.003889208189092
 Iteration     4 Dimension    50 NMult    40 NNew     10
 CISAX will form    10 AO SS matrices at one time.
 NMat=    10 NSing=    10 JSym2X= 0.
 Root      1 not converged, maximum delta is    0.000267919701396
 Root      2 not converged, maximum delta is    0.000292765301111
 Root      3 not converged, maximum delta is    0.024625226023670
 Root      4 not converged, maximum delta is    0.005632642856973
 Root      5 not converged, maximum delta is    0.013915748453390
 Excitation Energies [eV] at current iteration:
 Root      1 :     2.121620942156934   Change is   -0.000051863514819
 Root      2 :     3.426938357040359   Change is   -0.000057606423196
 Root      3 :     4.780822745982048   Change is   -0.003526892341036
 Root      4 :     4.818701123119256   Change is   -0.002112543890489
 Root      5 :     5.084185968693156   Change is   -0.000520761379577
 Iteration     5 Dimension    60 NMult    50 NNew     10
 CISAX will form    10 AO SS matrices at one time.
 NMat=    10 NSing=    10 JSym2X= 0.
 Root      1 not converged, maximum delta is    0.000030878565088
 Root      2 not converged, maximum delta is    0.000066626998833
 Root      3 not converged, maximum delta is    0.006643261203501
 Root      4 not converged, maximum delta is    0.001289768483054
 Root      5 not converged, maximum delta is    0.016289172972980
 Excitation Energies [eV] at current iteration:
 Root      1 :     2.121619496599708   Change is   -0.000001445557226
 Root      2 :     3.426934213098959   Change is   -0.000004143941400
 Root      3 :     4.780442844444287   Change is   -0.000379901537761
 Root      4 :     4.818518861028736   Change is   -0.000182262090521
 Root      5 :     5.083993954592054   Change is   -0.000192014101101
 Iteration     6 Dimension    70 NMult    60 NNew     10
 CISAX will form    10 AO SS matrices at one time.
 NMat=    10 NSing=    10 JSym2X= 0.
 Root      1 not converged, maximum delta is    0.000011307744182
 Root      2 not converged, maximum delta is    0.000018876339608
 Root      3 not converged, maximum delta is    0.000506494693679
 Root      4 not converged, maximum delta is    0.000350635621888
 Root      5 not converged, maximum delta is    0.007058099360459
 Excitation Energies [eV] at current iteration:
 Root      1 :     2.121619388618204   Change is   -0.000000107981504
 Root      2 :     3.426933991805336   Change is   -0.000000221293622
 Root      3 :     4.780413472828376   Change is   -0.000029371615912
 Root      4 :     4.818500015564812   Change is   -0.000018845463923
 Root      5 :     5.083935658056610   Change is   -0.000058296535444
 Iteration     7 Dimension    80 NMult    70 NNew     10
 CISAX will form    10 AO SS matrices at one time.
 NMat=    10 NSing=    10 JSym2X= 0.
 Root      1 not converged, maximum delta is    0.000002284127818
 Root      2 not converged, maximum delta is    0.000004988920730
 Root      3 not converged, maximum delta is    0.000063441386925
 Root      4 not converged, maximum delta is    0.000065213203255
 Root      5 not converged, maximum delta is    0.000876177114576
 Excitation Energies [eV] at current iteration:
 Root      1 :     2.121619383985317   Change is   -0.000000004632887
 Root      2 :     3.426933983846622   Change is   -0.000000007958714
 Root      3 :     4.780411059960676   Change is   -0.000002412867700
 Root      4 :     4.818498559355026   Change is   -0.000001456209786
 Root      5 :     5.083929453865220   Change is   -0.000006204191389
 Iteration     8 Dimension    90 NMult    80 NNew     10
 CISAX will form    10 AO SS matrices at one time.
 NMat=    10 NSing=    10 JSym2X= 0.
 Root      1 has converged.
 Root      2 has converged.
 Root      3 not converged, maximum delta is    0.000019960947497
 Root      4 not converged, maximum delta is    0.000026591888870
 Root      5 not converged, maximum delta is    0.000083812860202
 Excitation Energies [eV] at current iteration:
 Root      1 :     2.121619383918942   Change is   -0.000000000066375
 Root      2 :     3.426933983589752   Change is   -0.000000000256870
 Root      3 :     4.780410849779477   Change is   -0.000000210181199
 Root      4 :     4.818498425823825   Change is   -0.000000133531201
 Root      5 :     5.083928905968702   Change is   -0.000000547896519
 Iteration     9 Dimension    96 NMult    90 NNew      6
 CISAX will form     6 AO SS matrices at one time.
 NMat=     6 NSing=     6 JSym2X= 0.
 Root      1 has converged.
 Root      2 has converged.
 Root      3 not converged, maximum delta is    0.000008046613960
 Root      4 not converged, maximum delta is    0.000008557649799
 Root      5 not converged, maximum delta is    0.000010799954508
 Excitation Energies [eV] at current iteration:
 Root      1 :     2.121619383918632   Change is   -0.000000000000310
 Root      2 :     3.426933983589248   Change is   -0.000000000000504
 Root      3 :     4.780410830263834   Change is   -0.000000019515643
 Root      4 :     4.818498411797633   Change is   -0.000000014026192
 Root      5 :     5.083928849416933   Change is   -0.000000056551768
 Iteration    10 Dimension   102 NMult    96 NNew      6
 CISAX will form     6 AO SS matrices at one time.
 NMat=     6 NSing=     6 JSym2X= 0.
 Root      1 has converged.
 Root      2 has converged.
 Root      3 not converged, maximum delta is    0.000002557405129
 Root      4 not converged, maximum delta is    0.000002448940436
 Root      5 not converged, maximum delta is    0.000003242752345
 Excitation Energies [eV] at current iteration:
 Root      1 :     2.121619383918554   Change is   -0.000000000000077
 Root      2 :     3.426933983588913   Change is   -0.000000000000336
 Root      3 :     4.780410828436800   Change is   -0.000000001827034
 Root      4 :     4.818498410473389   Change is   -0.000000001324244
 Root      5 :     5.083928843464938   Change is   -0.000000005951995
 Iteration    11 Dimension   108 NMult   102 NNew      6
 CISAX will form     6 AO SS matrices at one time.
 NMat=     6 NSing=     6 JSym2X= 0.
 Root      1 has converged.
 Root      2 has converged.
 Root      3 has converged.
 Root      4 has converged.
 Root      5 not converged, maximum delta is    0.000001546127700
 Excitation Energies [eV] at current iteration:
 Root      1 :     2.121619383918632   Change is    0.000000000000077
 Root      2 :     3.426933983588792   Change is   -0.000000000000120
 Root      3 :     4.780410828283027   Change is   -0.000000000153773
 Root      4 :     4.818498410329447   Change is   -0.000000000143942
 Root      5 :     5.083928842884951   Change is   -0.000000000579988
 Iteration    12 Dimension   110 NMult   108 NNew      2
 CISAX will form     2 AO SS matrices at one time.
 NMat=     2 NSing=     2 JSym2X= 0.
 Root      1 has converged.
 Root      2 has converged.
 Root      3 has converged.
 Root      4 has converged.
 Root      5 has converged.
 Excitation Energies [eV] at current iteration:
 Root      1 :     2.121619383918593   Change is   -0.000000000000039
 Root      2 :     3.426933983588696   Change is   -0.000000000000096
 Root      3 :     4.780410828278298   Change is   -0.000000000004729
 Root      4 :     4.818498410328935   Change is   -0.000000000000511
 Root      5 :     5.083928842827919   Change is   -0.000000000057032
 Convergence achieved on expansion vectors.
 ***********************************************************************
 Excited states from <AA,BB:AA,BB> singles matrix:
 ***********************************************************************
 
 1PDM for each excited state written to RWF  633
 Ground to excited state transition densities written to RWF  633
 Ground to excited state transition electric dipole moments (Au):
       state          X           Y           Z        Dip. S.      Osc.
         1        -0.1221     -0.0339     -0.0127      0.0162      0.0008
         2         0.1162     -0.0055     -0.0100      0.0136      0.0011
         3        -0.6872      0.9627     -0.1183      1.4132      0.1655
         4         0.9523      0.2999      0.8176      1.6653      0.1966
         5         0.0229      0.0736      0.1692      0.0346      0.0043
 Ground to excited state transition velocity dipole moments (Au):
       state          X           Y           Z        Dip. S.      Osc.
         1         0.0084      0.0004     -0.0012      0.0001      0.0006
         2        -0.0134      0.0010      0.0045      0.0002      0.0011
         3         0.1215     -0.1694      0.0202      0.0438      0.1664
         4        -0.1639     -0.0514     -0.1431      0.0500      0.1882
         5        -0.0041     -0.0137     -0.0338      0.0014      0.0048
 Ground to excited state transition magnetic dipole moments (Au):
       state          X           Y           Z
         1         0.1495      0.0793      0.0706
         2         0.0756      0.0631      0.0271
         3         0.0384      0.0125     -0.0249
         4        -0.1769     -0.0317      0.1831
         5        -0.2795     -0.1144     -0.2358
 Ground to excited state transition velocity quadrupole moments (Au):
       state          XX          YY          ZZ          XY          XZ          YZ
         1        -0.0032      0.0027      0.0068      0.0232      0.0097      0.0029
         2        -0.0300     -0.0047      0.0072     -0.0051     -0.0485      0.0043
         3         0.2292     -0.1323     -0.0309     -0.5381     -0.1305     -0.0153
         4         0.8868     -0.1778      0.0964      0.0738      0.7660      0.1413
         5         0.4860     -0.0562     -0.0162      0.0170      0.1194      0.0596
 <0|del|b> * <b|rxdel|0> + <0|del|b> * <b|delr+rdel|0>
 Rotatory Strengths (R) in cgs (10**-40 erg-esu-cm/Gauss)
       state          XX          YY          ZZ    R(velocity)    E-M Angle
         1        -0.3518      5.5408      5.7461      3.6450       39.04
         2         0.5851     -2.6082     -2.6441     -1.5557      125.02
         3       -71.6711     26.5701     53.3331      2.7440       78.11
         4         8.4276    -19.5769     28.8125      5.8878       85.58
         5        20.1001     17.8868      2.4835     13.4901       40.61
 1/2[<0|r|b>*<b|rxdel|0> + (<0|rxdel|b>*<b|r|0>)*]
 Rotatory Strengths (R) in cgs (10**-40 erg-esu-cm/Gauss)
       state          XX          YY          ZZ     R(length)
         1        12.9130      1.8987      0.6363      5.1493
         2        -6.2116      0.2461      0.1915     -1.9247
         3        18.6571     -8.5004     -2.0789      2.6926
         4       119.1611      6.7324   -105.8620      6.6771
         5         4.5346      5.9568     28.2254     12.9056
  1/2[<0|del|b>*<b|r|0> + (<0|r|b>*<b|del|0>)*] (Au)
       state          X           Y           Z        Dip. S.   Osc.(frdel)
         1        -0.0010     -0.0000      0.0000      0.0010      0.0007
         2        -0.0016     -0.0000     -0.0000      0.0016      0.0011
         3        -0.0835     -0.1630     -0.0024      0.2489      0.1659
         4        -0.1561     -0.0154     -0.1170      0.2885      0.1923
         5        -0.0001     -0.0010     -0.0057      0.0068      0.0046

 Excitation energies and oscillator strengths:
 
 Excited State   1:      Singlet-A      2.1216 eV  584.38 nm  f=0.0008  <S**2>=0.000
      47 -> 48         0.70355
 This state for optimization and/or second-order correction.
 Total Energy, E(TD-HF/TD-DFT) =  -557.333396444    
 Copying the excited state density for this state as the 1-particle RhoCI density.
 
 Excited State   2:      Singlet-A      3.4269 eV  361.79 nm  f=0.0011  <S**2>=0.000
      46 -> 48         0.70679
 
 Excited State   3:      Singlet-A      4.7804 eV  259.36 nm  f=0.1655  <S**2>=0.000
      46 -> 49         0.15561
      46 -> 50        -0.11441
      47 -> 49         0.54720
      47 -> 50         0.38555
 
 Excited State   4:      Singlet-A      4.8185 eV  257.31 nm  f=0.1966  <S**2>=0.000
      45 -> 48         0.68283
      47 -> 50         0.10250
 
 Excited State   5:      Singlet-A      5.0839 eV  243.87 nm  f=0.0043  <S**2>=0.000
      40 -> 48        -0.10119
      43 -> 48         0.64114
      44 -> 48        -0.22758
 SavETr:  write IOETrn=   770 NScale= 10 NData=  16 NLR=1 NState=    5 LETran=     100.
 The selected state is a singlet.
 CISGrd: IGrad=2 NXY=2 DFT=T
 CISAX will form     1 AO SS matrices at one time.
 NMat=     1 NSing=     1 JSym2X= 0.
 GePol: Maximum number of non-zero 1st derivatives   =     256
 Leave Link  914 at Wed Jun 24 11:37:00 2026, MaxMem=  4026531840 cpu:             998.6 elap:             126.4
 (Enter /opt/packages/gaussian/g16RevC.01/g16/l1002.exe)
 Minotr:  Closed shell wavefunction.
          Computing CIS/TDA/TD derivatives.
          Using Z-Vector for PSCF gradient.
          Skipping F1 and S1 gradient terms here.
          IDoAtm=111111111111111111111111111
 NEqPCM:  Using equilibrium solvation (IEInf=0, Eps=  32.6130, EpsInf=   1.7657)
          Frozen-core window.
          Direct CPHF calculation.
          Differentiating once with respect to electric field.
                with respect to dipole field.
          Differentiating once with respect to nuclear coordinates.
          Requested convergence is 1.0D-10 RMS, and 1.0D-09 maximum.
          NewPWx=F KeepS1=T KeepF1=T KeepIn=T MapXYZ=F SortEE=F KeepMc=T.
 Keep R1 ints in memory in canonical form, NReq=730638089.
 FoFCou: FMM=F IPFlag=           0 FMFlag=           0 FMFlg1=           0
         NFxFlg=           0 DoJE=F BraDBF=F KetDBF=F FulRan=T
         wScrn=  0.000000 ICntrl=       600 IOpCl=  0 I1Cent=           0 NGrid=           0
         NMat0=    1 NMatS0=  37950 NMatT0=    0 NMatD0=    1 NMtDS0=    0 NMtDT0=    0
 Symmetry not used in FoFCou.
 Two-electron integral symmetry not used.
          MDV=    4026531840 using IRadAn=       5.
          Solving linear equations separately, MaxMat=       0.
          There are     1 degrees of freedom in the 1st order CPHF.  IDoFFX=0 NUNeed=     1.
 LinEq1:  Iter=  0 NonCon=     1 RMS=1.16D-02 Max=2.72D-01 NDo=     1
 AX will form     1 AO Fock derivatives at one time.
 LinEq1:  Iter=  1 NonCon=     1 RMS=3.44D-03 Max=1.75D-01 NDo=     1
 LinEq1:  Iter=  2 NonCon=     1 RMS=2.52D-03 Max=9.13D-02 NDo=     1
 LinEq1:  Iter=  3 NonCon=     1 RMS=1.07D-03 Max=4.26D-02 NDo=     1
 LinEq1:  Iter=  4 NonCon=     1 RMS=1.00D-03 Max=4.79D-02 NDo=     1
 LinEq1:  Iter=  5 NonCon=     1 RMS=5.69D-04 Max=2.23D-02 NDo=     1
 LinEq1:  Iter=  6 NonCon=     1 RMS=3.84D-04 Max=1.52D-02 NDo=     1
 LinEq1:  Iter=  7 NonCon=     1 RMS=1.59D-04 Max=6.01D-03 NDo=     1
 LinEq1:  Iter=  8 NonCon=     1 RMS=1.04D-04 Max=3.53D-03 NDo=     1
 LinEq1:  Iter=  9 NonCon=     1 RMS=4.46D-05 Max=2.12D-03 NDo=     1
 LinEq1:  Iter= 10 NonCon=     1 RMS=2.35D-05 Max=6.44D-04 NDo=     1
 LinEq1:  Iter= 11 NonCon=     1 RMS=1.01D-05 Max=2.16D-04 NDo=     1
 LinEq1:  Iter= 12 NonCon=     1 RMS=4.73D-06 Max=1.15D-04 NDo=     1
 LinEq1:  Iter= 13 NonCon=     1 RMS=1.41D-06 Max=3.36D-05 NDo=     1
 LinEq1:  Iter= 14 NonCon=     1 RMS=8.75D-07 Max=1.90D-05 NDo=     1
 LinEq1:  Iter= 15 NonCon=     1 RMS=3.18D-07 Max=1.26D-05 NDo=     1
 LinEq1:  Iter= 16 NonCon=     1 RMS=1.81D-07 Max=5.53D-06 NDo=     1
 LinEq1:  Iter= 17 NonCon=     1 RMS=8.21D-08 Max=2.43D-06 NDo=     1
 LinEq1:  Iter= 18 NonCon=     1 RMS=3.39D-08 Max=5.50D-07 NDo=     1
 LinEq1:  Iter= 19 NonCon=     1 RMS=1.32D-08 Max=2.29D-07 NDo=     1
 LinEq1:  Iter= 20 NonCon=     1 RMS=3.52D-09 Max=7.89D-08 NDo=     1
 LinEq1:  Iter= 21 NonCon=     1 RMS=2.18D-09 Max=3.76D-08 NDo=     1
 LinEq1:  Iter= 22 NonCon=     1 RMS=5.33D-10 Max=1.34D-08 NDo=     1
 LinEq1:  Iter= 23 NonCon=     1 RMS=1.20D-10 Max=2.38D-09 NDo=     1
 LinEq1:  Iter= 24 NonCon=     1 RMS=6.65D-11 Max=1.07D-09 NDo=     1
 LinEq1:  Iter= 25 NonCon=     0 RMS=2.13D-11 Max=4.84D-10 NDo=     1
 Linear equations converged to 1.000D-10 1.000D-09 after    25 iterations.
 End of Minotr F.D. properties file   721 does not exist.
 End of Minotr F.D. properties file   722 does not exist.
 End of Minotr F.D. properties file   788 does not exist.
 Leave Link 1002 at Wed Jun 24 11:37:49 2026, MaxMem=  4026531840 cpu:             311.4 elap:              48.8
 (Enter /opt/packages/gaussian/g16RevC.01/g16/l601.exe)
 Copying SCF densities to generalized density rwf, IOpCl= 0 IROHF=0.

 **********************************************************************

            Population analysis using the SCF Density.

 **********************************************************************

 Orbital symmetries:
       Occupied  (A) (A) (A) (A) (A) (A) (A) (A) (A) (A) (A) (A)
                 (A) (A) (A) (A) (A) (A) (A) (A) (A) (A) (A) (A)
                 (A) (A) (A) (A) (A) (A) (A) (A) (A) (A) (A) (A)
                 (A) (A) (A) (A) (A) (A) (A) (A) (A) (A) (A)
       Virtual   (A) (A) (A) (A) (A) (A) (A) (A) (A) (A) (A) (A)
                 (A) (A) (A) (A) (A) (A) (A) (A) (A) (A) (A) (A)
                 (A) (A) (A) (A) (A) (A) (A) (A) (A) (A) (A) (A)
                 (A) (A) (A) (A) (A) (A) (A) (A) (A) (A) (A) (A)
                 (A) (A) (A) (A) (A) (A) (A) (A) (A) (A) (A) (A)
                 (A) (A) (A) (A) (A) (A) (A) (A) (A) (A) (A) (A)
                 (A) (A) (A) (A) (A) (A) (A) (A) (A) (A) (A) (A)
                 (A) (A) (A) (A) (A) (A) (A) (A) (A) (A) (A) (A)
                 (A) (A) (A) (A) (A) (A) (A) (A) (A) (A) (A) (A)
                 (A) (A) (A) (A) (A) (A) (A) (A) (A) (A) (A) (A)
                 (A) (A) (A) (A) (A) (A) (A) (A) (A) (A) (A) (A)
                 (A) (A) (A) (A) (A) (A) (A) (A) (A) (A) (A) (A)
                 (A) (A) (A) (A) (A) (A) (A) (A) (A) (A) (A) (A)
                 (A) (A) (A) (A) (A) (A) (A) (A) (A) (A) (A) (A)
                 (A) (A) (A) (A) (A) (A) (A) (A) (A) (A) (A) (A)
                 (A) (A) (A) (A) (A) (A) (A) (A) (A) (A) (A) (A)
                 (A) (A) (A) (A) (A) (A) (A) (A) (A) (A) (A) (A)
                 (A) (A) (A) (A) (A) (A) (A) (A) (A) (A) (A) (A)
                 (A) (A) (A) (A) (A) (A) (A) (A) (A) (A) (A) (A)
 The electronic state is 1-A.
 Alpha  occ. eigenvalues --  -19.20004 -14.44212 -10.32881 -10.27297 -10.24179
 Alpha  occ. eigenvalues --  -10.24006 -10.22682 -10.22017 -10.21880 -10.21417
 Alpha  occ. eigenvalues --  -10.20462 -10.20369 -10.20159  -1.09134  -1.00301
 Alpha  occ. eigenvalues --   -0.87088  -0.80913  -0.79471  -0.77103  -0.74867
 Alpha  occ. eigenvalues --   -0.70402  -0.63583  -0.62822  -0.62024  -0.60644
 Alpha  occ. eigenvalues --   -0.55918  -0.53730  -0.51607  -0.49664  -0.47932
 Alpha  occ. eigenvalues --   -0.47738  -0.45579  -0.44554  -0.43990  -0.43799
 Alpha  occ. eigenvalues --   -0.42715  -0.41418  -0.39376  -0.38923  -0.38098
 Alpha  occ. eigenvalues --   -0.37326  -0.37152  -0.33853  -0.33504  -0.32346
 Alpha  occ. eigenvalues --   -0.27633  -0.23098
 Alpha virt. eigenvalues --   -0.11887  -0.02816  -0.01959   0.00321   0.01510
 Alpha virt. eigenvalues --    0.02180   0.02753   0.02899   0.03241   0.03867
 Alpha virt. eigenvalues --    0.04737   0.04898   0.05544   0.06206   0.06573
 Alpha virt. eigenvalues --    0.07111   0.07864   0.08328   0.09277   0.09648
 Alpha virt. eigenvalues --    0.10058   0.10507   0.11375   0.11735   0.11912
 Alpha virt. eigenvalues --    0.12190   0.12773   0.13429   0.13831   0.14470
 Alpha virt. eigenvalues --    0.14699   0.15067   0.15347   0.15877   0.16477
 Alpha virt. eigenvalues --    0.17270   0.17392   0.17846   0.18418   0.18798
 Alpha virt. eigenvalues --    0.19507   0.20140   0.20545   0.20990   0.21567
 Alpha virt. eigenvalues --    0.22170   0.22457   0.22762   0.23112   0.23704
 Alpha virt. eigenvalues --    0.24464   0.25106   0.25329   0.25716   0.26075
 Alpha virt. eigenvalues --    0.26398   0.27276   0.27556   0.28161   0.28620
 Alpha virt. eigenvalues --    0.29119   0.29502   0.29811   0.30679   0.31132
 Alpha virt. eigenvalues --    0.31163   0.31955   0.32718   0.32999   0.33643
 Alpha virt. eigenvalues --    0.34519   0.35111   0.36867   0.37324   0.38150
 Alpha virt. eigenvalues --    0.38655   0.38922   0.39347   0.40128   0.41078
 Alpha virt. eigenvalues --    0.44857   0.47232   0.55881   0.58361   0.64255
 Alpha virt. eigenvalues --    0.64850   0.65938   0.67410   0.67617   0.68280
 Alpha virt. eigenvalues --    0.68626   0.68925   0.69371   0.70177   0.71404
 Alpha virt. eigenvalues --    0.73063   0.73407   0.75352   0.75988   0.76620
 Alpha virt. eigenvalues --    0.77520   0.77929   0.79167   0.80071   0.80993
 Alpha virt. eigenvalues --    0.83098   0.86479   0.86672   0.88283   0.90639
 Alpha virt. eigenvalues --    0.91266   0.92677   0.93224   0.94431   0.95171
 Alpha virt. eigenvalues --    0.95998   0.96477   0.97859   0.99063   0.99285
 Alpha virt. eigenvalues --    1.01453   1.03475   1.04001   1.05598   1.07250
 Alpha virt. eigenvalues --    1.08270   1.09708   1.12093   1.13722   1.14388
 Alpha virt. eigenvalues --    1.15325   1.15461   1.19307   1.20970   1.21236
 Alpha virt. eigenvalues --    1.22897   1.23175   1.23934   1.26534   1.28609
 Alpha virt. eigenvalues --    1.30690   1.31421   1.36081   1.37670   1.40879
 Alpha virt. eigenvalues --    1.42249   1.43960   1.46620   1.46776   1.48503
 Alpha virt. eigenvalues --    1.49264   1.51622   1.54553   1.56121   1.60377
 Alpha virt. eigenvalues --    1.63654   1.68922   1.73488   1.74402   1.78468
 Alpha virt. eigenvalues --    1.79688   1.82394   1.82796   1.84994   1.86752
 Alpha virt. eigenvalues --    1.87488   1.89659   1.92733   1.93500   1.95788
 Alpha virt. eigenvalues --    1.97261   1.97825   1.99481   2.02294   2.04646
 Alpha virt. eigenvalues --    2.07244   2.09490   2.10003   2.10542   2.12295
 Alpha virt. eigenvalues --    2.13733   2.15089   2.16841   2.18737   2.21140
 Alpha virt. eigenvalues --    2.23390   2.24237   2.27622   2.29642   2.31452
 Alpha virt. eigenvalues --    2.32645   2.35802   2.37821   2.41289   2.44903
 Alpha virt. eigenvalues --    2.49847   2.52194   2.54913   2.56407   2.58471
 Alpha virt. eigenvalues --    2.63423   2.64546   2.66745   2.68211   2.71193
 Alpha virt. eigenvalues --    2.75303   2.77760   2.80132   2.82353   2.89557
 Alpha virt. eigenvalues --    2.95256   2.97570   3.06143   3.19722   3.38543
 Alpha virt. eigenvalues --    4.09023   4.22094   4.24253   4.24834   4.27684
 Alpha virt. eigenvalues --    4.29461   4.35967   4.38376   4.46253   4.52468
 Alpha virt. eigenvalues --    4.54924   4.61434   4.77272
          Condensed to atoms (all electrons):
               1          2          3          4          5          6
     1  C    7.424782   0.363619   0.508598   0.289879  -0.545728  -0.557173
     2  C    0.363619  10.791077  -3.438524  -0.825588   0.407256  -1.896643
     3  C    0.508598  -3.438524  14.071386   3.877793  -4.205561   0.979822
     4  C    0.289879  -0.825588   3.877793  19.280668  -5.430792   1.385293
     5  C   -0.545728   0.407256  -4.205561  -5.430792  13.512612  -3.464947
     6  C   -0.557173  -1.896643   0.979822   1.385293  -3.464947  10.866615
     7  H   -0.063621   0.032012  -0.029992   0.042965  -0.044904   0.373184
     8  H   -0.040650   0.289712  -0.015647   0.035763   0.005121   0.017360
     9  H    0.008926  -0.023820   0.213765   0.066242   0.071552  -0.036995
    10  H    0.018876  -0.027304   0.027621  -0.112389   0.406081  -0.098168
    11  O    0.414554   0.180727  -0.032511  -0.032714  -0.023137  -0.548049
    12  C   -0.084451  -0.130230   0.024183  -0.008056  -0.006763   0.071259
    13  H   -0.054946   0.022094   0.032011   0.001054  -0.000860  -0.007978
    14  H   -0.044980   0.021333   0.018901  -0.002403   0.003691  -0.009966
    15  H    0.029835  -0.037765  -0.011648  -0.000371   0.000610   0.025128
    16  C   -1.713683  -0.876487  -5.142557 -11.764505   5.672393  -0.498927
    17  C    0.081735   0.405195   0.334470   0.502444  -0.243591  -0.227866
    18  N   -0.007229   0.049209   0.123891  -0.135510  -0.071632   0.046454
    19  C   -0.000721   0.060217  -0.065416  -0.253117   0.095425  -0.059870
    20  C   -0.024183  -0.015985  -0.201116  -0.668064   0.144121   0.002879
    21  H   -0.000800   0.004073   0.002057   0.058629  -0.026297   0.003177
    22  H    0.000805  -0.007865   0.004897  -0.105494   0.016844  -0.002236
    23  H   -0.000053  -0.001301   0.011016  -0.027583  -0.004309  -0.000332
    24  H    0.000021  -0.001139  -0.007859  -0.001378   0.006613   0.000299
    25  H   -0.000117  -0.000455   0.002605  -0.020909  -0.002058  -0.000561
    26  H   -0.000114   0.001318  -0.003511  -0.014211   0.001973   0.000264
    27  H    0.000624  -0.014454  -0.030831   0.012808   0.024011   0.004826
               7          8          9         10         11         12
     1  C   -0.063621  -0.040650   0.008926   0.018876   0.414554  -0.084451
     2  C    0.032012   0.289712  -0.023820  -0.027304   0.180727  -0.130230
     3  C   -0.029992  -0.015647   0.213765   0.027621  -0.032511   0.024183
     4  C    0.042965   0.035763   0.066242  -0.112389  -0.032714  -0.008056
     5  C   -0.044904   0.005121   0.071552   0.406081  -0.023137  -0.006763
     6  C    0.373184   0.017360  -0.036995  -0.098168  -0.548049   0.071259
     7  H    0.473892  -0.000097   0.000012  -0.003640  -0.003124  -0.000393
     8  H   -0.000097   0.470984  -0.004055   0.000012  -0.011174  -0.001294
     9  H    0.000012  -0.004055   0.477757  -0.000123  -0.000699   0.001268
    10  H   -0.003640   0.000012  -0.000123   0.478201  -0.000490   0.000284
    11  O   -0.003124  -0.011174  -0.000699  -0.000490   8.518829   0.065817
    12  C   -0.000393  -0.001294   0.001268   0.000284   0.065817   5.304079
    13  H    0.000002  -0.000854   0.000002  -0.000000  -0.034592   0.384969
    14  H    0.000002  -0.000830   0.000005   0.000000  -0.033983   0.390299
    15  H   -0.000007   0.000130  -0.000000  -0.000000  -0.051871   0.394089
    16  C   -0.005972   0.020518  -0.010083   0.075096   0.013375  -0.034382
    17  C   -0.000102  -0.000295  -0.001747  -0.000108  -0.000829   0.001336
    18  N   -0.000206  -0.000161   0.000761   0.000875   0.000156  -0.000033
    19  C   -0.000059   0.000127  -0.000234   0.000707  -0.000013   0.000063
    20  C   -0.000000  -0.000002   0.002391   0.001349   0.000158  -0.000177
    21  H    0.000000   0.000000   0.000027   0.000011   0.000000   0.000007
    22  H    0.000000  -0.000001   0.000209  -0.000010  -0.000000  -0.000009
    23  H   -0.000000   0.000000   0.000006   0.000000   0.000000  -0.000001
    24  H    0.000000  -0.000000   0.000000  -0.000001  -0.000000  -0.000000
    25  H    0.000000   0.000000  -0.000001  -0.000002   0.000000  -0.000000
    26  H    0.000000   0.000000   0.000003   0.000000   0.000000   0.000000
    27  H    0.000001   0.000000   0.000021   0.000012  -0.000000   0.000008
              13         14         15         16         17         18
     1  C   -0.054946  -0.044980   0.029835  -1.713683   0.081735  -0.007229
     2  C    0.022094   0.021333  -0.037765  -0.876487   0.405195   0.049209
     3  C    0.032011   0.018901  -0.011648  -5.142557   0.334470   0.123891
     4  C    0.001054  -0.002403  -0.000371 -11.764505   0.502444  -0.135510
     5  C   -0.000860   0.003691   0.000610   5.672393  -0.243591  -0.071632
     6  C   -0.007978  -0.009966   0.025128  -0.498927  -0.227866   0.046454
     7  H    0.000002   0.000002  -0.000007  -0.005972  -0.000102  -0.000206
     8  H   -0.000854  -0.000830   0.000130   0.020518  -0.000295  -0.000161
     9  H    0.000002   0.000005  -0.000000  -0.010083  -0.001747   0.000761
    10  H   -0.000000   0.000000  -0.000000   0.075096  -0.000108   0.000875
    11  O   -0.034592  -0.033983  -0.051871   0.013375  -0.000829   0.000156
    12  C    0.384969   0.390299   0.394089  -0.034382   0.001336  -0.000033
    13  H    0.480055  -0.034729  -0.025758   0.000013  -0.000038  -0.000003
    14  H   -0.034729   0.481677  -0.025388  -0.001313   0.000084   0.000002
    15  H   -0.025758  -0.025388   0.465553  -0.000002  -0.000002  -0.000000
    16  C    0.000013  -0.001313  -0.000002  21.200517  -2.630900   0.285465
    17  C   -0.000038   0.000084  -0.000002  -2.630900   8.034355   0.013608
    18  N   -0.000003   0.000002  -0.000000   0.285465   0.013608   6.821673
    19  C   -0.000001   0.000001  -0.000000  -0.518657   0.351653   0.154603
    20  C    0.000003  -0.000007   0.000000   1.205886  -0.863694  -0.165125
    21  H    0.000000  -0.000000   0.000000  -0.093249   0.400909   0.007481
    22  H   -0.000000   0.000000   0.000000   0.012561   0.414234   0.008306
    23  H   -0.000000  -0.000000   0.000000  -0.018624   0.036550  -0.025912
    24  H    0.000000  -0.000000  -0.000000   0.014728   0.013244  -0.042727
    25  H   -0.000000   0.000000   0.000000   0.049279  -0.093819   0.006558
    26  H   -0.000000   0.000000   0.000000   0.008655  -0.062327   0.011552
    27  H   -0.000000   0.000000   0.000000   0.062771  -0.029017   0.225551
              19         20         21         22         23         24
     1  C   -0.000721  -0.024183  -0.000800   0.000805  -0.000053   0.000021
     2  C    0.060217  -0.015985   0.004073  -0.007865  -0.001301  -0.001139
     3  C   -0.065416  -0.201116   0.002057   0.004897   0.011016  -0.007859
     4  C   -0.253117  -0.668064   0.058629  -0.105494  -0.027583  -0.001378
     5  C    0.095425   0.144121  -0.026297   0.016844  -0.004309   0.006613
     6  C   -0.059870   0.002879   0.003177  -0.002236  -0.000332   0.000299
     7  H   -0.000059  -0.000000   0.000000   0.000000  -0.000000   0.000000
     8  H    0.000127  -0.000002   0.000000  -0.000001   0.000000  -0.000000
     9  H   -0.000234   0.002391   0.000027   0.000209   0.000006   0.000000
    10  H    0.000707   0.001349   0.000011  -0.000010   0.000000  -0.000001
    11  O   -0.000013   0.000158   0.000000  -0.000000   0.000000  -0.000000
    12  C    0.000063  -0.000177   0.000007  -0.000009  -0.000001  -0.000000
    13  H   -0.000001   0.000003   0.000000  -0.000000  -0.000000   0.000000
    14  H    0.000001  -0.000007  -0.000000   0.000000  -0.000000  -0.000000
    15  H   -0.000000   0.000000   0.000000   0.000000   0.000000  -0.000000
    16  C   -0.518657   1.205886  -0.093249   0.012561  -0.018624   0.014728
    17  C    0.351653  -0.863694   0.400909   0.414234   0.036550   0.013244
    18  N    0.154603  -0.165125   0.007481   0.008306  -0.025912  -0.042727
    19  C    6.020772  -0.155397   0.021678   0.004155   0.407422   0.411473
    20  C   -0.155397   6.461299  -0.059111  -0.041809  -0.062042  -0.067114
    21  H    0.021678  -0.059111   0.431882  -0.021416  -0.000177  -0.000041
    22  H    0.004155  -0.041809  -0.021416   0.417018   0.001555  -0.000211
    23  H    0.407422  -0.062042  -0.000177   0.001555   0.452836  -0.029021
    24  H    0.411473  -0.067114  -0.000041  -0.000211  -0.029021   0.450050
    25  H   -0.089588   0.467620  -0.005535   0.003261   0.003297  -0.006188
    26  H   -0.046816   0.430628   0.000668  -0.003868  -0.003778   0.001385
    27  H   -0.043431   0.018615  -0.000089  -0.000137   0.000204  -0.000734
              25         26         27
     1  C   -0.000117  -0.000114   0.000624
     2  C   -0.000455   0.001318  -0.014454
     3  C    0.002605  -0.003511  -0.030831
     4  C   -0.020909  -0.014211   0.012808
     5  C   -0.002058   0.001973   0.024011
     6  C   -0.000561   0.000264   0.004826
     7  H    0.000000   0.000000   0.000001
     8  H    0.000000   0.000000   0.000000
     9  H   -0.000001   0.000003   0.000021
    10  H   -0.000002   0.000000   0.000012
    11  O    0.000000   0.000000  -0.000000
    12  C   -0.000000   0.000000   0.000008
    13  H   -0.000000  -0.000000  -0.000000
    14  H    0.000000   0.000000   0.000000
    15  H    0.000000   0.000000   0.000000
    16  C    0.049279   0.008655   0.062771
    17  C   -0.093819  -0.062327  -0.029017
    18  N    0.006558   0.011552   0.225551
    19  C   -0.089588  -0.046816  -0.043431
    20  C    0.467620   0.430628   0.018615
    21  H   -0.005535   0.000668  -0.000089
    22  H    0.003261  -0.003868  -0.000137
    23  H    0.003297  -0.003778   0.000204
    24  H   -0.006188   0.001385  -0.000734
    25  H    0.462618  -0.024748  -0.000207
    26  H   -0.024748   0.457830  -0.000078
    27  H   -0.000207  -0.000078   0.255374
 Mulliken charges:
               1
     1  C   -0.003805
     2  C    0.669717
     3  C   -1.047846
     4  C   -0.150455
     5  C   -0.297723
     6  C   -0.366850
     7  H    0.230047
     8  H    0.235332
     9  H    0.234809
    10  H    0.233108
    11  O   -0.420431
    12  C   -0.371872
    13  H    0.239557
    14  H    0.237603
    15  H    0.237465
    16  C    0.688087
    17  C   -0.435483
    18  N   -0.307605
    19  C   -0.294980
    20  C   -0.411123
    21  H    0.276114
    22  H    0.299211
    23  H    0.260246
    24  H    0.258600
    25  H    0.248951
    26  H    0.245173
    27  H    0.514152
 Sum of Mulliken charges =   1.00000
 Mulliken charges with hydrogens summed into heavy atoms:
               1
     1  C   -0.003805
     2  C    0.905049
     3  C   -0.813037
     4  C   -0.150455
     5  C   -0.064615
     6  C   -0.136803
    11  O   -0.420431
    12  C    0.342754
    16  C    0.688087
    17  C    0.139843
    18  N    0.206547
    19  C    0.223865
    20  C    0.083001
 Electronic spatial extent (au):  <R**2>=           3384.6011
 Charge=              1.0000 electrons
 Dipole moment (field-independent basis, Debye):
    X=             -8.6713    Y=             -1.6865    Z=             -1.5328  Tot=              8.9658
 Quadrupole moment (field-independent basis, Debye-Ang):
   XX=            -21.8679   YY=            -66.0372   ZZ=            -69.9608
   XY=             -8.2964   XZ=              4.3415   YZ=             -1.5688
 Traceless Quadrupole moment (field-independent basis, Debye-Ang):
   XX=             30.7541   YY=            -13.4152   ZZ=            -17.3388
   XY=             -8.2964   XZ=              4.3415   YZ=             -1.5688
 Octapole moment (field-independent basis, Debye-Ang**2):
  XXX=            -46.4620  YYY=             -0.0874  ZZZ=            -12.0684  XYY=              1.4558
  XXY=            -43.5849  XXZ=            -17.0506  XZZ=            -28.4225  YZZ=              0.3158
  YYZ=              0.1468  XYZ=              4.3208
 Hexadecapole moment (field-independent basis, Debye-Ang**3):
 XXXX=          -2782.5816 YYYY=           -379.1669 ZZZZ=           -237.1132 XXXY=           -137.9403
 XXXZ=             64.6438 YYYX=              4.6110 YYYZ=             -0.5292 ZZZX=             29.1450
 ZZZY=             -7.9482 XXYY=           -636.3863 XXZZ=           -605.8526 YYZZ=           -118.1818
 XXYZ=             -8.4528 YYXZ=              1.1837 ZZXY=            -10.5604
 N-N= 7.505506305252D+02 E-N=-2.779037649285D+03  KE= 5.516713717966D+02
 No NMR shielding tensors so no spin-rotation constants.
 Leave Link  601 at Wed Jun 24 11:37:50 2026, MaxMem=  4026531840 cpu:               0.8 elap:               0.1
 (Enter /opt/packages/gaussian/g16RevC.01/g16/l701.exe)
 ... and contract with generalized density number  6.
 Compute integral first derivatives.
 D1PCM: PCM CHGder 1st derivatives, ID1Alg=3 FixD1E=F DoIter=F DoCFld=F I1PDM=6.
 Leave Link  701 at Wed Jun 24 11:37:52 2026, MaxMem=  4026531840 cpu:              13.7 elap:               1.8
 (Enter /opt/packages/gaussian/g16RevC.01/g16/l702.exe)
 L702 exits ... SP integral derivatives will be done elsewhere.
 Leave Link  702 at Wed Jun 24 11:37:52 2026, MaxMem=  4026531840 cpu:               0.1 elap:               0.0
 (Enter /opt/packages/gaussian/g16RevC.01/g16/l703.exe)
 Integral derivatives from FoFJK, PRISM(SPDF).
 Compute integral first derivatives, UseDBF=F ICtDFT=           0.
 Calling FoFJK, ICntrl=  10005127 FMM=F ISym2X=0 I1Cent= 0 IOpClX= 0 NMat=1 NMatS=1 NMatT=0.
 FoFJK:  IHMeth= 1 ICntrl=10005127 DoSepK=F KAlg= 0 I1Cent=           0 FoldK=F
 IRaf=         0 NMat=       1 IRICut=       1 DoRegI=T DoRafI=F ISym2E= 0 IDoP0=0 IntGTp=1.
 FoFCou: FMM=F IPFlag=           0 FMFlag=      100000 FMFlg1=         800
         NFxFlg=           0 DoJE=F BraDBF=F KetDBF=F FulRan=T
         wScrn=  0.000000 ICntrl=  10005127 IOpCl=  0 I1Cent=           0 NGrid=           0
         NMat0=    1 NMatS0=      1 NMatT0=    0 NMatD0=    1 NMtDS0=    0 NMtDT0=    0
 Symmetry not used in FoFCou.
 Leave Link  703 at Wed Jun 24 11:37:58 2026, MaxMem=  4026531840 cpu:              50.3 elap:               6.3
 (Enter /opt/packages/gaussian/g16RevC.01/g16/l716.exe)
 Dipole        = 2.37829383D+00-5.32431509D-01-3.78894852D-01
 ***** Axes restored to original set *****
 -------------------------------------------------------------------
 Center     Atomic                   Forces (Hartrees/Bohr)
 Number     Number              X              Y              Z
 -------------------------------------------------------------------
      1        6           0.001228070   -0.000472866   -0.000403794
      2        6          -0.000859351    0.000373425    0.000233817
      3        6           0.001107596   -0.000394112   -0.000713246
      4        6          -0.002826503   -0.000029128    0.000168976
      5        6           0.000445639    0.000389032    0.000181670
      6        6          -0.000714482   -0.000054293    0.000579682
      7        1          -0.000274975   -0.000567240   -0.000436219
      8        1           0.000022893   -0.000296656    0.000100157
      9        1          -0.000121619    0.000318509    0.000464851
     10        1           0.001233399   -0.000115432   -0.000709261
     11        8           0.000137368    0.000374005   -0.000505068
     12        6           0.001208832   -0.000879545    0.000415835
     13        1          -0.001195979   -0.000000975    0.000442851
     14        1          -0.000700596    0.000600291   -0.000264959
     15        1          -0.000438749    0.000829481    0.000337742
     16        6           0.001572300    0.000692747    0.000213861
     17        6          -0.000174717   -0.000088392    0.000044932
     18        7          -0.000363031   -0.000496394   -0.001222894
     19        6           0.000332860   -0.000076344    0.000167453
     20        6           0.000098602    0.000386599    0.000377505
     21        1          -0.000182477   -0.000708101   -0.000244889
     22        1           0.000423502    0.000660612   -0.000230465
     23        1          -0.000154724    0.000081673    0.000414984
     24        1           0.000146812   -0.000129714   -0.000052991
     25        1           0.000072865   -0.000142948   -0.000464937
     26        1           0.000094632    0.000293427   -0.000317794
     27        1          -0.000118166   -0.000547661    0.001422201
 -------------------------------------------------------------------
 Cartesian Forces:  Max     0.002826503 RMS     0.000638572
 Leave Link  716 at Wed Jun 24 11:37:58 2026, MaxMem=  4026531840 cpu:               0.3 elap:               0.1
 (Enter /opt/packages/gaussian/g16RevC.01/g16/l103.exe)

 GradGradGradGradGradGradGradGradGradGradGradGradGradGradGradGradGradGrad
 Berny optimization.
 FormGI is forming the generalized inverse of G from B-inverse, IUseBI=4.
 Internal  Forces:  Max     0.001747364 RMS     0.000477309
 Search for a local minimum.
 Step number   1 out of a maximum of  154
 All quantities printed in internal units (Hartrees-Bohrs-Radians)
 RMS Force = .47731D-03 SwitMx=.10000D-02 MixMth= 2
 Mixed Optimization -- En-DIIS/RFO-DIIS
 Second derivative matrix not updated -- first step.
 ITU=  0
     Eigenvalues ---    0.00402   0.00933   0.00975   0.01047   0.01469
     Eigenvalues ---    0.01521   0.01683   0.01785   0.01810   0.01947
     Eigenvalues ---    0.01972   0.02056   0.02098   0.02191   0.02203
     Eigenvalues ---    0.02833   0.03294   0.03559   0.05001   0.05241
     Eigenvalues ---    0.05773   0.06060   0.06888   0.07170   0.07830
     Eigenvalues ---    0.08386   0.09318   0.10151   0.10728   0.10732
     Eigenvalues ---    0.12969   0.15997   0.15999   0.16000   0.16000
     Eigenvalues ---    0.16000   0.16000   0.16000   0.19450   0.21398
     Eigenvalues ---    0.21866   0.21999   0.22947   0.23998   0.24995
     Eigenvalues ---    0.25000   0.25000   0.26906   0.27397   0.30082
     Eigenvalues ---    0.33196   0.33908   0.33987   0.34066   0.34169
     Eigenvalues ---    0.34257   0.34285   0.34486   0.34501   0.34717
     Eigenvalues ---    0.34929   0.35150   0.35235   0.35267   0.35590
     Eigenvalues ---    0.37698   0.37824   0.39508   0.40468   0.41513
     Eigenvalues ---    0.44134   0.45152   0.47672   0.50456   0.63529
 RFO step:  Lambda=-4.95384678D-04 EMin= 4.01573130D-03
 Linear search not attempted -- first point.
 Iteration  1 RMS(Cart)=  0.04947803 RMS(Int)=  0.00106006
 Iteration  2 RMS(Cart)=  0.00128590 RMS(Int)=  0.00002233
 Iteration  3 RMS(Cart)=  0.00000098 RMS(Int)=  0.00002232
 ITry= 1 IFail=0 DXMaxC= 1.81D-01 DCOld= 1.00D+10 DXMaxT= 3.00D-01 DXLimC= 3.00D+00 Rises=F
 Variable       Old X    -DE/DX   Delta X   Delta X   Delta X     New X
                                 (Linear)    (Quad)   (Total)
    R1        2.70079   0.00001   0.00000   0.00001   0.00000   2.70079
    R2        2.71236  -0.00058   0.00000  -0.00153  -0.00153   2.71083
    R3        2.48252  -0.00089   0.00000  -0.00140  -0.00140   2.48112
    R4        2.59437  -0.00045   0.00000  -0.00081  -0.00081   2.59356
    R5        2.04728   0.00016   0.00000   0.00044   0.00044   2.04772
    R6        2.70659   0.00042   0.00000   0.00112   0.00112   2.70771
    R7        2.05296  -0.00041   0.00000  -0.00116  -0.00116   2.05180
    R8        2.69142   0.00032   0.00000   0.00078   0.00078   2.69220
    R9        2.79437  -0.00175   0.00000  -0.00503  -0.00503   2.78934
   R10        2.59378  -0.00114   0.00000  -0.00233  -0.00232   2.59146
   R11        2.05431  -0.00110   0.00000  -0.00313  -0.00313   2.05118
   R12        2.05243  -0.00075   0.00000  -0.00214  -0.00214   2.05029
   R13        2.74807  -0.00149   0.00000  -0.00394  -0.00394   2.74413
   R14        2.06517  -0.00032   0.00000  -0.00092  -0.00092   2.06425
   R15        2.06493  -0.00050   0.00000  -0.00145  -0.00145   2.06347
   R16        2.05790  -0.00008   0.00000  -0.00024  -0.00024   2.05767
   R17        2.85267  -0.00008   0.00000  -0.00071  -0.00071   2.85197
   R18        2.63714  -0.00051   0.00000  -0.00064  -0.00062   2.63651
   R19        2.92551  -0.00006   0.00000  -0.00077  -0.00079   2.92472
   R20        2.07046  -0.00023   0.00000  -0.00067  -0.00067   2.06979
   R21        2.08709  -0.00042   0.00000  -0.00126  -0.00126   2.08583
   R22        2.79011  -0.00066   0.00000  -0.00131  -0.00129   2.78882
   R23        1.91800  -0.00109   0.00000  -0.00241  -0.00241   1.91559
   R24        2.91512  -0.00062   0.00000  -0.00257  -0.00257   2.91255
   R25        2.07351  -0.00034   0.00000  -0.00099  -0.00099   2.07252
   R26        2.06899  -0.00019   0.00000  -0.00055  -0.00055   2.06843
   R27        2.07219  -0.00044   0.00000  -0.00129  -0.00129   2.07090
   R28        2.06852  -0.00027   0.00000  -0.00079  -0.00079   2.06773
    A1        2.10963  -0.00027   0.00000  -0.00133  -0.00134   2.10829
    A2        2.16645   0.00097   0.00000   0.00401   0.00400   2.17045
    A3        2.00710  -0.00070   0.00000  -0.00265  -0.00266   2.00444
    A4        2.06690   0.00002   0.00000   0.00019   0.00018   2.06709
    A5        2.10490   0.00006   0.00000   0.00033   0.00034   2.10524
    A6        2.11138  -0.00008   0.00000  -0.00053  -0.00053   2.11085
    A7        2.12393   0.00022   0.00000   0.00132   0.00130   2.12524
    A8        2.08395   0.00027   0.00000   0.00180   0.00178   2.08573
    A9        2.07512  -0.00049   0.00000  -0.00293  -0.00295   2.07217
   A10        2.07388  -0.00065   0.00000  -0.00249  -0.00248   2.07139
   A11        2.10954  -0.00035   0.00000  -0.00144  -0.00144   2.10810
   A12        2.09961   0.00100   0.00000   0.00396   0.00395   2.10357
   A13        2.10901   0.00021   0.00000   0.00073   0.00072   2.10973
   A14        2.06880   0.00069   0.00000   0.00461   0.00458   2.07338
   A15        2.10531  -0.00089   0.00000  -0.00521  -0.00524   2.10007
   A16        2.08283   0.00048   0.00000   0.00174   0.00174   2.08457
   A17        2.06441  -0.00038   0.00000  -0.00171  -0.00172   2.06269
   A18        2.13592  -0.00010   0.00000   0.00002   0.00001   2.13592
   A19        2.13272  -0.00103   0.00000  -0.00410  -0.00410   2.12862
   A20        1.91451  -0.00126   0.00000  -0.00871  -0.00874   1.90577
   A21        1.91690  -0.00052   0.00000  -0.00371  -0.00374   1.91316
   A22        1.82913  -0.00084   0.00000  -0.00407  -0.00408   1.82505
   A23        1.94881   0.00014   0.00000  -0.00137  -0.00141   1.94740
   A24        1.92686   0.00119   0.00000   0.00820   0.00818   1.93504
   A25        1.92397   0.00123   0.00000   0.00936   0.00934   1.93332
   A26        2.14535  -0.00021   0.00000  -0.00364  -0.00371   2.14164
   A27        2.08213   0.00024   0.00000  -0.00240  -0.00246   2.07967
   A28        1.89061  -0.00021   0.00000  -0.00438  -0.00442   1.88619
   A29        1.76993  -0.00015   0.00000  -0.00194  -0.00197   1.76796
   A30        1.95693   0.00044   0.00000   0.00770   0.00770   1.96463
   A31        1.96773  -0.00046   0.00000  -0.00823  -0.00822   1.95951
   A32        1.96272   0.00000   0.00000   0.00216   0.00216   1.96488
   A33        1.93455   0.00030   0.00000   0.00140   0.00138   1.93593
   A34        1.87310  -0.00013   0.00000  -0.00109  -0.00108   1.87202
   A35        1.93854   0.00029   0.00000  -0.00053  -0.00060   1.93793
   A36        2.09419  -0.00067   0.00000  -0.01104  -0.01114   2.08305
   A37        2.07172   0.00016   0.00000  -0.00338  -0.00353   2.06819
   A38        1.81964  -0.00003   0.00000  -0.00018  -0.00017   1.81947
   A39        1.90391   0.00010   0.00000   0.00240   0.00240   1.90630
   A40        1.93559   0.00005   0.00000  -0.00047  -0.00047   1.93512
   A41        1.95231  -0.00014   0.00000  -0.00176  -0.00176   1.95055
   A42        1.96489   0.00003   0.00000   0.00040   0.00039   1.96528
   A43        1.88687  -0.00001   0.00000  -0.00029  -0.00029   1.88657
   A44        1.82427   0.00005   0.00000  -0.00178  -0.00181   1.82246
   A45        1.90870  -0.00003   0.00000   0.00265   0.00266   1.91136
   A46        1.96249   0.00026   0.00000   0.00149   0.00149   1.96398
   A47        1.91903   0.00010   0.00000  -0.00006  -0.00005   1.91898
   A48        1.96173  -0.00044   0.00000  -0.00367  -0.00366   1.95808
   A49        1.88696   0.00007   0.00000   0.00141   0.00139   1.88836
    D1       -0.01760   0.00018   0.00000   0.00932   0.00932  -0.00828
    D2        3.12108   0.00014   0.00000   0.00721   0.00721   3.12830
    D3        3.11890   0.00029   0.00000   0.01566   0.01567   3.13457
    D4       -0.02560   0.00025   0.00000   0.01355   0.01356  -0.01204
    D5        0.00755  -0.00008   0.00000  -0.00486  -0.00487   0.00267
    D6        3.14141   0.00004   0.00000   0.00185   0.00184  -3.13994
    D7       -3.12940  -0.00019   0.00000  -0.01067  -0.01066  -3.14006
    D8        0.00446  -0.00006   0.00000  -0.00396  -0.00395   0.00051
    D9        0.00580  -0.00051   0.00000  -0.01882  -0.01882  -0.01302
   D10       -3.14061  -0.00040   0.00000  -0.01281  -0.01281   3.12976
   D11        0.02144  -0.00020   0.00000  -0.00969  -0.00969   0.01175
   D12       -3.14107   0.00001   0.00000   0.00104   0.00105  -3.14002
   D13       -3.11724  -0.00015   0.00000  -0.00757  -0.00757  -3.12481
   D14        0.00344   0.00006   0.00000   0.00316   0.00316   0.00661
   D15       -0.01529   0.00012   0.00000   0.00569   0.00568  -0.00961
   D16       -3.13799   0.00007   0.00000   0.00387   0.00386  -3.13413
   D17       -3.13607  -0.00010   0.00000  -0.00504  -0.00503  -3.14110
   D18        0.02441  -0.00014   0.00000  -0.00686  -0.00685   0.01756
   D19        0.00464  -0.00002   0.00000  -0.00098  -0.00097   0.00367
   D20       -3.12506  -0.00026   0.00000  -0.01245  -0.01248  -3.13754
   D21        3.12746   0.00002   0.00000   0.00077   0.00079   3.12824
   D22       -0.00225  -0.00023   0.00000  -0.01069  -0.01072  -0.01297
   D23        1.17417  -0.00094   0.00000  -0.07872  -0.07871   1.09546
   D24       -1.31191  -0.00056   0.00000  -0.05869  -0.05869  -1.37060
   D25       -1.94825  -0.00097   0.00000  -0.08050  -0.08050  -2.02875
   D26        1.84885  -0.00059   0.00000  -0.06048  -0.06048   1.78837
   D27       -0.00111  -0.00000   0.00000   0.00068   0.00068  -0.00043
   D28       -3.13465  -0.00013   0.00000  -0.00632  -0.00631  -3.14096
   D29        3.12834   0.00026   0.00000   0.01245   0.01243   3.14077
   D30       -0.00519   0.00013   0.00000   0.00546   0.00544   0.00025
   D31        1.12319  -0.00076   0.00000  -0.03610  -0.03608   1.08711
   D32       -1.02494   0.00025   0.00000  -0.02616  -0.02618  -1.05112
   D33       -3.09137  -0.00046   0.00000  -0.03304  -0.03303  -3.12440
   D34       -3.08197   0.00011   0.00000   0.00132   0.00132  -3.08065
   D35        1.10373  -0.00001   0.00000  -0.00370  -0.00371   1.10002
   D36       -1.01262   0.00017   0.00000  -0.00194  -0.00193  -1.01455
   D37       -0.53475  -0.00009   0.00000  -0.01621  -0.01619  -0.55095
   D38       -2.63224  -0.00021   0.00000  -0.02123  -0.02122  -2.65346
   D39        1.53459  -0.00003   0.00000  -0.01947  -0.01944   1.51515
   D40        2.89726  -0.00007   0.00000  -0.00018  -0.00020   2.89706
   D41       -0.85978  -0.00033   0.00000  -0.02373  -0.02368  -0.88346
   D42        0.32494   0.00029   0.00000   0.01707   0.01704   0.34198
   D43        2.85109   0.00003   0.00000  -0.00648  -0.00643   2.84466
   D44        0.53602   0.00001   0.00000   0.00997   0.00997   0.54599
   D45       -1.51801  -0.00013   0.00000   0.00972   0.00972  -1.50829
   D46        2.66882  -0.00035   0.00000   0.00518   0.00517   2.67399
   D47        2.62941   0.00044   0.00000   0.01892   0.01892   2.64833
   D48        0.57538   0.00031   0.00000   0.01867   0.01868   0.59405
   D49       -1.52098   0.00008   0.00000   0.01413   0.01412  -1.50685
   D50       -1.55702   0.00049   0.00000   0.01998   0.01998  -1.53704
   D51        2.67214   0.00035   0.00000   0.01973   0.01974   2.69187
   D52        0.57578   0.00013   0.00000   0.01518   0.01518   0.59096
   D53        0.03448  -0.00026   0.00000  -0.01026  -0.01026   0.02422
   D54       -2.05349  -0.00014   0.00000  -0.00928  -0.00929  -2.06277
   D55        2.15343  -0.00022   0.00000  -0.01014  -0.01015   2.14329
   D56       -2.50052   0.00032   0.00000   0.01599   0.01600  -2.48451
   D57        1.69470   0.00045   0.00000   0.01697   0.01697   1.71168
   D58       -0.38156   0.00037   0.00000   0.01611   0.01611  -0.36545
   D59       -0.36448   0.00012   0.00000  -0.00040  -0.00040  -0.36488
   D60        1.68246   0.00016   0.00000   0.00170   0.00169   1.68416
   D61       -2.49777   0.00002   0.00000   0.00101   0.00101  -2.49676
   D62        1.69046   0.00015   0.00000   0.00146   0.00147   1.69193
   D63       -2.54579   0.00019   0.00000   0.00357   0.00356  -2.54222
   D64       -0.44284   0.00005   0.00000   0.00288   0.00288  -0.43996
   D65       -2.46388   0.00006   0.00000   0.00006   0.00007  -2.46381
   D66       -0.41693   0.00010   0.00000   0.00217   0.00216  -0.41477
   D67        1.68602  -0.00003   0.00000   0.00148   0.00148   1.68749
         Item               Value     Threshold  Converged?
 Maximum Force            0.001747     0.000450     NO 
 RMS     Force            0.000477     0.000300     NO 
 Maximum Displacement     0.181189     0.001800     NO 
 RMS     Displacement     0.049595     0.001200     NO 
 Predicted change in Energy=-2.549531D-04
 Lowest energy point so far.  Saving SCF results.
 GradGradGradGradGradGradGradGradGradGradGradGradGradGradGradGradGradGrad

 Leave Link  103 at Wed Jun 24 11:37:59 2026, MaxMem=  4026531840 cpu:               6.7 elap:               1.0
 (Enter /opt/packages/gaussian/g16RevC.01/g16/l202.exe)
                          Input orientation:                          
 ---------------------------------------------------------------------
 Center     Atomic      Atomic             Coordinates (Angstroms)
 Number     Number       Type             X           Y           Z
 ---------------------------------------------------------------------
      1          6           0        2.488652    0.188669    0.214071
      2          6           0        1.801224   -0.819606   -0.529856
      3          6           0        0.428809   -0.817653   -0.519825
      4          6           0       -0.318900    0.170159    0.200067
      5          6           0        0.390462    1.165942    0.931404
      6          6           0        1.761587    1.185606    0.945721
      7          1           0        2.326268    1.931956    1.494585
      8          1           0        2.353243   -1.563944   -1.091494
      9          1           0       -0.111083   -1.576629   -1.077819
     10          1           0       -0.174118    1.912864    1.480523
     11          8           0        3.795321    0.291072    0.291371
     12          6           0        4.680677   -0.645562   -0.377621
     13          1           0        4.521545   -0.582165   -1.456464
     14          1           0        4.497161   -1.654771   -0.003245
     15          1           0        5.682818   -0.311852   -0.113070
     16          6           0       -1.794759    0.146235    0.203693
     17          6           0       -2.590388   -0.997519    0.783758
     18          7           0       -2.485219    0.634888   -0.905818
     19          6           0       -3.903953    0.230377   -0.867191
     20          6           0       -4.036993   -0.561284    0.448497
     21          1           0       -2.426817   -1.120172    1.859795
     22          1           0       -2.348149   -1.961472    0.303720
     23          1           0       -4.125412   -0.393772   -1.741383
     24          1           0       -4.560146    1.105844   -0.899561
     25          1           0       -4.415176    0.093117    1.242018
     26          1           0       -4.719474   -1.411116    0.352228
     27          1           0       -2.253430    1.551626   -1.271093
 ---------------------------------------------------------------------
                    Distance matrix (angstroms):
                    1          2          3          4          5
     1  C    0.000000
     2  C    1.429196   0.000000
     3  C    2.407122   1.372453   0.000000
     4  C    2.807648   2.450989   1.432859   0.000000
     5  C    2.423227   2.840411   2.458086   1.424652   0.000000
     6  C    1.434510   2.489935   2.817298   2.432192   1.371341
     7  H    2.169133   3.456172   3.901096   3.431708   2.156686
     8  H    2.189632   1.083605   2.141775   3.437381   3.923889
     9  H    3.397628   2.128442   1.085765   2.174270   3.436601
    10  H    3.415713   3.925557   3.438115   2.167384   1.085437
    11  O    1.312953   2.425787   3.636030   4.117010   3.573249
    12  C    2.418887   2.888723   4.257725   5.098519   4.837462
    13  H    2.741811   2.883596   4.205144   5.171073   5.081697
    14  H    2.734887   2.871045   4.185584   5.154236   5.069021
    15  H    3.249653   3.936788   5.293949   6.029180   5.593196
    16  C    4.283633   3.795001   2.529192   1.476057   2.518840
    17  C    5.246735   4.587318   3.293514   2.619890   3.686167
    18  N    5.117876   4.542081   3.278785   2.476266   3.453541
    19  C    6.483538   5.810792   4.471226   3.741025   4.748919
    20  C    6.572779   5.925257   4.576763   3.797491   4.776909
    21  H    5.346336   4.865912   3.729438   2.977073   3.745035
    22  H    5.293938   4.383606   3.114168   2.944901   4.204129
    23  H    6.921624   6.064169   4.734217   4.310078   5.474451
    24  H    7.194924   6.656656   5.360384   4.480274   5.278689
    25  H    6.980591   6.528111   5.234290   4.227419   4.933720
    26  H    7.384814   6.606622   5.255235   4.678529   5.752227
    27  H    5.152737   4.755249   3.656815   2.795562   3.462645
                    6          7          8          9         10
     6  C    0.000000
     7  H    1.084967   0.000000
     8  H    3.472798   4.348546   0.000000
     9  H    3.902762   4.986794   2.464396   0.000000
    10  H    2.135854   2.500498   5.009094   4.327315   0.000000
    11  O    2.316126   2.509650   2.726351   4.541253   4.449802
    12  C    3.691274   3.961313   2.601921   4.931342   5.793728
    13  H    4.063604   4.455192   2.408034   4.753270   6.074563
    14  H    4.056063   4.452065   2.406018   4.732519   6.062214
    15  H    4.328912   4.345763   3.689325   6.008302   6.464720
    16  C    3.778689   4.673121   4.669918   2.728607   2.716202
    17  C    4.871545   5.767201   5.317602   3.154012   3.846319
    18  N    4.665496   5.531250   5.317899   3.249141   3.559359
    19  C    6.024737   6.876701   6.513248   4.206601   4.717435
    20  C    6.076379   6.913872   6.649211   4.332820   4.701945
    21  H    4.867738   5.660449   5.635247   3.768362   3.797079
    22  H    5.215956   6.198961   4.920135   2.657295   4.595841
    23  H    6.661210   7.583183   6.615483   4.237252   5.595889
    24  H    6.586025   7.337376   7.413471   5.198230   5.055029
    25  H    6.279628   6.992295   7.348648   5.166712   4.621140
    26  H    7.007093   7.881852   7.220181   4.828012   5.743009
    27  H    4.600934   5.363511   5.564213   3.796444   3.467769
                   11         12         13         14         15
    11  O    0.000000
    12  C    1.452133   0.000000
    13  H    2.084435   1.092356   0.000000
    14  H    2.089422   1.091943   1.806356   0.000000
    15  H    2.022309   1.088869   1.796199   1.794791   0.000000
    16  C    5.592643   6.549514   6.571330   6.547878   7.498289
    17  C    6.533008   7.371639   7.467979   7.161334   8.349873
    18  N    6.402863   7.298535   7.132964   7.403433   8.260848
    19  C    7.786191   8.643079   8.485074   8.653260   9.631661
    20  C    7.880123   8.757131   8.768003   8.615774   9.739214
    21  H    6.570127   7.466442   7.717951   7.190146   8.385211
    22  H    6.543419   7.183331   7.224502   6.859050   8.209226
    23  H    8.206041   8.914620   8.653701   8.885945   9.942811
    24  H    8.479151   9.419801   9.254006   9.511004  10.370475
    25  H    8.267719   9.268410   9.359637   9.167091  10.196556
    26  H    8.683483   9.459471   9.452775   9.226706  10.470557
    27  H    6.373200   7.328558   7.105471   7.580165   8.233930
                   16         17         18         19         20
    16  C    0.000000
    17  C    1.509196   0.000000
    18  N    1.395182   2.351697   0.000000
    19  C    2.366976   2.441068   1.475780   0.000000
    20  C    2.363921   1.547697   2.381806   1.541253   0.000000
    21  H    2.178522   1.095288   3.276013   3.382657   2.212868
    22  H    2.181438   1.103776   2.867552   2.931853   2.198563
    23  H    3.083322   3.016147   2.108683   1.096730   2.198056
    24  H    3.128160   3.337311   2.127712   1.094569   2.206868
    25  H    2.819136   2.174705   2.937933   2.174616   1.095874
    26  H    3.316830   2.211399   3.280352   2.201490   1.094195
    27  H    2.088181   3.291519   1.013687   2.152455   3.256144
                   21         22         23         24         25
    21  H    0.000000
    22  H    1.770691   0.000000
    23  H    4.047390   3.130302   0.000000
    24  H    4.137667   3.968532   1.773840   0.000000
    25  H    2.409832   3.061755   3.036726   2.373393   0.000000
    26  H    2.759290   2.434836   2.402313   2.815573   1.773990
    27  H    4.119591   3.851086   2.740450   2.378591   3.621619
                   26         27
    26  H    0.000000
    27  H    4.182629   0.000000
 Stoichiometry    C11H14NO(1+)
 Framework group  C1[X(C11H14NO)]
 Deg. of freedom    75
 Full point group                 C1      NOp   1
 RotChk:  IX=0 Diff= 1.49D-01
 Largest Abelian subgroup         C1      NOp   1
 Largest concise Abelian subgroup C1      NOp   1
                         Standard orientation:                         
 ---------------------------------------------------------------------
 Center     Atomic      Atomic             Coordinates (Angstroms)
 Number     Number       Type             X           Y           Z
 ---------------------------------------------------------------------
      1          6           0        2.485533    0.234081    0.015339
      2          6           0        1.779948   -1.004216   -0.091306
      3          6           0        0.407924   -0.978665   -0.068458
      4          6           0       -0.321925    0.249225    0.044199
      5          6           0        0.405308    1.470020    0.146299
      6          6           0        1.776574    1.475584    0.133100
      7          1           0        2.354657    2.390505    0.209873
      8          1           0        2.318193   -1.939233   -0.192479
      9          1           0       -0.145600   -1.909452   -0.146780
     10          1           0       -0.145687    2.400938    0.235565
     11          8           0        3.793884    0.343908    0.013894
     12          6           0        4.662504   -0.815727   -0.083254
     13          1           0        4.485889   -1.317788   -1.037185
     14          1           0        4.479282   -1.482794    0.761607
     15          1           0        5.670838   -0.406943   -0.040898
     16          6           0       -1.797636    0.250731    0.076118
     17          6           0       -2.590259   -0.416628    1.173412
     18          7           0       -2.503503    0.103829   -1.118329
     19          6           0       -3.923758   -0.202912   -0.860038
     20          6           0       -4.039630   -0.197287    0.676843
     21          1           0       -2.409602    0.033228    2.155577
     22          1           0       -2.361687   -1.493065    1.259207
     23          1           0       -4.163344   -1.186371   -1.282203
     24          1           0       -4.575233    0.538216   -1.333737
     25          1           0       -4.400752    0.778459    1.021010
     26          1           0       -4.728602   -0.964845    1.042128
     27          1           0       -2.272408    0.695843   -1.908060
 ---------------------------------------------------------------------
 Rotational constants (GHZ):           2.7099318           0.3410908           0.3292378
 Leave Link  202 at Wed Jun 24 11:37:59 2026, MaxMem=  4026531840 cpu:               0.0 elap:               0.0
 (Enter /opt/packages/gaussian/g16RevC.01/g16/l301.exe)
 Standard basis: 6-31+G(d) (6D, 7F)
 Ernie: Thresh=  0.10000D-02 Tol=  0.10000D-05 Strict=F.
 There are   275 symmetry adapted cartesian basis functions of A   symmetry.
 There are   275 symmetry adapted basis functions of A   symmetry.
   275 basis functions,   472 primitive gaussians,   275 cartesian basis functions
    47 alpha electrons       47 beta electrons
       nuclear repulsion energy       751.1791686701 Hartrees.
 IExCor=  402 DFT=T Ex+Corr=B3LYP ExCW=0 ScaHFX=  0.200000
 ScaDFX=  0.800000  0.720000  1.000000  0.810000 ScalE2=  1.000000  1.000000
 IRadAn=      5 IRanWt=     -1 IRanGd=            0 ICorTp=0 IEmpDi=  4
 NAtoms=   27 NActive=   27 NUniq=   27 SFac= 1.00D+00 NAtFMM=   60 NAOKFM=F Big=F
 Integral buffers will be    131072 words long.
 Regular integral format.
 Two-electron integral symmetry is turned on.
 ------------------------------------------------------------------------------
 Polarizable Continuum Model (PCM)
 =================================
 Model                : PCM.
 Atomic radii         : SMD-Coulomb.
 Polarization charges : Total charges.
 Charge compensation  : None.
 Solution method      : On-the-fly selection.
 Cavity type          : VdW (van der Waals Surface) (Alpha=1.000).
 Cavity algorithm     : GePol (No added spheres)
                        Default sphere list used, NSphG=   27.
                        Lebedev-Laikov grids with approx.  5.0 points / Ang**2.
                        Smoothing algorithm: York/Karplus (Gamma=1.0000).
                        Polarization charges: spherical gaussians, with
                                              point-specific exponents (IZeta= 3).
                        Self-potential: point-specific (ISelfS= 7).
                        Self-field    : sphere-specific E.n sum rule (ISelfD= 2).
 1st derivatives      : Analytical E(r).r(x)/FMM algorithm (CHGder, D1EAlg=3).
                        Cavity 1st derivative terms included.
 Solvent              : Methanol, Eps=  32.613000 Eps(inf)=   1.765709
 ------------------------------------------------------------------------------
 GePol: Number of generator spheres                  =      27
 GePol: Total number of spheres                      =      27
 GePol: Number of exposed spheres                    =      27 (100.00%)
 GePol: Number of points                             =    2012
 GePol: Average weight of points                     =       0.11
 GePol: Minimum weight of points                     =   0.31D-09
 GePol: Maximum weight of points                     =    0.21991
 GePol: Number of points with low weight             =      97
 GePol: Fraction of low-weight points (<1% of avg)   =       4.82%
 GePol: Cavity surface area                          =    220.530 Ang**2
 GePol: Cavity volume                                =    193.581 Ang**3
 ------------------------------------------------------------------------------
 Atomic radii for non-electrostatic terms: SMD-CDS.
 ------------------------------------------------------------------------------
 PCM non-electrostatic energy =        -0.0003313497 Hartrees.
 Nuclear repulsion after PCM non-electrostatic terms =      751.1788373204 Hartrees.
 Leave Link  301 at Wed Jun 24 11:38:00 2026, MaxMem=  4026531840 cpu:               0.3 elap:               0.1
 (Enter /opt/packages/gaussian/g16RevC.01/g16/l302.exe)
 NPDir=0 NMtPBC=     1 NCelOv=     1 NCel=       1 NClECP=     1 NCelD=      1
         NCelK=      1 NCelE2=     1 NClLst=     1 CellRange=     0.0.
 One-electron integrals computed using PRISM.
 One-electron integral symmetry used in STVInt
 NBasis=   275 RedAO= T EigKep=  1.34D-06  NBF=   275
 NBsUse=   275 1.00D-06 EigRej= -1.00D+00 NBFU=   275
 Precomputing XC quadrature grid using
 IXCGrd= 4 IRadAn=           5 IRanWt=          -1 IRanGd=           0 AccXCQ= 0.00D+00.
 Generated NRdTot=       0 NPtTot=           0 NUsed=           0 NTot=          32
 NSgBfM=   274   274   274   274   274 MxSgAt=    27 MxSgA2=    27.
 Leave Link  302 at Wed Jun 24 11:38:00 2026, MaxMem=  4026531840 cpu:               1.4 elap:               0.2
 (Enter /opt/packages/gaussian/g16RevC.01/g16/l303.exe)
 DipDrv:  MaxL=1.
 Leave Link  303 at Wed Jun 24 11:38:00 2026, MaxMem=  4026531840 cpu:               0.1 elap:               0.0
 (Enter /opt/packages/gaussian/g16RevC.01/g16/l308.exe)
 Leave Link  308 at Wed Jun 24 11:38:00 2026, MaxMem=  4026531840 cpu:               0.1 elap:               0.0
 (Enter /opt/packages/gaussian/g16RevC.01/g16/l401.exe)
 Initial guess from the checkpoint file:  "iminium_singlet.chk"
 B after Tr=    -0.000000    0.000000   -0.000000
         Rot=    0.998674   -0.051478   -0.000295    0.000210 Ang=  -5.90 deg.
 Guess basis will be translated and rotated to current coordinates.
 JPrj=2 DoOrth=T DoCkMO=T.
 Generating alternative initial guess.
 ExpMin= 4.38D-02 ExpMax= 5.48D+03 ExpMxC= 8.25D+02 IAcc=3 IRadAn=         5 AccDes= 0.00D+00
 Harris functional with IExCor=  402 and IRadAn=       5 diagonalized for initial guess.
 HarFok:  IExCor=  402 AccDes= 0.00D+00 IRadAn=         5 IDoV= 1 UseB2=F ITyADJ=14
 ICtDFT=  3500011 ScaDFX=  1.000000  1.000000  1.000000  1.000000
 FoFCou: FMM=F IPFlag=           0 FMFlag=      100000 FMFlg1=           0
         NFxFlg=           0 DoJE=T BraDBF=F KetDBF=T FulRan=T
         wScrn=  0.000000 ICntrl=       500 IOpCl=  0 I1Cent=   200000004 NGrid=           0
         NMat0=    1 NMatS0=      1 NMatT0=    0 NMatD0=    1 NMtDS0=    0 NMtDT0=    0
 Petite list used in FoFCou.
 Harris En= -557.327750978517    
 Leave Link  401 at Wed Jun 24 11:38:01 2026, MaxMem=  4026531840 cpu:               6.7 elap:               0.9
 (Enter /opt/packages/gaussian/g16RevC.01/g16/l502.exe)
 Integral symmetry usage will be decided dynamically.
 Closed shell SCF:
 Using DIIS extrapolation, IDIIS=  1040.
 NGot=  4026531840 LenX=  4026374748 LenY=  4026298682
 Requested convergence on RMS density matrix=1.00D-08 within 128 cycles.
 Requested convergence on MAX density matrix=1.00D-06.
 Requested convergence on             energy=1.00D-06.
 No special actions if energy rises.
 Fock matrices will be formed incrementally for  20 cycles.

 Cycle   1  Pass 1  IDiag  1:
 FoFJK:  IHMeth= 1 ICntrl=       0 DoSepK=F KAlg= 0 I1Cent=           0 FoldK=F
 IRaf= 880000000 NMat=       1 IRICut=       1 DoRegI=T DoRafI=F ISym2E= 0 IDoP0=0 IntGTp=1.
 FoFCou: FMM=F IPFlag=           0 FMFlag=      100000 FMFlg1=           0
         NFxFlg=           0 DoJE=F BraDBF=F KetDBF=F FulRan=T
         wScrn=  0.000000 ICntrl=         0 IOpCl=  0 I1Cent=           0 NGrid=           0
         NMat0=    1 NMatS0=      1 NMatT0=    0 NMatD0=    1 NMtDS0=    0 NMtDT0=    0
 Symmetry not used in FoFCou.
 Inv3:  Mode=1 IEnd=    12144432.
 Iteration    1 A*A^-1 deviation from unit magnitude is 3.33D-15 for    638.
 Iteration    1 A*A^-1 deviation from orthogonality  is 2.13D-15 for    777    612.
 Iteration    1 A^-1*A deviation from unit magnitude is 3.33D-15 for    638.
 Iteration    1 A^-1*A deviation from orthogonality  is 2.40D-15 for    789    777.
 E= -557.402516758718    
 DIIS: error= 2.93D-03 at cycle   1 NSaved=   1.
 NSaved= 1 IEnMin= 1 EnMin= -557.402516758718     IErMin= 1 ErrMin= 2.93D-03
 ErrMax= 2.93D-03  0.00D+00 EMaxC= 1.00D-01 BMatC= 3.94D-03 BMatP= 3.94D-03
 IDIUse=3 WtCom= 9.71D-01 WtEn= 2.93D-02
 Coeff-Com:  0.100D+01
 Coeff-En:   0.100D+01
 Coeff:      0.100D+01
 Gap=     0.410 Goal=   None    Shift=    0.000
 GapD=    0.410 DampG=2.000 DampE=1.000 DampFc=2.0000 IDamp=-1.
 RMSDP=4.13D-03 MaxDP=3.84D-01              OVMax= 2.46D-02

 Cycle   2  Pass 1  IDiag  1:
 RMSU=  3.52D-03    CP:  1.03D+00
 E= -557.410020616649     Delta-E=       -0.007503857931 Rises=F Damp=F
 DIIS: error= 2.77D-04 at cycle   2 NSaved=   2.
 NSaved= 2 IEnMin= 2 EnMin= -557.410020616649     IErMin= 2 ErrMin= 2.77D-04
 ErrMax= 2.77D-04  0.00D+00 EMaxC= 1.00D-01 BMatC= 5.59D-05 BMatP= 3.94D-03
 IDIUse=3 WtCom= 9.97D-01 WtEn= 2.77D-03
 Coeff-Com: -0.494D-01 0.105D+01
 Coeff-En:   0.000D+00 0.100D+01
 Coeff:     -0.492D-01 0.105D+01
 Gap=     0.110 Goal=   None    Shift=    0.000
 RMSDP=5.46D-04 MaxDP=3.69D-02 DE=-7.50D-03 OVMax= 8.42D-03

 Cycle   3  Pass 1  IDiag  1:
 RMSU=  5.07D-04    CP:  1.03D+00  1.01D+00
 E= -557.410103420678     Delta-E=       -0.000082804029 Rises=F Damp=F
 DIIS: error= 2.50D-04 at cycle   3 NSaved=   3.
 NSaved= 3 IEnMin= 3 EnMin= -557.410103420678     IErMin= 3 ErrMin= 2.50D-04
 ErrMax= 2.50D-04  0.00D+00 EMaxC= 1.00D-01 BMatC= 3.83D-05 BMatP= 5.59D-05
 IDIUse=3 WtCom= 9.98D-01 WtEn= 2.50D-03
 Coeff-Com: -0.312D-01 0.496D+00 0.536D+00
 Coeff-En:   0.000D+00 0.000D+00 0.100D+01
 Coeff:     -0.311D-01 0.494D+00 0.537D+00
 Gap=     0.111 Goal=   None    Shift=    0.000
 RMSDP=2.19D-04 MaxDP=1.17D-02 DE=-8.28D-05 OVMax= 4.23D-03

 Cycle   4  Pass 1  IDiag  1:
 RMSU=  1.67D-04    CP:  1.03D+00  1.01D+00  7.61D-01
 E= -557.410135313245     Delta-E=       -0.000031892567 Rises=F Damp=F
 DIIS: error= 1.36D-04 at cycle   4 NSaved=   4.
 NSaved= 4 IEnMin= 4 EnMin= -557.410135313245     IErMin= 4 ErrMin= 1.36D-04
 ErrMax= 1.36D-04  0.00D+00 EMaxC= 1.00D-01 BMatC= 8.90D-06 BMatP= 3.83D-05
 IDIUse=3 WtCom= 9.99D-01 WtEn= 1.36D-03
 Coeff-Com: -0.966D-02 0.115D+00 0.330D+00 0.565D+00
 Coeff-En:   0.000D+00 0.000D+00 0.186D+00 0.814D+00
 Coeff:     -0.965D-02 0.114D+00 0.330D+00 0.565D+00
 Gap=     0.111 Goal=   None    Shift=    0.000
 RMSDP=8.68D-05 MaxDP=4.63D-03 DE=-3.19D-05 OVMax= 1.82D-03

 Cycle   5  Pass 1  IDiag  1:
 RMSU=  6.76D-05    CP:  1.03D+00  1.02D+00  8.28D-01  7.83D-01
 E= -557.410144521825     Delta-E=       -0.000009208580 Rises=F Damp=F
 DIIS: error= 2.10D-05 at cycle   5 NSaved=   5.
 NSaved= 5 IEnMin= 5 EnMin= -557.410144521825     IErMin= 5 ErrMin= 2.10D-05
 ErrMax= 2.10D-05  0.00D+00 EMaxC= 1.00D-01 BMatC= 5.15D-07 BMatP= 8.90D-06
 IDIUse=1 WtCom= 1.00D+00 WtEn= 0.00D+00
 Coeff-Com: -0.229D-02 0.159D-01 0.123D+00 0.278D+00 0.585D+00
 Coeff:     -0.229D-02 0.159D-01 0.123D+00 0.278D+00 0.585D+00
 Gap=     0.111 Goal=   None    Shift=    0.000
 RMSDP=2.71D-05 MaxDP=1.07D-03 DE=-9.21D-06 OVMax= 5.56D-04

 Cycle   6  Pass 1  IDiag  1:
 RMSU=  2.01D-05    CP:  1.03D+00  1.02D+00  8.53D-01  8.49D-01  9.66D-01
 E= -557.410145004885     Delta-E=       -0.000000483060 Rises=F Damp=F
 DIIS: error= 1.89D-05 at cycle   6 NSaved=   6.
 NSaved= 6 IEnMin= 6 EnMin= -557.410145004885     IErMin= 6 ErrMin= 1.89D-05
 ErrMax= 1.89D-05  0.00D+00 EMaxC= 1.00D-01 BMatC= 1.68D-07 BMatP= 5.15D-07
 IDIUse=1 WtCom= 1.00D+00 WtEn= 0.00D+00
 Coeff-Com:  0.746D-03-0.175D-01 0.414D-02 0.544D-01 0.389D+00 0.569D+00
 Coeff:      0.746D-03-0.175D-01 0.414D-02 0.544D-01 0.389D+00 0.569D+00
 Gap=     0.111 Goal=   None    Shift=    0.000
 RMSDP=1.97D-05 MaxDP=1.08D-03 DE=-4.83D-07 OVMax= 3.31D-04

 Cycle   7  Pass 1  IDiag  1:
 RMSU=  9.04D-06    CP:  1.03D+00  1.02D+00  8.69D-01  8.58D-01  1.08D+00
                    CP:  9.65D-01
 E= -557.410145194104     Delta-E=       -0.000000189219 Rises=F Damp=F
 DIIS: error= 4.59D-06 at cycle   7 NSaved=   7.
 NSaved= 7 IEnMin= 7 EnMin= -557.410145194104     IErMin= 7 ErrMin= 4.59D-06
 ErrMax= 4.59D-06  0.00D+00 EMaxC= 1.00D-01 BMatC= 1.68D-08 BMatP= 1.68D-07
 IDIUse=1 WtCom= 1.00D+00 WtEn= 0.00D+00
 Coeff-Com:  0.631D-03-0.115D-01-0.784D-02 0.813D-02 0.173D+00 0.329D+00
 Coeff-Com:  0.509D+00
 Coeff:      0.631D-03-0.115D-01-0.784D-02 0.813D-02 0.173D+00 0.329D+00
 Coeff:      0.509D+00
 Gap=     0.111 Goal=   None    Shift=    0.000
 RMSDP=5.51D-06 MaxDP=3.23D-04 DE=-1.89D-07 OVMax= 1.21D-04

 Cycle   8  Pass 1  IDiag  1:
 RMSU=  2.97D-06    CP:  1.03D+00  1.02D+00  8.75D-01  8.63D-01  1.11D+00
                    CP:  1.08D+00  1.04D+00
 E= -557.410145215924     Delta-E=       -0.000000021820 Rises=F Damp=F
 DIIS: error= 1.39D-06 at cycle   8 NSaved=   8.
 NSaved= 8 IEnMin= 8 EnMin= -557.410145215924     IErMin= 8 ErrMin= 1.39D-06
 ErrMax= 1.39D-06  0.00D+00 EMaxC= 1.00D-01 BMatC= 1.29D-09 BMatP= 1.68D-08
 IDIUse=1 WtCom= 1.00D+00 WtEn= 0.00D+00
 Coeff-Com:  0.449D-04 0.137D-03-0.344D-02-0.953D-02-0.342D-01-0.260D-01
 Coeff-Com:  0.192D+00 0.881D+00
 Coeff:      0.449D-04 0.137D-03-0.344D-02-0.953D-02-0.342D-01-0.260D-01
 Coeff:      0.192D+00 0.881D+00
 Gap=     0.111 Goal=   None    Shift=    0.000
 RMSDP=3.59D-06 MaxDP=2.54D-04 DE=-2.18D-08 OVMax= 1.03D-04

 Cycle   9  Pass 1  IDiag  1:
 RMSU=  9.59D-07    CP:  1.03D+00  1.02D+00  8.77D-01  8.67D-01  1.14D+00
                    CP:  1.16D+00  1.20D+00  1.04D+00
 E= -557.410145219561     Delta-E=       -0.000000003637 Rises=F Damp=F
 DIIS: error= 6.81D-07 at cycle   9 NSaved=   9.
 NSaved= 9 IEnMin= 9 EnMin= -557.410145219561     IErMin= 9 ErrMin= 6.81D-07
 ErrMax= 6.81D-07  0.00D+00 EMaxC= 1.00D-01 BMatC= 3.33D-10 BMatP= 1.29D-09
 IDIUse=1 WtCom= 1.00D+00 WtEn= 0.00D+00
 Coeff-Com: -0.336D-04 0.119D-02-0.126D-02-0.635D-02-0.370D-01-0.477D-01
 Coeff-Com:  0.649D-01 0.511D+00 0.515D+00
 Coeff:     -0.336D-04 0.119D-02-0.126D-02-0.635D-02-0.370D-01-0.477D-01
 Coeff:      0.649D-01 0.511D+00 0.515D+00
 Gap=     0.111 Goal=   None    Shift=    0.000
 RMSDP=8.49D-07 MaxDP=5.37D-05 DE=-3.64D-09 OVMax= 1.97D-05

 Cycle  10  Pass 1  IDiag  1:
 RMSU=  3.17D-07    CP:  1.03D+00  1.02D+00  8.78D-01  8.67D-01  1.14D+00
                    CP:  1.17D+00  1.23D+00  1.09D+00  7.98D-01
 E= -557.410145219970     Delta-E=       -0.000000000409 Rises=F Damp=F
 DIIS: error= 1.34D-07 at cycle  10 NSaved=  10.
 NSaved=10 IEnMin=10 EnMin= -557.410145219970     IErMin=10 ErrMin= 1.34D-07
 ErrMax= 1.34D-07  0.00D+00 EMaxC= 1.00D-01 BMatC= 1.35D-11 BMatP= 3.33D-10
 IDIUse=1 WtCom= 1.00D+00 WtEn= 0.00D+00
 Coeff-Com: -0.182D-04 0.480D-03-0.143D-03-0.158D-02-0.118D-01-0.174D-01
 Coeff-Com:  0.690D-02 0.118D+00 0.212D+00 0.694D+00
 Coeff:     -0.182D-04 0.480D-03-0.143D-03-0.158D-02-0.118D-01-0.174D-01
 Coeff:      0.690D-02 0.118D+00 0.212D+00 0.694D+00
 Gap=     0.111 Goal=   None    Shift=    0.000
 RMSDP=2.32D-07 MaxDP=1.59D-05 DE=-4.09D-10 OVMax= 5.26D-06

 Cycle  11  Pass 1  IDiag  1:
 RMSU=  8.92D-08    CP:  1.03D+00  1.02D+00  8.78D-01  8.67D-01  1.15D+00
                    CP:  1.18D+00  1.24D+00  1.11D+00  8.19D-01  9.48D-01
 E= -557.410145220004     Delta-E=       -0.000000000034 Rises=F Damp=F
 DIIS: error= 5.39D-08 at cycle  11 NSaved=  11.
 NSaved=11 IEnMin=11 EnMin= -557.410145220004     IErMin=11 ErrMin= 5.39D-08
 ErrMax= 5.39D-08  0.00D+00 EMaxC= 1.00D-01 BMatC= 2.10D-12 BMatP= 1.35D-11
 IDIUse=1 WtCom= 1.00D+00 WtEn= 0.00D+00
 Coeff-Com: -0.580D-05 0.120D-03 0.558D-04-0.125D-03-0.219D-02-0.391D-02
 Coeff-Com: -0.281D-02 0.798D-02 0.556D-01 0.342D+00 0.604D+00
 Coeff:     -0.580D-05 0.120D-03 0.558D-04-0.125D-03-0.219D-02-0.391D-02
 Coeff:     -0.281D-02 0.798D-02 0.556D-01 0.342D+00 0.604D+00
 Gap=     0.111 Goal=   None    Shift=    0.000
 RMSDP=5.20D-08 MaxDP=5.09D-06 DE=-3.41D-11 OVMax= 1.18D-06

 Cycle  12  Pass 1  IDiag  1:
 RMSU=  2.67D-08    CP:  1.03D+00  1.02D+00  8.78D-01  8.67D-01  1.15D+00
                    CP:  1.18D+00  1.24D+00  1.11D+00  8.33D-01  9.74D-01
                    CP:  8.92D-01
 E= -557.410145219993     Delta-E=        0.000000000011 Rises=F Damp=F
 DIIS: error= 1.32D-08 at cycle  12 NSaved=  12.
 NSaved=12 IEnMin=11 EnMin= -557.410145220004     IErMin=12 ErrMin= 1.32D-08
 ErrMax= 1.32D-08  0.00D+00 EMaxC= 1.00D-01 BMatC= 1.80D-13 BMatP= 2.10D-12
 IDIUse=1 WtCom= 1.00D+00 WtEn= 0.00D+00
 Coeff-Com: -0.635D-09-0.156D-04 0.449D-04 0.168D-03 0.716D-03 0.689D-03
 Coeff-Com: -0.219D-02-0.131D-01-0.572D-02 0.521D-01 0.264D+00 0.704D+00
 Coeff:     -0.635D-09-0.156D-04 0.449D-04 0.168D-03 0.716D-03 0.689D-03
 Coeff:     -0.219D-02-0.131D-01-0.572D-02 0.521D-01 0.264D+00 0.704D+00
 Gap=     0.111 Goal=   None    Shift=    0.000
 RMSDP=1.76D-08 MaxDP=9.28D-07 DE= 1.11D-11 OVMax= 3.70D-07

 Cycle  13  Pass 1  IDiag  1:
 RMSU=  7.96D-09    CP:  1.03D+00  1.02D+00  8.78D-01  8.67D-01  1.15D+00
                    CP:  1.18D+00  1.24D+00  1.11D+00  8.39D-01  9.88D-01
                    CP:  8.72D-01  9.14D-01
 E= -557.410145219988     Delta-E=        0.000000000005 Rises=F Damp=F
 DIIS: error= 3.09D-09 at cycle  13 NSaved=  13.
 NSaved=13 IEnMin=11 EnMin= -557.410145220004     IErMin=13 ErrMin= 3.09D-09
 ErrMax= 3.09D-09  0.00D+00 EMaxC= 1.00D-01 BMatC= 8.60D-15 BMatP= 1.80D-13
 IDIUse=1 WtCom= 1.00D+00 WtEn= 0.00D+00
 Coeff-Com:  0.247D-06-0.117D-04 0.156D-04 0.733D-04 0.397D-03 0.440D-03
 Coeff-Com: -0.757D-03-0.587D-02-0.472D-02 0.758D-02 0.834D-01 0.289D+00
 Coeff-Com:  0.630D+00
 Coeff:      0.247D-06-0.117D-04 0.156D-04 0.733D-04 0.397D-03 0.440D-03
 Coeff:     -0.757D-03-0.587D-02-0.472D-02 0.758D-02 0.834D-01 0.289D+00
 Coeff:      0.630D+00
 Gap=     0.111 Goal=   None    Shift=    0.000
 RMSDP=5.46D-09 MaxDP=4.14D-07 DE= 4.77D-12 OVMax= 4.87D-08

 Error on total polarization charges =  0.05309
 SCF Done:  E(RB3LYP) =  -557.410145220     A.U. after   13 cycles
            NFock= 13  Conv=0.55D-08     -V/T= 2.0103
 KE= 5.517133979557D+02 PE=-2.780304645027D+03 EE= 9.200022645312D+02
 SMD-CDS (non-electrostatic) energy       (kcal/mol) =      -0.21
 (included in total energy above)
 Leave Link  502 at Wed Jun 24 11:38:28 2026, MaxMem=  4026531840 cpu:             216.0 elap:              27.5
 (Enter /opt/packages/gaussian/g16RevC.01/g16/l801.exe)
 DoSCS=F DFT=T ScalE2(SS,OS)=  1.000000  1.000000
 ExpMin= 4.38D-02 ExpMax= 5.48D+03 ExpMxC= 8.25D+02 IAcc=3 IRadAn=         5 AccDes= 0.00D+00
 HarFok:  IExCor=  205 AccDes= 0.00D+00 IRadAn=         5 IDoV=-2 UseB2=F ITyADJ=14
 ICtDFT= 12500011 ScaDFX=  1.000000  1.000000  1.000000  1.000000
 Largest valence mixing into a core orbital is  5.70D-05
 Largest core mixing into a valence orbital is  1.22D-05
 Range of M.O.s used for correlation:    14   275
 NBasis=   275 NAE=    47 NBE=    47 NFC=    13 NFV=     0
 NROrb=    262 NOA=    34 NOB=    34 NVA=   228 NVB=   228

 **** Warning!!: The largest alpha MO coefficient is  0.23707457D+03

 Leave Link  801 at Wed Jun 24 11:38:28 2026, MaxMem=  4026531840 cpu:               0.7 elap:               0.1
 (Enter /opt/packages/gaussian/g16RevC.01/g16/l914.exe)
 RHF ground state
 Two-electron integrals replicated using symmetry.
 MDV=  4026531840 DFT=T DoStab=F Mixed=T DoRPA=T DoScal=F NonHer=T
 NEqPCM:  Using equilibrium solvation (IEInf=0, Eps=  32.6130, EpsInf=   1.7657)
 Making orbital integer symmetry assigments:
 Orbital symmetries:
       Occupied  (A) (A) (A) (A) (A) (A) (A) (A) (A) (A) (A) (A)
                 (A) (A) (A) (A) (A) (A) (A) (A) (A) (A) (A) (A)
                 (A) (A) (A) (A) (A) (A) (A) (A) (A) (A) (A) (A)
                 (A) (A) (A) (A) (A) (A) (A) (A) (A) (A) (A)
       Virtual   (A) (A) (A) (A) (A) (A) (A) (A) (A) (A) (A) (A)
                 (A) (A) (A) (A) (A) (A) (A) (A) (A) (A) (A) (A)
                 (A) (A) (A) (A) (A) (A) (A) (A) (A) (A) (A) (A)
                 (A) (A) (A) (A) (A) (A) (A) (A) (A) (A) (A) (A)
                 (A) (A) (A) (A) (A) (A) (A) (A) (A) (A) (A) (A)
                 (A) (A) (A) (A) (A) (A) (A) (A) (A) (A) (A) (A)
                 (A) (A) (A) (A) (A) (A) (A) (A) (A) (A) (A) (A)
                 (A) (A) (A) (A) (A) (A) (A) (A) (A) (A) (A) (A)
                 (A) (A) (A) (A) (A) (A) (A) (A) (A) (A) (A) (A)
                 (A) (A) (A) (A) (A) (A) (A) (A) (A) (A) (A) (A)
                 (A) (A) (A) (A) (A) (A) (A) (A) (A) (A) (A) (A)
                 (A) (A) (A) (A) (A) (A) (A) (A) (A) (A) (A) (A)
                 (A) (A) (A) (A) (A) (A) (A) (A) (A) (A) (A) (A)
                 (A) (A) (A) (A) (A) (A) (A) (A) (A) (A) (A) (A)
                 (A) (A) (A) (A) (A) (A) (A) (A) (A) (A) (A) (A)
                 (A) (A) (A) (A) (A) (A) (A) (A) (A) (A) (A) (A)
                 (A) (A) (A) (A) (A) (A) (A) (A) (A) (A) (A) (A)
                 (A) (A) (A) (A) (A) (A) (A) (A) (A) (A) (A) (A)
                 (A) (A) (A) (A) (A) (A) (A) (A) (A) (A) (A) (A)
 Generating guess from densities on rwf.
 Convergence on wavefunction:    0.000001000000000
 Davidson Disk Diagonalization:  ConvIn= 1.00D-06 SkipCon=T Conv= 1.00D-06.
 Max sub-space:  2000 roots to seek:     5 dimension of matrix:        15504
 Iteration     1 Dimension    10 NMult     0 NNew     10
 CISAX will form    10 AO SS matrices at one time.
 NMat=    10 NSing=    10 JSym2X= 0.
 FoFJK:  IHMeth= 1 ICntrl=       0 DoSepK=F KAlg= 0 I1Cent=           0 FoldK=F
 IRaf= 880000000 NMat=      20 IRICut=      25 DoRegI=T DoRafI=T ISym2E= 0 IDoP0=0 IntGTp=1.
 FoFCou: FMM=F IPFlag=           0 FMFlag=      100000 FMFlg1=           0
         NFxFlg=           0 DoJE=F BraDBF=F KetDBF=F FulRan=T
         wScrn=  0.000000 ICntrl=         0 IOpCl=  0 I1Cent=           0 NGrid=           0
         NMat0=   20 NMatS0=     10 NMatT0=    0 NMatD0=   20 NMtDS0=    0 NMtDT0=    0
 Symmetry not used in FoFCou.
 Raff kept on since  88.22% of shell-pairs survive, threshold=   0.20 IRatSp=88.
 Excitation Energies [eV] at current iteration:
 Root      1 :     2.364256866257533
 Root      2 :     3.700879369134025
 Root      3 :     4.857816507936327
 Root      4 :     5.115887000125223
 Root      5 :     5.308323251967064
 Iteration     2 Dimension    20 NMult    10 NNew     10
 CISAX will form    10 AO SS matrices at one time.
 NMat=    10 NSing=    10 JSym2X= 0.
 Root      1 not converged, maximum delta is    0.047384082199240
 Root      2 not converged, maximum delta is    0.048345774009696
 Root      3 not converged, maximum delta is    0.275542600780587
 Root      4 not converged, maximum delta is    0.219466698196273
 Root      5 not converged, maximum delta is    0.052620214730969
 Excitation Energies [eV] at current iteration:
 Root      1 :     2.089854134977585   Change is   -0.274402731279948
 Root      2 :     3.400325245372621   Change is   -0.300554123761404
 Root      3 :     4.781470031366628   Change is   -0.076346476569699
 Root      4 :     4.798307202720393   Change is   -0.317579797404831
 Root      5 :     5.048501034142759   Change is   -0.259822217824305
 Iteration     3 Dimension    30 NMult    20 NNew     10
 CISAX will form    10 AO SS matrices at one time.
 NMat=    10 NSing=    10 JSym2X= 0.
 Root      1 not converged, maximum delta is    0.002937052394469
 Root      2 not converged, maximum delta is    0.003223767345848
 Root      3 not converged, maximum delta is    0.092358934955813
 Root      4 not converged, maximum delta is    0.081523488922728
 Root      5 not converged, maximum delta is    0.010962604833467
 Excitation Energies [eV] at current iteration:
 Root      1 :     2.086059222320797   Change is   -0.003794912656788
 Root      2 :     3.397224623399901   Change is   -0.003100621972719
 Root      3 :     4.779093472279452   Change is   -0.002376559087177
 Root      4 :     4.793178235991069   Change is   -0.005128966729323
 Root      5 :     5.042799174552052   Change is   -0.005701859590707
 Iteration     4 Dimension    40 NMult    30 NNew     10
 CISAX will form    10 AO SS matrices at one time.
 NMat=    10 NSing=    10 JSym2X= 0.
 Root      1 not converged, maximum delta is    0.000854561957786
 Root      2 not converged, maximum delta is    0.001067417022091
 Root      3 not converged, maximum delta is    0.011688665569852
 Root      4 not converged, maximum delta is    0.012748978749937
 Root      5 not converged, maximum delta is    0.013691904570996
 Excitation Energies [eV] at current iteration:
 Root      1 :     2.085742021348578   Change is   -0.000317200972219
 Root      2 :     3.397018744348999   Change is   -0.000205879050903
 Root      3 :     4.778782895422094   Change is   -0.000310576857357
 Root      4 :     4.792657716449095   Change is   -0.000520519541974
 Root      5 :     5.041677261796710   Change is   -0.001121912755343
 Iteration     5 Dimension    50 NMult    40 NNew     10
 CISAX will form    10 AO SS matrices at one time.
 NMat=    10 NSing=    10 JSym2X= 0.
 Root      1 not converged, maximum delta is    0.000336498385257
 Root      2 not converged, maximum delta is    0.000243647900857
 Root      3 not converged, maximum delta is    0.001816643314113
 Root      4 not converged, maximum delta is    0.002353789931939
 Root      5 not converged, maximum delta is    0.009076299543329
 Excitation Energies [eV] at current iteration:
 Root      1 :     2.085726137170226   Change is   -0.000015884178352
 Root      2 :     3.397004609814288   Change is   -0.000014134534711
 Root      3 :     4.778739969498933   Change is   -0.000042925923161
 Root      4 :     4.792588717789105   Change is   -0.000068998659990
 Root      5 :     5.041428614322836   Change is   -0.000248647473874
 Iteration     6 Dimension    60 NMult    50 NNew     10
 CISAX will form    10 AO SS matrices at one time.
 NMat=    10 NSing=    10 JSym2X= 0.
 Root      1 not converged, maximum delta is    0.000048579903430
 Root      2 not converged, maximum delta is    0.000039076678999
 Root      3 not converged, maximum delta is    0.000413357872393
 Root      4 not converged, maximum delta is    0.000530876507596
 Root      5 not converged, maximum delta is    0.003466270352114
 Excitation Energies [eV] at current iteration:
 Root      1 :     2.085724992210103   Change is   -0.000001144960122
 Root      2 :     3.397003860238163   Change is   -0.000000749576125
 Root      3 :     4.778734436711094   Change is   -0.000005532787839
 Root      4 :     4.792581263440819   Change is   -0.000007454348287
 Root      5 :     5.041381584078150   Change is   -0.000047030244685
 Iteration     7 Dimension    70 NMult    60 NNew     10
 CISAX will form    10 AO SS matrices at one time.
 NMat=    10 NSing=    10 JSym2X= 0.
 Root      1 not converged, maximum delta is    0.000013297200603
 Root      2 not converged, maximum delta is    0.000010440559573
 Root      3 not converged, maximum delta is    0.000116926212969
 Root      4 not converged, maximum delta is    0.000167917561904
 Root      5 not converged, maximum delta is    0.001459657884854
 Excitation Energies [eV] at current iteration:
 Root      1 :     2.085724960763513   Change is   -0.000000031446590
 Root      2 :     3.397003832364668   Change is   -0.000000027873495
 Root      3 :     4.778733683476608   Change is   -0.000000753234486
 Root      4 :     4.792580187835644   Change is   -0.000001075605175
 Root      5 :     5.041373269414238   Change is   -0.000008314663913
 Iteration     8 Dimension    80 NMult    70 NNew     10
 CISAX will form    10 AO SS matrices at one time.
 NMat=    10 NSing=    10 JSym2X= 0.
 Root      1 not converged, maximum delta is    0.000001116092531
 Root      2 not converged, maximum delta is    0.000001359110501
 Root      3 not converged, maximum delta is    0.000017455089223
 Root      4 not converged, maximum delta is    0.000032265528911
 Root      5 not converged, maximum delta is    0.000607368046706
 Excitation Energies [eV] at current iteration:
 Root      1 :     2.085724960105136   Change is   -0.000000000658377
 Root      2 :     3.397003831223226   Change is   -0.000000001141442
 Root      3 :     4.778733596944925   Change is   -0.000000086531682
 Root      4 :     4.792580080887539   Change is   -0.000000106948105
 Root      5 :     5.041371900841561   Change is   -0.000001368572676
 Iteration     9 Dimension    90 NMult    80 NNew     10
 CISAX will form    10 AO SS matrices at one time.
 NMat=    10 NSing=    10 JSym2X= 0.
 Root      1 has converged.
 Root      2 has converged.
 Root      3 not converged, maximum delta is    0.000007421202087
 Root      4 not converged, maximum delta is    0.000009984451461
 Root      5 not converged, maximum delta is    0.000151205895914
 Excitation Energies [eV] at current iteration:
 Root      1 :     2.085724960095873   Change is   -0.000000000009263
 Root      2 :     3.397003831175576   Change is   -0.000000000047650
 Root      3 :     4.778733587868325   Change is   -0.000000009076601
 Root      4 :     4.792580070909470   Change is   -0.000000009978068
 Root      5 :     5.041371726726475   Change is   -0.000000174115087
 Iteration    10 Dimension    96 NMult    90 NNew      6
 CISAX will form     6 AO SS matrices at one time.
 NMat=     6 NSing=     6 JSym2X= 0.
 Root      1 has converged.
 Root      2 has converged.
 Root      3 not converged, maximum delta is    0.000001994455201
 Root      4 not converged, maximum delta is    0.000001750089868
 Root      5 not converged, maximum delta is    0.000029008752615
 Excitation Energies [eV] at current iteration:
 Root      1 :     2.085724960094967   Change is   -0.000000000000906
 Root      2 :     3.397003831174923   Change is   -0.000000000000653
 Root      3 :     4.778733586823410   Change is   -0.000000001044914
 Root      4 :     4.792580069725548   Change is   -0.000000001183923
 Root      5 :     5.041371702672839   Change is   -0.000000024053636
 Iteration    11 Dimension   102 NMult    96 NNew      6
 CISAX will form     6 AO SS matrices at one time.
 NMat=     6 NSing=     6 JSym2X= 0.
 Root      1 has converged.
 Root      2 has converged.
 Root      3 has converged.
 Root      4 has converged.
 Root      5 not converged, maximum delta is    0.000004652506374
 Excitation Energies [eV] at current iteration:
 Root      1 :     2.085724960094612   Change is   -0.000000000000355
 Root      2 :     3.397003831174778   Change is   -0.000000000000145
 Root      3 :     4.778733586703748   Change is   -0.000000000119662
 Root      4 :     4.792580069604824   Change is   -0.000000000120723
 Root      5 :     5.041371699313554   Change is   -0.000000003359286
 Iteration    12 Dimension   104 NMult   102 NNew      2
 CISAX will form     2 AO SS matrices at one time.
 NMat=     2 NSing=     2 JSym2X= 0.
 Root      1 has converged.
 Root      2 has converged.
 Root      3 has converged.
 Root      4 has converged.
 Root      5 not converged, maximum delta is    0.000001168364954
 Excitation Energies [eV] at current iteration:
 Root      1 :     2.085724960094691   Change is    0.000000000000079
 Root      2 :     3.397003831174681   Change is   -0.000000000000097
 Root      3 :     4.778733586702268   Change is   -0.000000000001480
 Root      4 :     4.792580069605494   Change is    0.000000000000669
 Root      5 :     5.041371698957679   Change is   -0.000000000355875
 Iteration    13 Dimension   106 NMult   104 NNew      2
 CISAX will form     2 AO SS matrices at one time.
 NMat=     2 NSing=     2 JSym2X= 0.
 Root      1 has converged.
 Root      2 has converged.
 Root      3 has converged.
 Root      4 has converged.
 Root      5 has converged.
 Excitation Energies [eV] at current iteration:
 Root      1 :     2.085724960094927   Change is    0.000000000000236
 Root      2 :     3.397003831174874   Change is    0.000000000000194
 Root      3 :     4.778733586702130   Change is   -0.000000000000137
 Root      4 :     4.792580069605596   Change is    0.000000000000103
 Root      5 :     5.041371698923044   Change is   -0.000000000034635
 Convergence achieved on expansion vectors.
 ***********************************************************************
 Excited states from <AA,BB:AA,BB> singles matrix:
 ***********************************************************************
 
 1PDM for each excited state written to RWF  633
 Ground to excited state transition densities written to RWF  633
 Ground to excited state transition electric dipole moments (Au):
       state          X           Y           Z        Dip. S.      Osc.
         1         0.1831     -0.0323      0.0026      0.0346      0.0018
         2         0.1427      0.0261     -0.0051      0.0211      0.0018
         3        -1.0352      0.7661     -0.4398      1.8520      0.2168
         4         0.4883      0.6351      0.7099      1.1459      0.1345
         5         0.0754      0.0524      0.1405      0.0282      0.0035
 Ground to excited state transition velocity dipole moments (Au):
       state          X           Y           Z        Dip. S.      Osc.
         1        -0.0143      0.0006     -0.0027      0.0002      0.0018
         2        -0.0165     -0.0034      0.0038      0.0003      0.0016
         3         0.1806     -0.1355      0.0761      0.0568      0.2155
         4        -0.0816     -0.1106     -0.1236      0.0342      0.1293
         5        -0.0134     -0.0094     -0.0282      0.0011      0.0038
 Ground to excited state transition magnetic dipole moments (Au):
       state          X           Y           Z
         1         0.1460      0.0634      0.1020
         2         0.0772      0.0615     -0.0076
         3         0.1373      0.0454     -0.0962
         4        -0.1356     -0.0395      0.1297
         5        -0.2688     -0.0868     -0.2682
 Ground to excited state transition velocity quadrupole moments (Au):
       state          XX          YY          ZZ          XY          XZ          YZ
         1         0.0043     -0.0014      0.0148      0.0235      0.0212      0.0010
         2        -0.0286     -0.0084      0.0083      0.0040     -0.0452      0.0040
         3        -0.2464     -0.0050     -0.0959     -0.4366     -0.5144     -0.0689
         4         0.9204     -0.2528      0.0997     -0.2836      0.5831      0.0795
         5         0.3453     -0.0675      0.0013      0.0101      0.0870      0.0462
 <0|del|b> * <b|rxdel|0> + <0|del|b> * <b|delr+rdel|0>
 Rotatory Strengths (R) in cgs (10**-40 erg-esu-cm/Gauss)
       state          XX          YY          ZZ    R(velocity)    E-M Angle
         1        -1.4375    -10.6836     -9.3231     -7.1481      147.49
         2        -1.0718     -3.9134     -3.5719     -2.8524      152.25
         3      -234.3554     77.0347    202.9156     15.1983       74.12
         4       176.4158    -93.3510    -85.4481     -0.7945       90.96
         5        17.0230     20.6687      8.0231     15.2382       19.48
 1/2[<0|r|b>*<b|rxdel|0> + (<0|rxdel|b>*<b|r|0>)*]
 Rotatory Strengths (R) in cgs (10**-40 erg-esu-cm/Gauss)
       state          XX          YY          ZZ     R(length)
         1       -18.9031      1.4470     -0.1894     -5.8818
         2        -7.7898     -1.1339     -0.0273     -2.9837
         3       100.4961    -24.5737    -29.9085     15.3380
         4        46.8426     17.7350    -65.1391     -0.1872
         5        14.3358      3.2145     26.6550     14.7351
  1/2[<0|del|b>*<b|r|0> + (<0|r|b>*<b|del|0>)*] (Au)
       state          X           Y           Z        Dip. S.   Osc.(frdel)
         1        -0.0026     -0.0000     -0.0000      0.0026      0.0018
         2        -0.0024     -0.0001     -0.0000      0.0025      0.0016
         3        -0.1869     -0.1038     -0.0335      0.3242      0.2161
         4        -0.0399     -0.0703     -0.0877      0.1979      0.1319
         5        -0.0010     -0.0005     -0.0040      0.0055      0.0036

 Excitation energies and oscillator strengths:
 
 Excited State   1:      Singlet-A      2.0857 eV  594.44 nm  f=0.0018  <S**2>=0.000
      47 -> 48         0.70356
 This state for optimization and/or second-order correction.
 Total Energy, E(TD-HF/TD-DFT) =  -557.333496238    
 Copying the excited state density for this state as the 1-particle RhoCI density.
 
 Excited State   2:      Singlet-A      3.3970 eV  364.98 nm  f=0.0018  <S**2>=0.000
      46 -> 48         0.70679
 
 Excited State   3:      Singlet-A      4.7787 eV  259.45 nm  f=0.2168  <S**2>=0.000
      45 -> 48        -0.41576
      46 -> 49         0.13099
      47 -> 49         0.45342
      47 -> 50         0.29715
 
 Excited State   4:      Singlet-A      4.7926 eV  258.70 nm  f=0.1345  <S**2>=0.000
      45 -> 48         0.55279
      47 -> 49         0.30042
      47 -> 50         0.27439
 
 Excited State   5:      Singlet-A      5.0414 eV  245.93 nm  f=0.0035  <S**2>=0.000
      42 -> 48        -0.10241
      43 -> 48        -0.53298
      44 -> 48        -0.42500
 SavETr:  write IOETrn=   770 NScale= 10 NData=  16 NLR=1 NState=    5 LETran=     100.
 The selected state is a singlet.
 CISGrd: IGrad=2 NXY=2 DFT=T
 CISAX will form     1 AO SS matrices at one time.
 NMat=     1 NSing=     1 JSym2X= 0.
 GePol: Maximum number of non-zero 1st derivatives   =     255
 Leave Link  914 at Wed Jun 24 11:41:09 2026, MaxMem=  4026531840 cpu:            1280.9 elap:             160.8
 (Enter /opt/packages/gaussian/g16RevC.01/g16/l1002.exe)
 Minotr:  Closed shell wavefunction.
          Computing CIS/TDA/TD derivatives.
          Using Z-Vector for PSCF gradient.
          Skipping F1 and S1 gradient terms here.
          IDoAtm=111111111111111111111111111
 NEqPCM:  Using equilibrium solvation (IEInf=0, Eps=  32.6130, EpsInf=   1.7657)
          Frozen-core window.
          Direct CPHF calculation.
          Differentiating once with respect to electric field.
                with respect to dipole field.
          Differentiating once with respect to nuclear coordinates.
          Requested convergence is 1.0D-10 RMS, and 1.0D-09 maximum.
          NewPWx=F KeepS1=T KeepF1=T KeepIn=T MapXYZ=F SortEE=F KeepMc=T.
 Keep R1 ints in memory in canonical form, NReq=730638089.
 FoFCou: FMM=F IPFlag=           0 FMFlag=           0 FMFlg1=           0
         NFxFlg=           0 DoJE=F BraDBF=F KetDBF=F FulRan=T
         wScrn=  0.000000 ICntrl=       600 IOpCl=  0 I1Cent=           0 NGrid=           0
         NMat0=    1 NMatS0=  37950 NMatT0=    0 NMatD0=    1 NMtDS0=    0 NMtDT0=    0
 Symmetry not used in FoFCou.
 Two-electron integral symmetry not used.
          MDV=    4026531840 using IRadAn=       5.
          Solving linear equations separately, MaxMat=       0.
          There are     1 degrees of freedom in the 1st order CPHF.  IDoFFX=0 NUNeed=     1.
 LinEq1:  Iter=  0 NonCon=     1 RMS=1.16D-02 Max=2.64D-01 NDo=     1
 AX will form     1 AO Fock derivatives at one time.
 LinEq1:  Iter=  1 NonCon=     1 RMS=3.46D-03 Max=1.81D-01 NDo=     1
 LinEq1:  Iter=  2 NonCon=     1 RMS=2.54D-03 Max=9.44D-02 NDo=     1
 LinEq1:  Iter=  3 NonCon=     1 RMS=1.13D-03 Max=5.28D-02 NDo=     1
 LinEq1:  Iter=  4 NonCon=     1 RMS=1.04D-03 Max=4.78D-02 NDo=     1
 LinEq1:  Iter=  5 NonCon=     1 RMS=5.88D-04 Max=2.42D-02 NDo=     1
 LinEq1:  Iter=  6 NonCon=     1 RMS=3.87D-04 Max=1.44D-02 NDo=     1
 LinEq1:  Iter=  7 NonCon=     1 RMS=1.62D-04 Max=5.69D-03 NDo=     1
 LinEq1:  Iter=  8 NonCon=     1 RMS=1.05D-04 Max=3.72D-03 NDo=     1
 LinEq1:  Iter=  9 NonCon=     1 RMS=4.47D-05 Max=2.19D-03 NDo=     1
 LinEq1:  Iter= 10 NonCon=     1 RMS=2.39D-05 Max=6.94D-04 NDo=     1
 LinEq1:  Iter= 11 NonCon=     1 RMS=1.03D-05 Max=2.46D-04 NDo=     1
 LinEq1:  Iter= 12 NonCon=     1 RMS=4.84D-06 Max=1.17D-04 NDo=     1
 LinEq1:  Iter= 13 NonCon=     1 RMS=1.46D-06 Max=3.29D-05 NDo=     1
 LinEq1:  Iter= 14 NonCon=     1 RMS=9.00D-07 Max=2.18D-05 NDo=     1
 LinEq1:  Iter= 15 NonCon=     1 RMS=3.35D-07 Max=1.24D-05 NDo=     1
 LinEq1:  Iter= 16 NonCon=     1 RMS=1.92D-07 Max=5.15D-06 NDo=     1
 LinEq1:  Iter= 17 NonCon=     1 RMS=8.49D-08 Max=2.16D-06 NDo=     1
 LinEq1:  Iter= 18 NonCon=     1 RMS=3.47D-08 Max=5.88D-07 NDo=     1
 LinEq1:  Iter= 19 NonCon=     1 RMS=1.35D-08 Max=2.51D-07 NDo=     1
 LinEq1:  Iter= 20 NonCon=     1 RMS=3.54D-09 Max=7.83D-08 NDo=     1
 LinEq1:  Iter= 21 NonCon=     1 RMS=2.17D-09 Max=4.76D-08 NDo=     1
 LinEq1:  Iter= 22 NonCon=     1 RMS=5.43D-10 Max=1.69D-08 NDo=     1
 LinEq1:  Iter= 23 NonCon=     1 RMS=1.28D-10 Max=3.59D-09 NDo=     1
 LinEq1:  Iter= 24 NonCon=     1 RMS=7.29D-11 Max=1.63D-09 NDo=     1
 LinEq1:  Iter= 25 NonCon=     0 RMS=2.32D-11 Max=5.65D-10 NDo=     1
 Linear equations converged to 1.000D-10 1.000D-09 after    25 iterations.
 End of Minotr F.D. properties file   721 does not exist.
 End of Minotr F.D. properties file   722 does not exist.
 End of Minotr F.D. properties file   788 does not exist.
 Leave Link 1002 at Wed Jun 24 11:41:58 2026, MaxMem=  4026531840 cpu:             314.8 elap:              49.2
 (Enter /opt/packages/gaussian/g16RevC.01/g16/l701.exe)
 ... and contract with generalized density number  6.
 Compute integral first derivatives.
 D1PCM: PCM CHGder 1st derivatives, ID1Alg=3 FixD1E=F DoIter=F DoCFld=F I1PDM=6.
 Leave Link  701 at Wed Jun 24 11:42:00 2026, MaxMem=  4026531840 cpu:              13.4 elap:               1.7
 (Enter /opt/packages/gaussian/g16RevC.01/g16/l702.exe)
 L702 exits ... SP integral derivatives will be done elsewhere.
 Leave Link  702 at Wed Jun 24 11:42:00 2026, MaxMem=  4026531840 cpu:               0.1 elap:               0.0
 (Enter /opt/packages/gaussian/g16RevC.01/g16/l703.exe)
 Integral derivatives from FoFJK, PRISM(SPDF).
 Compute integral first derivatives, UseDBF=F ICtDFT=           0.
 Calling FoFJK, ICntrl=  10005127 FMM=F ISym2X=0 I1Cent= 0 IOpClX= 0 NMat=1 NMatS=1 NMatT=0.
 FoFJK:  IHMeth= 1 ICntrl=10005127 DoSepK=F KAlg= 0 I1Cent=           0 FoldK=F
 IRaf=         0 NMat=       1 IRICut=       1 DoRegI=T DoRafI=F ISym2E= 0 IDoP0=0 IntGTp=1.
 FoFCou: FMM=F IPFlag=           0 FMFlag=      100000 FMFlg1=         800
         NFxFlg=           0 DoJE=F BraDBF=F KetDBF=F FulRan=T
         wScrn=  0.000000 ICntrl=  10005127 IOpCl=  0 I1Cent=           0 NGrid=           0
         NMat0=    1 NMatS0=      1 NMatT0=    0 NMatD0=    1 NMtDS0=    0 NMtDT0=    0
 Symmetry not used in FoFCou.
 Leave Link  703 at Wed Jun 24 11:42:07 2026, MaxMem=  4026531840 cpu:              50.1 elap:               6.3
 (Enter /opt/packages/gaussian/g16RevC.01/g16/l716.exe)
 Dipole        = 2.35930793D+00-4.69072802D-01-3.90596587D-01
 ***** Axes restored to original set *****
 -------------------------------------------------------------------
 Center     Atomic                   Forces (Hartrees/Bohr)
 Number     Number              X              Y              Z
 -------------------------------------------------------------------
      1        6           0.000052204   -0.000188990   -0.000665459
      2        6           0.000234149   -0.000102361    0.000477008
      3        6           0.000582667    0.001571393   -0.002193186
      4        6           0.000031371    0.000267669   -0.000285698
      5        6          -0.000254501   -0.001133235    0.000929754
      6        6          -0.000420178    0.000083405   -0.000177328
      7        1           0.000019054    0.000153807   -0.000114075
      8        1          -0.000098709   -0.000397016    0.000518345
      9        1          -0.000037478    0.000034262   -0.000080932
     10        1           0.000109672    0.000097079    0.000169963
     11        8          -0.000469358    0.000086048    0.000925303
     12        6           0.000603243    0.000424276   -0.000582435
     13        1           0.000298504   -0.000465612   -0.000083352
     14        1          -0.000213321   -0.000088533    0.000009971
     15        1          -0.000105259   -0.000062345   -0.000203299
     16        6          -0.000491358    0.000887505    0.001405420
     17        6          -0.001320174    0.000516184    0.001367628
     18        7           0.001047648   -0.001146647   -0.001526201
     19        6           0.000030088   -0.000690869   -0.000257273
     20        6           0.000141957   -0.000302807    0.000206316
     21        1          -0.000139224   -0.000253317    0.000007505
     22        1           0.000159556    0.000281710   -0.000204938
     23        1          -0.000082404    0.000068232    0.000073197
     24        1           0.000131964    0.000154332   -0.000125104
     25        1           0.000128706   -0.000026544    0.000054500
     26        1          -0.000090854   -0.000030354   -0.000001060
     27        1           0.000152037    0.000262729    0.000355430
 -------------------------------------------------------------------
 Cartesian Forces:  Max     0.002193186 RMS     0.000574931
 Leave Link  716 at Wed Jun 24 11:42:07 2026, MaxMem=  4026531840 cpu:               0.1 elap:               0.0
 (Enter /opt/packages/gaussian/g16RevC.01/g16/l103.exe)

 GradGradGradGradGradGradGradGradGradGradGradGradGradGradGradGradGradGrad
 Berny optimization.
 Using GEDIIS/GDIIS optimizer.
 FormGI is forming the generalized inverse of G from B-inverse, IUseBI=4.
 Internal  Forces:  Max     0.001963353 RMS     0.000407268
 Search for a local minimum.
 Step number   2 out of a maximum of  154
 All quantities printed in internal units (Hartrees-Bohrs-Radians)
 RMS Force = .40727D-03 SwitMx=.10000D-02 MixMth= 2
 Mixed Optimization -- En-DIIS/RFO-DIIS
 Swapping is turned off.
 Update second derivatives using D2CorX and points    1    2
 DE= -9.98D-05 DEPred=-2.55D-04 R= 3.91D-01
 Trust test= 3.91D-01 RLast= 1.76D-01 DXMaxT set to 3.00D-01
 ITU=  0  0
     Eigenvalues ---    0.00396   0.00853   0.00951   0.01396   0.01510
     Eigenvalues ---    0.01521   0.01685   0.01811   0.01927   0.01948
     Eigenvalues ---    0.01995   0.02089   0.02115   0.02199   0.02650
     Eigenvalues ---    0.03162   0.03317   0.03577   0.04962   0.05240
     Eigenvalues ---    0.05775   0.06059   0.06874   0.07145   0.07830
     Eigenvalues ---    0.08386   0.09283   0.09959   0.10559   0.10781
     Eigenvalues ---    0.12793   0.15496   0.15999   0.16000   0.16000
     Eigenvalues ---    0.16000   0.16000   0.16231   0.19923   0.21794
     Eigenvalues ---    0.21897   0.22087   0.22943   0.23819   0.24828
     Eigenvalues ---    0.24999   0.25037   0.26944   0.27518   0.30136
     Eigenvalues ---    0.33167   0.33957   0.33965   0.34052   0.34167
     Eigenvalues ---    0.34258   0.34287   0.34478   0.34504   0.34679
     Eigenvalues ---    0.34937   0.35102   0.35229   0.35255   0.35590
     Eigenvalues ---    0.37768   0.38000   0.39516   0.40540   0.41618
     Eigenvalues ---    0.44063   0.45119   0.47670   0.50347   0.63495
 En-DIIS/RFO-DIIS/Sim-DIIS IScMMF=       -3 using points:     2    1
 RFO step:  Lambda=-3.80089098D-04.
 NNeg= 0 NGDIIS= 2 SimSw=  2.50D-03 Rises=F DC= -9.98D-05 SmlDif=  1.00D-05
 NRisDI= 0 DoIntr=F SqrtH=F CThrHd= 10.0 CDAdj=  3.0
 RMS Error=  0.1033504130D-01 NUsed= 2 OKEnD=T EnDIS=F
 InvSVX:  RCond= 3.31D-02 Info=           0 Equed=N FErr=  1.93D-15 BErr=  9.84D-18
 DidBck=F Rises=F RFO-DIIS coefs:    0.89562    0.10438
 Iteration  1 RMS(Cart)=  0.02435032 RMS(Int)=  0.00019769
 Iteration  2 RMS(Cart)=  0.00030617 RMS(Int)=  0.00002283
 Iteration  3 RMS(Cart)=  0.00000006 RMS(Int)=  0.00002283
 ITry= 1 IFail=0 DXMaxC= 8.63D-02 DCOld= 1.00D+10 DXMaxT= 3.00D-01 DXLimC= 3.00D+00 Rises=F
 Variable       Old X    -DE/DX   Delta X   Delta X   Delta X     New X
                                 (Linear)    (Quad)   (Total)
    R1        2.70079  -0.00047  -0.00000  -0.00068  -0.00069   2.70010
    R2        2.71083   0.00037   0.00016  -0.00040  -0.00024   2.71060
    R3        2.48112   0.00011   0.00015  -0.00077  -0.00062   2.48050
    R4        2.59356  -0.00010   0.00008  -0.00063  -0.00055   2.59301
    R5        2.04772  -0.00005  -0.00005   0.00019   0.00015   2.04786
    R6        2.70771   0.00045  -0.00012   0.00137   0.00125   2.70896
    R7        2.05180   0.00004   0.00012  -0.00066  -0.00054   2.05126
    R8        2.69220  -0.00038  -0.00008  -0.00007  -0.00014   2.69206
    R9        2.78934   0.00034   0.00052  -0.00253  -0.00201   2.78734
   R10        2.59146  -0.00000   0.00024  -0.00144  -0.00119   2.59026
   R11        2.05118   0.00010   0.00033  -0.00178  -0.00145   2.04972
   R12        2.05029   0.00006   0.00022  -0.00123  -0.00100   2.04929
   R13        2.74413   0.00088   0.00041  -0.00104  -0.00063   2.74350
   R14        2.06425   0.00001   0.00010  -0.00055  -0.00045   2.06380
   R15        2.06347   0.00012   0.00015  -0.00069  -0.00054   2.06293
   R16        2.05767  -0.00017   0.00002  -0.00043  -0.00041   2.05726
   R17        2.85197   0.00073   0.00007   0.00120   0.00129   2.85326
   R18        2.63651  -0.00026   0.00007  -0.00037  -0.00029   2.63622
   R19        2.92472  -0.00044   0.00008  -0.00147  -0.00140   2.92332
   R20        2.06979   0.00002   0.00007  -0.00039  -0.00032   2.06948
   R21        2.08583  -0.00012   0.00013  -0.00100  -0.00087   2.08496
   R22        2.78882   0.00025   0.00013  -0.00045  -0.00032   2.78851
   R23        1.91559   0.00014   0.00025  -0.00130  -0.00105   1.91454
   R24        2.91255   0.00048   0.00027  -0.00124  -0.00099   2.91156
   R25        2.07252  -0.00008   0.00010  -0.00076  -0.00065   2.07186
   R26        2.06843   0.00005   0.00006  -0.00026  -0.00020   2.06823
   R27        2.07090  -0.00002   0.00013  -0.00083  -0.00070   2.07020
   R28        2.06773   0.00008   0.00008  -0.00035  -0.00027   2.06746
    A1        2.10829  -0.00016   0.00014  -0.00123  -0.00112   2.10718
    A2        2.17045   0.00008  -0.00042   0.00269   0.00228   2.17273
    A3        2.00444   0.00008   0.00028  -0.00146  -0.00117   2.00327
    A4        2.06709  -0.00012  -0.00002  -0.00024  -0.00029   2.06680
    A5        2.10524   0.00016  -0.00004   0.00074   0.00072   2.10596
    A6        2.11085  -0.00003   0.00006  -0.00051  -0.00044   2.11041
    A7        2.12524   0.00034  -0.00014   0.00175   0.00154   2.12678
    A8        2.08573  -0.00015  -0.00019   0.00076   0.00054   2.08628
    A9        2.07217  -0.00019   0.00031  -0.00234  -0.00206   2.07010
   A10        2.07139  -0.00022   0.00026  -0.00206  -0.00182   2.06957
   A11        2.10810  -0.00004   0.00015  -0.00097  -0.00082   2.10728
   A12        2.10357   0.00027  -0.00041   0.00312   0.00271   2.10628
   A13        2.10973  -0.00013  -0.00008   0.00009   0.00000   2.10973
   A14        2.07338   0.00026  -0.00048   0.00373   0.00324   2.07662
   A15        2.10007  -0.00013   0.00055  -0.00382  -0.00328   2.09680
   A16        2.08457   0.00030  -0.00018   0.00188   0.00169   2.08626
   A17        2.06269  -0.00014   0.00018  -0.00143  -0.00124   2.06145
   A18        2.13592  -0.00016  -0.00000  -0.00045  -0.00045   2.13547
   A19        2.12862   0.00016   0.00043  -0.00216  -0.00173   2.12690
   A20        1.90577   0.00085   0.00091  -0.00222  -0.00131   1.90446
   A21        1.91316  -0.00041   0.00039  -0.00400  -0.00361   1.90955
   A22        1.82505   0.00015   0.00043  -0.00191  -0.00149   1.82357
   A23        1.94740  -0.00034   0.00015  -0.00235  -0.00221   1.94520
   A24        1.93504  -0.00026  -0.00085   0.00436   0.00351   1.93854
   A25        1.93332   0.00006  -0.00098   0.00594   0.00496   1.93827
   A26        2.14164   0.00164   0.00039  -0.00008   0.00014   2.14178
   A27        2.07967  -0.00196   0.00026  -0.01111  -0.01091   2.06875
   A28        1.88619   0.00013   0.00046  -0.00415  -0.00374   1.88245
   A29        1.76796   0.00005   0.00021  -0.00086  -0.00064   1.76731
   A30        1.96463   0.00016  -0.00080   0.00700   0.00618   1.97082
   A31        1.95951  -0.00023   0.00086  -0.00783  -0.00697   1.95254
   A32        1.96488   0.00019  -0.00023   0.00211   0.00189   1.96677
   A33        1.93593  -0.00021  -0.00014   0.00008  -0.00010   1.93583
   A34        1.87202   0.00003   0.00011  -0.00059  -0.00047   1.87155
   A35        1.93793  -0.00026   0.00006  -0.00016  -0.00009   1.93785
   A36        2.08305  -0.00009   0.00116  -0.00866  -0.00752   2.07554
   A37        2.06819   0.00023   0.00037  -0.00126  -0.00094   2.06725
   A38        1.81947   0.00023   0.00002  -0.00010  -0.00009   1.81938
   A39        1.90630   0.00003  -0.00025   0.00240   0.00215   1.90846
   A40        1.93512  -0.00027   0.00005  -0.00186  -0.00181   1.93331
   A41        1.95055   0.00001   0.00018  -0.00070  -0.00051   1.95003
   A42        1.96528  -0.00001  -0.00004   0.00071   0.00067   1.96594
   A43        1.88657  -0.00000   0.00003  -0.00039  -0.00036   1.88622
   A44        1.82246  -0.00017   0.00019  -0.00229  -0.00213   1.82033
   A45        1.91136  -0.00007  -0.00028   0.00118   0.00091   1.91227
   A46        1.96398   0.00012  -0.00016   0.00141   0.00126   1.96524
   A47        1.91898   0.00021   0.00000   0.00068   0.00070   1.91968
   A48        1.95808  -0.00007   0.00038  -0.00219  -0.00181   1.95627
   A49        1.88836  -0.00002  -0.00015   0.00119   0.00104   1.88940
    D1       -0.00828   0.00030  -0.00097   0.01400   0.01302   0.00474
    D2        3.12830   0.00027  -0.00075   0.01191   0.01115   3.13945
    D3        3.13457   0.00022  -0.00164   0.01616   0.01452  -3.13410
    D4       -0.01204   0.00020  -0.00142   0.01406   0.01265   0.00061
    D5        0.00267   0.00014   0.00051   0.00096   0.00146   0.00413
    D6       -3.13994   0.00002  -0.00019   0.00205   0.00186  -3.13808
    D7       -3.14006   0.00021   0.00111  -0.00101   0.00010  -3.13996
    D8        0.00051   0.00009   0.00041   0.00009   0.00050   0.00101
    D9       -0.01302   0.00018   0.00196  -0.00781  -0.00584  -0.01886
   D10        3.12976   0.00011   0.00134  -0.00577  -0.00443   3.12533
   D11        0.01175  -0.00058   0.00101  -0.02263  -0.02163  -0.00988
   D12       -3.14002  -0.00015  -0.00011  -0.00307  -0.00317   3.13999
   D13       -3.12481  -0.00056   0.00079  -0.02054  -0.01975   3.13862
   D14        0.00661  -0.00013  -0.00033  -0.00098  -0.00130   0.00531
   D15       -0.00961   0.00043  -0.00059   0.01648   0.01588   0.00628
   D16       -3.13413   0.00029  -0.00040   0.01048   0.01007  -3.12406
   D17       -3.14110   0.00000   0.00052  -0.00295  -0.00242   3.13966
   D18        0.01756  -0.00013   0.00072  -0.00896  -0.00823   0.00933
   D19        0.00367   0.00002   0.00010  -0.00083  -0.00072   0.00295
   D20       -3.13754  -0.00011   0.00130  -0.01154  -0.01025   3.13539
   D21        3.12824   0.00016  -0.00008   0.00512   0.00505   3.13329
   D22       -0.01297   0.00003   0.00112  -0.00560  -0.00448  -0.01745
   D23        1.09546   0.00128   0.00822   0.02272   0.03096   1.12642
   D24       -1.37060   0.00161   0.00613   0.05056   0.05667  -1.31393
   D25       -2.02875   0.00114   0.00840   0.01665   0.02508  -2.00367
   D26        1.78837   0.00148   0.00631   0.04450   0.05078   1.83916
   D27       -0.00043  -0.00030  -0.00007  -0.00739  -0.00746  -0.00789
   D28       -3.14096  -0.00017   0.00066  -0.00854  -0.00788   3.13435
   D29        3.14077  -0.00017  -0.00130   0.00349   0.00219  -3.14022
   D30        0.00025  -0.00004  -0.00057   0.00235   0.00177   0.00202
   D31        1.08711  -0.00017   0.00377  -0.02656  -0.02279   1.06432
   D32       -1.05112  -0.00003   0.00273  -0.01966  -0.01693  -1.06805
   D33       -3.12440   0.00002   0.00345  -0.02359  -0.02014   3.13864
   D34       -3.08065   0.00101  -0.00014   0.01587   0.01578  -3.06487
   D35        1.10002   0.00068   0.00039   0.01056   0.01097   1.11099
   D36       -1.01455   0.00069   0.00020   0.01196   0.01220  -1.00235
   D37       -0.55095  -0.00008   0.00169  -0.01191  -0.01022  -0.56116
   D38       -2.65346  -0.00042   0.00222  -0.01723  -0.01503  -2.66849
   D39        1.51515  -0.00040   0.00203  -0.01582  -0.01380   1.50135
   D40        2.89706   0.00028   0.00002  -0.01232  -0.01224   2.88482
   D41       -0.88346   0.00020   0.00247  -0.02697  -0.02443  -0.90789
   D42        0.34198  -0.00011  -0.00178   0.00990   0.00810   0.35008
   D43        2.84466  -0.00019   0.00067  -0.00475  -0.00409   2.84057
   D44        0.54599  -0.00005  -0.00104   0.00949   0.00846   0.55445
   D45       -1.50829  -0.00017  -0.00101   0.00937   0.00836  -1.49993
   D46        2.67399  -0.00018  -0.00054   0.00612   0.00558   2.67958
   D47        2.64833   0.00026  -0.00198   0.01826   0.01630   2.66464
   D48        0.59405   0.00014  -0.00195   0.01814   0.01620   0.61025
   D49       -1.50685   0.00013  -0.00147   0.01490   0.01343  -1.49343
   D50       -1.53704   0.00028  -0.00209   0.01900   0.01692  -1.52011
   D51        2.69187   0.00016  -0.00206   0.01888   0.01682   2.70869
   D52        0.59096   0.00015  -0.00158   0.01564   0.01405   0.60501
   D53        0.02422   0.00006   0.00107  -0.00399  -0.00291   0.02131
   D54       -2.06277  -0.00010   0.00097  -0.00429  -0.00332  -2.06610
   D55        2.14329   0.00005   0.00106  -0.00418  -0.00313   2.14016
   D56       -2.48451   0.00027  -0.00167   0.01355   0.01190  -2.47262
   D57        1.71168   0.00011  -0.00177   0.01325   0.01149   1.72316
   D58       -0.36545   0.00026  -0.00168   0.01335   0.01168  -0.35377
   D59       -0.36488  -0.00010   0.00004  -0.00372  -0.00368  -0.36856
   D60        1.68416  -0.00017  -0.00018  -0.00326  -0.00344   1.68071
   D61       -2.49676  -0.00010  -0.00011  -0.00274  -0.00284  -2.49961
   D62        1.69193   0.00008  -0.00015  -0.00128  -0.00143   1.69049
   D63       -2.54222   0.00001  -0.00037  -0.00082  -0.00119  -2.54342
   D64       -0.43996   0.00008  -0.00030  -0.00029  -0.00059  -0.44055
   D65       -2.46381   0.00008  -0.00001  -0.00179  -0.00179  -2.46560
   D66       -0.41477   0.00001  -0.00023  -0.00133  -0.00155  -0.41632
   D67        1.68749   0.00008  -0.00015  -0.00080  -0.00095   1.68654
         Item               Value     Threshold  Converged?
 Maximum Force            0.001963     0.000450     NO 
 RMS     Force            0.000407     0.000300     NO 
 Maximum Displacement     0.086275     0.001800     NO 
 RMS     Displacement     0.024385     0.001200     NO 
 Predicted change in Energy=-1.927366D-04
 Lowest energy point so far.  Saving SCF results.
 GradGradGradGradGradGradGradGradGradGradGradGradGradGradGradGradGradGrad

 Leave Link  103 at Wed Jun 24 11:42:07 2026, MaxMem=  4026531840 cpu:               0.2 elap:               0.0
 (Enter /opt/packages/gaussian/g16RevC.01/g16/l202.exe)
                          Input orientation:                          
 ---------------------------------------------------------------------
 Center     Atomic      Atomic             Coordinates (Angstroms)
 Number     Number       Type             X           Y           Z
 ---------------------------------------------------------------------
      1          6           0        2.487592    0.185364    0.218316
      2          6           0        1.794376   -0.809582   -0.537391
      3          6           0        0.422304   -0.794533   -0.533288
      4          6           0       -0.321426    0.177731    0.212736
      5          6           0        0.394507    1.155761    0.961281
      6          6           0        1.765102    1.172207    0.967724
      7          1           0        2.334020    1.909424    1.523461
      8          1           0        2.341355   -1.553406   -1.104761
      9          1           0       -0.122713   -1.541106   -1.102370
     10          1           0       -0.161678    1.898122    1.523475
     11          8           0        3.794246    0.286663    0.291643
     12          6           0        4.674602   -0.644442   -0.390807
     13          1           0        4.492982   -0.585722   -1.466113
     14          1           0        4.500573   -1.652999   -0.011011
     15          1           0        5.677844   -0.301277   -0.144010
     16          6           0       -1.796278    0.157640    0.217242
     17          6           0       -2.595087   -0.981127    0.804487
     18          7           0       -2.472349    0.615825   -0.913728
     19          6           0       -3.890157    0.207892   -0.884635
     20          6           0       -4.038137   -0.554081    0.446285
     21          1           0       -2.444092   -1.096332    1.883012
     22          1           0       -2.341750   -1.946421    0.334031
     23          1           0       -4.100566   -0.436130   -1.746622
     24          1           0       -4.546691    1.081471   -0.945216
     25          1           0       -4.425123    0.116934    1.220952
     26          1           0       -4.719270   -1.405795    0.359143
     27          1           0       -2.240438    1.528759   -1.286824
 ---------------------------------------------------------------------
                    Distance matrix (angstroms):
                    1          2          3          4          5
     1  C    0.000000
     2  C    1.428831   0.000000
     3  C    2.406349   1.372160   0.000000
     4  C    2.809034   2.452366   1.433522   0.000000
     5  C    2.423773   2.840462   2.457266   1.424578   0.000000
     6  C    1.434386   2.488717   2.814997   2.431582   1.370709
     7  H    2.167803   3.454174   3.898238   3.430475   2.155405
     8  H    2.189803   1.083683   2.141314   3.438465   3.924071
     9  H    3.396851   2.128276   1.085482   2.173337   3.435006
    10  H    3.414031   3.924917   3.438270   2.168710   1.084667
    11  O    1.312624   2.426629   3.635861   4.117869   3.572390
    12  C    2.417152   2.888678   4.257331   5.099072   4.836124
    13  H    2.730104   2.862711   4.181409   5.155572   5.071736
    14  H    2.735738   2.883042   4.200240   5.162685   5.068951
    15  H    3.247431   3.936299   5.292971   6.028927   5.590911
    16  C    4.283960   3.794442   2.528248   1.474996   2.519797
    17  C    5.247659   4.593196   3.305921   2.619666   3.678117
    18  N    5.105666   4.514239   3.242354   2.467249   3.467859
    19  C    6.472455   5.785304   4.441353   3.733761   4.760693
    20  C    6.571444   5.920397   4.573064   3.795264   4.778818
    21  H    5.360547   4.889293   3.761093   2.986430   3.738870
    22  H    5.280192   4.377135   3.117544   2.934014   4.183787
    23  H    6.902974   6.029266   4.696487   4.300907   5.483842
    24  H    7.185955   6.629596   5.327287   4.473306   5.296762
    25  H    6.985384   6.529347   5.235044   4.226171   4.937147
    26  H    7.381766   6.602032   5.254128   4.676539   5.751073
    27  H    5.140469   4.723263   3.613267   2.785061   3.483682
                    6          7          8          9         10
     6  C    0.000000
     7  H    1.084436   0.000000
     8  H    3.472208   4.347275   0.000000
     9  H    3.900154   4.983642   2.464099   0.000000
    10  H    2.132673   2.495724   5.008577   4.327225   0.000000
    11  O    2.314886   2.506588   2.728863   4.541649   4.445620
    12  C    3.689310   3.957900   2.603842   4.931994   5.789535
    13  H    4.056502   4.452463   2.386732   4.727548   6.064073
    14  H    4.052470   4.442906   2.422485   4.751669   6.058192
    15  H    4.326275   4.341522   3.690939   6.008502   6.458938
    16  C    3.778359   4.672721   4.668552   2.725424   2.721662
    17  C    4.865670   5.759193   5.323644   3.172115   3.837773
    18  N    4.669626   5.542064   5.283351   3.195110   3.594919
    19  C    6.028523   6.887272   6.479380   4.159331   4.749466
    20  C    6.076968   6.916180   6.640957   4.324707   4.711748
    21  H    4.868402   5.656342   5.660054   3.807772   3.782253
    22  H    5.195540   6.176173   4.914880   2.674257   4.576899
    23  H    6.660366   7.589398   6.569523   4.178439   5.626465
    24  H    6.595931   7.356906   7.376531   5.145308   5.098009
    25  H    6.284633   6.999326   7.347394   5.163106   4.630456
    26  H    7.004537   7.880052   7.212296   4.825211   5.748320
    27  H    4.610257   5.382219   5.525008   3.734014   3.515033
                   11         12         13         14         15
    11  O    0.000000
    12  C    1.451800   0.000000
    13  H    2.083026   1.092116   0.000000
    14  H    2.086333   1.091658   1.804566   0.000000
    15  H    2.020745   1.088653   1.797989   1.797444   0.000000
    16  C    5.592507   6.548691   6.552944   6.555978   7.496907
    17  C    6.534055   7.374990   7.453368   7.173900   8.354833
    18  N    6.389951   7.276031   7.089759   7.388105   8.237669
    19  C    7.774308   8.621220   8.440673   8.638894   9.610121
    20  C    7.878894   8.753326   8.742897   8.621271   9.737178
    21  H    6.584982   7.486673   7.720127   7.219805   8.408732
    22  H    6.529847   7.172847   7.197609   6.857298   8.200543
    23  H    8.185658   8.881734   8.599426   8.858482   9.909786
    24  H    8.469520   9.397787   9.206876   9.497529  10.348674
    25  H    8.273479   9.272673   9.340592   9.182508  10.203332
    26  H    8.680375   9.454465   9.427071   9.230581  10.467717
    27  H    6.360171   7.303659   7.059896   7.562574   8.206964
                   16         17         18         19         20
    16  C    0.000000
    17  C    1.509881   0.000000
    18  N    1.395026   2.348953   0.000000
    19  C    2.366640   2.438053   1.475613   0.000000
    20  C    2.363247   1.546954   2.381178   1.540730   0.000000
    21  H    2.183322   1.095120   3.279334   3.384076   2.213413
    22  H    2.176752   1.103314   2.852904   2.919551   2.197485
    23  H    3.085298   3.011916   2.109837   1.096384   2.196963
    24  H    3.125627   3.335345   2.126197   1.094462   2.206792
    25  H    2.814235   2.174445   2.935827   2.174388   1.095504
    26  H    3.317882   2.211521   3.279604   2.199636   1.094053
    27  H    2.083137   3.286165   1.013129   2.151282   3.251708
                   21         22         23         24         25
    21  H    0.000000
    22  H    1.769878   0.000000
    23  H    4.044009   3.115049   0.000000
    24  H    4.142779   3.958076   1.773243   0.000000
    25  H    2.415537   3.063414   3.036068   2.374320   0.000000
    26  H    2.755790   2.438341   2.399435   2.813827   1.774243
    27  H    4.120733   3.835923   2.744499   2.373935   3.613176
                   26         27
    26  H    0.000000
    27  H    4.179165   0.000000
 Stoichiometry    C11H14NO(1+)
 Framework group  C1[X(C11H14NO)]
 Deg. of freedom    75
 Full point group                 C1      NOp   1
 RotChk:  IX=0 Diff= 8.09D-02
 Largest Abelian subgroup         C1      NOp   1
 Largest concise Abelian subgroup C1      NOp   1
                         Standard orientation:                         
 ---------------------------------------------------------------------
 Center     Atomic      Atomic             Coordinates (Angstroms)
 Number     Number       Type             X           Y           Z
 ---------------------------------------------------------------------
      1          6           0        2.484386    0.231450    0.006926
      2          6           0        1.772083   -1.006025   -0.046347
      3          6           0        0.400399   -0.970835   -0.038071
      4          6           0       -0.324329    0.263889    0.034097
      5          6           0        0.410455    1.483027    0.090815
      6          6           0        1.781050    1.479793    0.073426
      7          1           0        2.364033    2.393507    0.108886
      8          1           0        2.304583   -1.948408   -0.098564
      9          1           0       -0.158970   -1.900170   -0.079472
     10          1           0       -0.131345    2.421413    0.139683
     11          8           0        3.792727    0.336965   -0.002710
     12          6           0        4.655387   -0.829899   -0.047089
     13          1           0        4.456455   -1.387075   -0.965075
     14          1           0        4.480827   -1.443987    0.838428
     15          1           0        5.664862   -0.422315   -0.047604
     16          6           0       -1.799008    0.271867    0.063594
     17          6           0       -2.595708   -0.322907    1.199928
     18          7           0       -2.490527    0.019926   -1.121491
     19          6           0       -3.910390   -0.278806   -0.852819
     20          6           0       -4.041547   -0.151932    0.677067
     21          1           0       -2.427725    0.189976    2.152829
     22          1           0       -2.356702   -1.388684    1.355801
     23          1           0       -4.139342   -1.294274   -1.197003
     24          1           0       -4.561909    0.416960   -1.390666
     25          1           0       -4.411154    0.845303    0.939826
     26          1           0       -4.729772   -0.893290    1.093824
     27          1           0       -2.258632    0.558102   -1.947942
 ---------------------------------------------------------------------
 Rotational constants (GHZ):           2.7041300           0.3417680           0.3299354
 Leave Link  202 at Wed Jun 24 11:42:07 2026, MaxMem=  4026531840 cpu:               0.0 elap:               0.0
 (Enter /opt/packages/gaussian/g16RevC.01/g16/l301.exe)
 Standard basis: 6-31+G(d) (6D, 7F)
 Ernie: Thresh=  0.10000D-02 Tol=  0.10000D-05 Strict=F.
 There are   275 symmetry adapted cartesian basis functions of A   symmetry.
 There are   275 symmetry adapted basis functions of A   symmetry.
   275 basis functions,   472 primitive gaussians,   275 cartesian basis functions
    47 alpha electrons       47 beta electrons
       nuclear repulsion energy       751.5816574115 Hartrees.
 IExCor=  402 DFT=T Ex+Corr=B3LYP ExCW=0 ScaHFX=  0.200000
 ScaDFX=  0.800000  0.720000  1.000000  0.810000 ScalE2=  1.000000  1.000000
 IRadAn=      5 IRanWt=     -1 IRanGd=            0 ICorTp=0 IEmpDi=  4
 NAtoms=   27 NActive=   27 NUniq=   27 SFac= 1.00D+00 NAtFMM=   60 NAOKFM=F Big=F
 Integral buffers will be    131072 words long.
 Regular integral format.
 Two-electron integral symmetry is turned on.
 ------------------------------------------------------------------------------
 Polarizable Continuum Model (PCM)
 =================================
 Model                : PCM.
 Atomic radii         : SMD-Coulomb.
 Polarization charges : Total charges.
 Charge compensation  : None.
 Solution method      : On-the-fly selection.
 Cavity type          : VdW (van der Waals Surface) (Alpha=1.000).
 Cavity algorithm     : GePol (No added spheres)
                        Default sphere list used, NSphG=   27.
                        Lebedev-Laikov grids with approx.  5.0 points / Ang**2.
                        Smoothing algorithm: York/Karplus (Gamma=1.0000).
                        Polarization charges: spherical gaussians, with
                                              point-specific exponents (IZeta= 3).
                        Self-potential: point-specific (ISelfS= 7).
                        Self-field    : sphere-specific E.n sum rule (ISelfD= 2).
 1st derivatives      : Analytical E(r).r(x)/FMM algorithm (CHGder, D1EAlg=3).
                        Cavity 1st derivative terms included.
 Solvent              : Methanol, Eps=  32.613000 Eps(inf)=   1.765709
 ------------------------------------------------------------------------------
 GePol: Number of generator spheres                  =      27
 GePol: Total number of spheres                      =      27
 GePol: Number of exposed spheres                    =      27 (100.00%)
 GePol: Number of points                             =    2020
 GePol: Average weight of points                     =       0.11
 GePol: Minimum weight of points                     =   0.61D-08
 GePol: Maximum weight of points                     =    0.21991
 GePol: Number of points with low weight             =     108
 GePol: Fraction of low-weight points (<1% of avg)   =       5.35%
 GePol: Cavity surface area                          =    220.704 Ang**2
 GePol: Cavity volume                                =    193.932 Ang**3
 ------------------------------------------------------------------------------
 Atomic radii for non-electrostatic terms: SMD-CDS.
 ------------------------------------------------------------------------------
 PCM non-electrostatic energy =        -0.0003211297 Hartrees.
 Nuclear repulsion after PCM non-electrostatic terms =      751.5813362818 Hartrees.
 Leave Link  301 at Wed Jun 24 11:42:07 2026, MaxMem=  4026531840 cpu:               0.4 elap:               0.1
 (Enter /opt/packages/gaussian/g16RevC.01/g16/l302.exe)
 NPDir=0 NMtPBC=     1 NCelOv=     1 NCel=       1 NClECP=     1 NCelD=      1
         NCelK=      1 NCelE2=     1 NClLst=     1 CellRange=     0.0.
 One-electron integrals computed using PRISM.
 One-electron integral symmetry used in STVInt
 NBasis=   275 RedAO= T EigKep=  1.39D-06  NBF=   275
 NBsUse=   275 1.00D-06 EigRej= -1.00D+00 NBFU=   275
 Precomputing XC quadrature grid using
 IXCGrd= 4 IRadAn=           5 IRanWt=          -1 IRanGd=           0 AccXCQ= 0.00D+00.
 Generated NRdTot=       0 NPtTot=           0 NUsed=           0 NTot=          32
 NSgBfM=   274   274   274   274   274 MxSgAt=    27 MxSgA2=    27.
 Leave Link  302 at Wed Jun 24 11:42:07 2026, MaxMem=  4026531840 cpu:               1.4 elap:               0.2
 (Enter /opt/packages/gaussian/g16RevC.01/g16/l303.exe)
 DipDrv:  MaxL=1.
 Leave Link  303 at Wed Jun 24 11:42:07 2026, MaxMem=  4026531840 cpu:               0.1 elap:               0.0
 (Enter /opt/packages/gaussian/g16RevC.01/g16/l308.exe)
 Leave Link  308 at Wed Jun 24 11:42:07 2026, MaxMem=  4026531840 cpu:               0.1 elap:               0.0
 (Enter /opt/packages/gaussian/g16RevC.01/g16/l401.exe)
 Initial guess from the checkpoint file:  "iminium_singlet.chk"
 B after Tr=    -0.000000    0.000000    0.000000
         Rot=    0.999618    0.027635    0.000338    0.000367 Ang=   3.17 deg.
 Guess basis will be translated and rotated to current coordinates.
 JPrj=2 DoOrth=T DoCkMO=T.
 Generating alternative initial guess.
 ExpMin= 4.38D-02 ExpMax= 5.48D+03 ExpMxC= 8.25D+02 IAcc=3 IRadAn=         5 AccDes= 0.00D+00
 Harris functional with IExCor=  402 and IRadAn=       5 diagonalized for initial guess.
 HarFok:  IExCor=  402 AccDes= 0.00D+00 IRadAn=         5 IDoV= 1 UseB2=F ITyADJ=14
 ICtDFT=  3500011 ScaDFX=  1.000000  1.000000  1.000000  1.000000
 FoFCou: FMM=F IPFlag=           0 FMFlag=      100000 FMFlg1=           0
         NFxFlg=           0 DoJE=T BraDBF=F KetDBF=T FulRan=T
         wScrn=  0.000000 ICntrl=       500 IOpCl=  0 I1Cent=   200000004 NGrid=           0
         NMat0=    1 NMatS0=      1 NMatT0=    0 NMatD0=    1 NMtDS0=    0 NMtDT0=    0
 Petite list used in FoFCou.
 Harris En= -557.326680474796    
 Leave Link  401 at Wed Jun 24 11:42:08 2026, MaxMem=  4026531840 cpu:               6.7 elap:               0.9
 (Enter /opt/packages/gaussian/g16RevC.01/g16/l502.exe)
 Integral symmetry usage will be decided dynamically.
 Closed shell SCF:
 Using DIIS extrapolation, IDIIS=  1040.
 NGot=  4026531840 LenX=  4026374748 LenY=  4026298682
 Requested convergence on RMS density matrix=1.00D-08 within 128 cycles.
 Requested convergence on MAX density matrix=1.00D-06.
 Requested convergence on             energy=1.00D-06.
 No special actions if energy rises.
 Fock matrices will be formed incrementally for  20 cycles.

 Cycle   1  Pass 1  IDiag  1:
 FoFJK:  IHMeth= 1 ICntrl=       0 DoSepK=F KAlg= 0 I1Cent=           0 FoldK=F
 IRaf= 880000000 NMat=       1 IRICut=       1 DoRegI=T DoRafI=F ISym2E= 0 IDoP0=0 IntGTp=1.
 FoFCou: FMM=F IPFlag=           0 FMFlag=      100000 FMFlg1=           0
         NFxFlg=           0 DoJE=F BraDBF=F KetDBF=F FulRan=T
         wScrn=  0.000000 ICntrl=         0 IOpCl=  0 I1Cent=           0 NGrid=           0
         NMat0=    1 NMatS0=      1 NMatT0=    0 NMatD0=    1 NMtDS0=    0 NMtDT0=    0
 Symmetry not used in FoFCou.
 Inv3:  Mode=1 IEnd=    12241200.
 Iteration    1 A*A^-1 deviation from unit magnitude is 2.89D-15 for   1626.
 Iteration    1 A*A^-1 deviation from orthogonality  is 2.31D-15 for   1593    383.
 Iteration    1 A^-1*A deviation from unit magnitude is 3.00D-15 for   1626.
 Iteration    1 A^-1*A deviation from orthogonality  is 1.03D-13 for   1036   1007.
 E= -557.406089308468    
 DIIS: error= 1.70D-03 at cycle   1 NSaved=   1.
 NSaved= 1 IEnMin= 1 EnMin= -557.406089308468     IErMin= 1 ErrMin= 1.70D-03
 ErrMax= 1.70D-03  0.00D+00 EMaxC= 1.00D-01 BMatC= 1.38D-03 BMatP= 1.38D-03
 IDIUse=3 WtCom= 9.83D-01 WtEn= 1.70D-02
 Coeff-Com:  0.100D+01
 Coeff-En:   0.100D+01
 Coeff:      0.100D+01
 Gap=     0.411 Goal=   None    Shift=    0.000
 GapD=    0.411 DampG=2.000 DampE=1.000 DampFc=2.0000 IDamp=-1.
 RMSDP=3.69D-03 MaxDP=3.44D-01              OVMax= 1.83D-02

 Cycle   2  Pass 1  IDiag  1:
 RMSU=  3.52D-03    CP:  1.01D+00
 E= -557.408639763968     Delta-E=       -0.002550455500 Rises=F Damp=F
 DIIS: error= 1.74D-04 at cycle   2 NSaved=   2.
 NSaved= 2 IEnMin= 2 EnMin= -557.408639763968     IErMin= 2 ErrMin= 1.74D-04
 ErrMax= 1.74D-04  0.00D+00 EMaxC= 1.00D-01 BMatC= 2.27D-05 BMatP= 1.38D-03
 IDIUse=3 WtCom= 9.98D-01 WtEn= 1.74D-03
 Coeff-Com: -0.369D-01 0.104D+01
 Coeff-En:   0.000D+00 0.100D+01
 Coeff:     -0.369D-01 0.104D+01
 Gap=     0.109 Goal=   None    Shift=    0.000
 RMSDP=4.21D-04 MaxDP=2.59D-02 DE=-2.55D-03 OVMax= 6.35D-03

 Cycle   3  Pass 1  IDiag  1:
 RMSU=  2.72D-04    CP:  1.02D+00  1.05D+00
 E= -557.408642962127     Delta-E=       -0.000003198159 Rises=F Damp=F
 DIIS: error= 3.10D-04 at cycle   3 NSaved=   3.
 NSaved= 3 IEnMin= 3 EnMin= -557.408642962127     IErMin= 2 ErrMin= 1.74D-04
 ErrMax= 3.10D-04  0.00D+00 EMaxC= 1.00D-01 BMatC= 5.21D-05 BMatP= 2.27D-05
 IDIUse=3 WtCom= 3.62D-01 WtEn= 6.38D-01
 Coeff-Com: -0.352D-01 0.656D+00 0.379D+00
 Coeff-En:   0.000D+00 0.473D+00 0.527D+00
 Coeff:     -0.128D-01 0.540D+00 0.473D+00
 Gap=     0.109 Goal=   None    Shift=    0.000
 RMSDP=2.95D-04 MaxDP=1.64D-02 DE=-3.20D-06 OVMax= 3.57D-03

 Cycle   4  Pass 1  IDiag  1:
 RMSU=  1.61D-04    CP:  1.01D+00  1.03D+00  6.09D-01
 E= -557.408678286774     Delta-E=       -0.000035324647 Rises=F Damp=F
 DIIS: error= 1.42D-04 at cycle   4 NSaved=   4.
 NSaved= 4 IEnMin= 4 EnMin= -557.408678286774     IErMin= 4 ErrMin= 1.42D-04
 ErrMax= 1.42D-04  0.00D+00 EMaxC= 1.00D-01 BMatC= 1.29D-05 BMatP= 2.27D-05
 IDIUse=3 WtCom= 9.99D-01 WtEn= 1.42D-03
 Coeff-Com: -0.949D-02 0.123D+00 0.331D+00 0.555D+00
 Coeff-En:   0.000D+00 0.000D+00 0.246D+00 0.754D+00
 Coeff:     -0.947D-02 0.123D+00 0.331D+00 0.556D+00
 Gap=     0.109 Goal=   None    Shift=    0.000
 RMSDP=1.04D-04 MaxDP=5.66D-03 DE=-3.53D-05 OVMax= 1.39D-03

 Cycle   5  Pass 1  IDiag  1:
 RMSU=  4.91D-05    CP:  1.02D+00  1.04D+00  7.99D-01  8.63D-01
 E= -557.408690385507     Delta-E=       -0.000012098733 Rises=F Damp=F
 DIIS: error= 1.89D-05 at cycle   5 NSaved=   5.
 NSaved= 5 IEnMin= 5 EnMin= -557.408690385507     IErMin= 5 ErrMin= 1.89D-05
 ErrMax= 1.89D-05  0.00D+00 EMaxC= 1.00D-01 BMatC= 3.91D-07 BMatP= 1.29D-05
 IDIUse=1 WtCom= 1.00D+00 WtEn= 0.00D+00
 Coeff-Com: -0.820D-03-0.156D-01 0.132D+00 0.306D+00 0.579D+00
 Coeff:     -0.820D-03-0.156D-01 0.132D+00 0.306D+00 0.579D+00
 Gap=     0.109 Goal=   None    Shift=    0.000
 RMSDP=2.34D-05 MaxDP=1.24D-03 DE=-1.21D-05 OVMax= 5.77D-04

 Cycle   6  Pass 1  IDiag  1:
 RMSU=  1.41D-05    CP:  1.02D+00  1.04D+00  8.40D-01  9.42D-01  9.23D-01
 E= -557.408690900524     Delta-E=       -0.000000515017 Rises=F Damp=F
 DIIS: error= 6.64D-06 at cycle   6 NSaved=   6.
 NSaved= 6 IEnMin= 6 EnMin= -557.408690900524     IErMin= 6 ErrMin= 6.64D-06
 ErrMax= 6.64D-06  0.00D+00 EMaxC= 1.00D-01 BMatC= 3.15D-08 BMatP= 3.91D-07
 IDIUse=1 WtCom= 1.00D+00 WtEn= 0.00D+00
 Coeff-Com:  0.917D-03-0.257D-01 0.130D-01 0.621D-01 0.259D+00 0.691D+00
 Coeff:      0.917D-03-0.257D-01 0.130D-01 0.621D-01 0.259D+00 0.691D+00
 Gap=     0.109 Goal=   None    Shift=    0.000
 RMSDP=1.29D-05 MaxDP=9.57D-04 DE=-5.15D-07 OVMax= 3.13D-04

 Cycle   7  Pass 1  IDiag  1:
 RMSU=  6.41D-06    CP:  1.02D+00  1.04D+00  8.56D-01  9.87D-01  1.06D+00
                    CP:  9.33D-01
 E= -557.408690958801     Delta-E=       -0.000000058277 Rises=F Damp=F
 DIIS: error= 3.86D-06 at cycle   7 NSaved=   7.
 NSaved= 7 IEnMin= 7 EnMin= -557.408690958801     IErMin= 7 ErrMin= 3.86D-06
 ErrMax= 3.86D-06  0.00D+00 EMaxC= 1.00D-01 BMatC= 7.97D-09 BMatP= 3.15D-08
 IDIUse=1 WtCom= 1.00D+00 WtEn= 0.00D+00
 Coeff-Com:  0.631D-03-0.129D-01-0.966D-02-0.455D-02 0.747D-01 0.397D+00
 Coeff-Com:  0.554D+00
 Coeff:      0.631D-03-0.129D-01-0.966D-02-0.455D-02 0.747D-01 0.397D+00
 Coeff:      0.554D+00
 Gap=     0.109 Goal=   None    Shift=    0.000
 RMSDP=5.62D-06 MaxDP=3.88D-04 DE=-5.83D-08 OVMax= 1.16D-04

 Cycle   8  Pass 1  IDiag  1:
 RMSU=  2.60D-06    CP:  1.02D+00  1.04D+00  8.65D-01  1.01D+00  1.12D+00
                    CP:  9.99D-01  1.15D+00
 E= -557.408690970317     Delta-E=       -0.000000011516 Rises=F Damp=F
 DIIS: error= 9.84D-07 at cycle   8 NSaved=   8.
 NSaved= 8 IEnMin= 8 EnMin= -557.408690970317     IErMin= 8 ErrMin= 9.84D-07
 ErrMax= 9.84D-07  0.00D+00 EMaxC= 1.00D-01 BMatC= 4.38D-10 BMatP= 7.97D-09
 IDIUse=1 WtCom= 1.00D+00 WtEn= 0.00D+00
 Coeff-Com:  0.133D-04 0.138D-02-0.587D-02-0.150D-01-0.298D-01-0.163D-01
 Coeff-Com:  0.174D+00 0.892D+00
 Coeff:      0.133D-04 0.138D-02-0.587D-02-0.150D-01-0.298D-01-0.163D-01
 Coeff:      0.174D+00 0.892D+00
 Gap=     0.109 Goal=   None    Shift=    0.000
 RMSDP=2.52D-06 MaxDP=1.76D-04 DE=-1.15D-08 OVMax= 7.17D-05

 Cycle   9  Pass 1  IDiag  1:
 RMSU=  5.23D-07    CP:  1.02D+00  1.04D+00  8.68D-01  1.01D+00  1.14D+00
                    CP:  1.06D+00  1.21D+00  9.03D-01
 E= -557.408690971680     Delta-E=       -0.000000001364 Rises=F Damp=F
 DIIS: error= 4.00D-07 at cycle   9 NSaved=   9.
 NSaved= 9 IEnMin= 9 EnMin= -557.408690971680     IErMin= 9 ErrMin= 4.00D-07
 ErrMax= 4.00D-07  0.00D+00 EMaxC= 1.00D-01 BMatC= 1.18D-10 BMatP= 4.38D-10
 IDIUse=1 WtCom= 1.00D+00 WtEn= 0.00D+00
 Coeff-Com: -0.309D-04 0.161D-02-0.270D-02-0.827D-02-0.215D-01-0.339D-01
 Coeff-Com:  0.656D-01 0.514D+00 0.486D+00
 Coeff:     -0.309D-04 0.161D-02-0.270D-02-0.827D-02-0.215D-01-0.339D-01
 Coeff:      0.656D-01 0.514D+00 0.486D+00
 Gap=     0.109 Goal=   None    Shift=    0.000
 RMSDP=4.23D-07 MaxDP=4.14D-05 DE=-1.36D-09 OVMax= 8.86D-06

 Cycle  10  Pass 1  IDiag  1:
 RMSU=  1.55D-07    CP:  1.02D+00  1.04D+00  8.69D-01  1.02D+00  1.14D+00
                    CP:  1.06D+00  1.24D+00  9.39D-01  8.19D-01
 E= -557.408690971801     Delta-E=       -0.000000000121 Rises=F Damp=F
 DIIS: error= 8.91D-08 at cycle  10 NSaved=  10.
 NSaved=10 IEnMin=10 EnMin= -557.408690971801     IErMin=10 ErrMin= 8.91D-08
 ErrMax= 8.91D-08  0.00D+00 EMaxC= 1.00D-01 BMatC= 4.63D-12 BMatP= 1.18D-10
 IDIUse=1 WtCom= 1.00D+00 WtEn= 0.00D+00
 Coeff-Com: -0.138D-04 0.496D-03-0.425D-03-0.165D-02-0.524D-02-0.118D-01
 Coeff-Com:  0.848D-02 0.115D+00 0.202D+00 0.694D+00
 Coeff:     -0.138D-04 0.496D-03-0.425D-03-0.165D-02-0.524D-02-0.118D-01
 Coeff:      0.848D-02 0.115D+00 0.202D+00 0.694D+00
 Gap=     0.109 Goal=   None    Shift=    0.000
 RMSDP=1.10D-07 MaxDP=1.06D-05 DE=-1.21D-10 OVMax= 2.09D-06

 Cycle  11  Pass 1  IDiag  1:
 RMSU=  6.75D-08    CP:  1.02D+00  1.04D+00  8.69D-01  1.02D+00  1.14D+00
                    CP:  1.06D+00  1.25D+00  9.42D-01  8.04D-01  8.20D-01
 E= -557.408690971807     Delta-E=       -0.000000000006 Rises=F Damp=F
 DIIS: error= 4.16D-08 at cycle  11 NSaved=  11.
 NSaved=11 IEnMin=11 EnMin= -557.408690971807     IErMin=11 ErrMin= 4.16D-08
 ErrMax= 4.16D-08  0.00D+00 EMaxC= 1.00D-01 BMatC= 6.50D-13 BMatP= 4.63D-12
 IDIUse=1 WtCom= 1.00D+00 WtEn= 0.00D+00
 Coeff-Com: -0.383D-05 0.931D-04 0.349D-04-0.765D-04-0.623D-03-0.280D-02
 Coeff-Com: -0.203D-02 0.934D-02 0.532D-01 0.335D+00 0.608D+00
 Coeff:     -0.383D-05 0.931D-04 0.349D-04-0.765D-04-0.623D-03-0.280D-02
 Coeff:     -0.203D-02 0.934D-02 0.532D-01 0.335D+00 0.608D+00
 Gap=     0.109 Goal=   None    Shift=    0.000
 RMSDP=3.34D-08 MaxDP=2.21D-06 DE=-5.80D-12 OVMax= 6.40D-07

 Cycle  12  Pass 1  IDiag  1:
 RMSU=  1.13D-08    CP:  1.02D+00  1.04D+00  8.69D-01  1.02D+00  1.14D+00
                    CP:  1.06D+00  1.25D+00  9.46D-01  8.12D-01  8.75D-01
                    CP:  9.52D-01
 E= -557.408690971810     Delta-E=       -0.000000000003 Rises=F Damp=F
 DIIS: error= 1.24D-08 at cycle  12 NSaved=  12.
 NSaved=12 IEnMin=12 EnMin= -557.408690971810     IErMin=12 ErrMin= 1.24D-08
 ErrMax= 1.24D-08  0.00D+00 EMaxC= 1.00D-01 BMatC= 7.74D-14 BMatP= 6.50D-13
 IDIUse=1 WtCom= 1.00D+00 WtEn= 0.00D+00
 Coeff-Com:  0.128D-06-0.283D-04 0.787D-04 0.199D-03 0.451D-03 0.241D-03
 Coeff-Com: -0.241D-02-0.128D-01-0.384D-02 0.612D-01 0.298D+00 0.659D+00
 Coeff:      0.128D-06-0.283D-04 0.787D-04 0.199D-03 0.451D-03 0.241D-03
 Coeff:     -0.241D-02-0.128D-01-0.384D-02 0.612D-01 0.298D+00 0.659D+00
 Gap=     0.109 Goal=   None    Shift=    0.000
 RMSDP=1.16D-08 MaxDP=6.34D-07 DE=-3.41D-12 OVMax= 2.82D-07

 Cycle  13  Pass 1  IDiag  1:
 RMSU=  4.46D-09    CP:  1.02D+00  1.04D+00  8.69D-01  1.02D+00  1.14D+00
                    CP:  1.06D+00  1.25D+00  9.45D-01  8.18D-01  8.81D-01
                    CP:  9.44D-01  7.64D-01
 E= -557.408690971812     Delta-E=       -0.000000000002 Rises=F Damp=F
 DIIS: error= 2.27D-09 at cycle  13 NSaved=  13.
 NSaved=13 IEnMin=13 EnMin= -557.408690971812     IErMin=13 ErrMin= 2.27D-09
 ErrMax= 2.27D-09  0.00D+00 EMaxC= 1.00D-01 BMatC= 3.51D-15 BMatP= 7.74D-14
 IDIUse=1 WtCom= 1.00D+00 WtEn= 0.00D+00
 Coeff-Com:  0.218D-06-0.165D-04 0.342D-04 0.920D-04 0.229D-03 0.223D-03
 Coeff-Com: -0.980D-03-0.607D-02-0.400D-02 0.127D-01 0.107D+00 0.296D+00
 Coeff-Com:  0.594D+00
 Coeff:      0.218D-06-0.165D-04 0.342D-04 0.920D-04 0.229D-03 0.223D-03
 Coeff:     -0.980D-03-0.607D-02-0.400D-02 0.127D-01 0.107D+00 0.296D+00
 Coeff:      0.594D+00
 Gap=     0.109 Goal=   None    Shift=    0.000
 RMSDP=2.30D-09 MaxDP=2.56D-07 DE=-2.27D-12 OVMax= 2.24D-08

 Error on total polarization charges =  0.05312
 SCF Done:  E(RB3LYP) =  -557.408690972     A.U. after   13 cycles
            NFock= 13  Conv=0.23D-08     -V/T= 2.0103
 KE= 5.517327775692D+02 PE=-2.781114824257D+03 EE= 9.203920194341D+02
 SMD-CDS (non-electrostatic) energy       (kcal/mol) =      -0.20
 (included in total energy above)
 Leave Link  502 at Wed Jun 24 11:42:33 2026, MaxMem=  4026531840 cpu:             196.6 elap:              24.8
 (Enter /opt/packages/gaussian/g16RevC.01/g16/l801.exe)
 DoSCS=F DFT=T ScalE2(SS,OS)=  1.000000  1.000000
 ExpMin= 4.38D-02 ExpMax= 5.48D+03 ExpMxC= 8.25D+02 IAcc=3 IRadAn=         5 AccDes= 0.00D+00
 HarFok:  IExCor=  205 AccDes= 0.00D+00 IRadAn=         5 IDoV=-2 UseB2=F ITyADJ=14
 ICtDFT= 12500011 ScaDFX=  1.000000  1.000000  1.000000  1.000000
 Largest valence mixing into a core orbital is  5.70D-05
 Largest core mixing into a valence orbital is  1.21D-05
 Range of M.O.s used for correlation:    14   275
 NBasis=   275 NAE=    47 NBE=    47 NFC=    13 NFV=     0
 NROrb=    262 NOA=    34 NOB=    34 NVA=   228 NVB=   228

 **** Warning!!: The largest alpha MO coefficient is  0.23384746D+03

 Leave Link  801 at Wed Jun 24 11:42:33 2026, MaxMem=  4026531840 cpu:               0.6 elap:               0.1
 (Enter /opt/packages/gaussian/g16RevC.01/g16/l914.exe)
 RHF ground state
 Two-electron integrals replicated using symmetry.
 MDV=  4026531840 DFT=T DoStab=F Mixed=T DoRPA=T DoScal=F NonHer=T
 NEqPCM:  Using equilibrium solvation (IEInf=0, Eps=  32.6130, EpsInf=   1.7657)
 Making orbital integer symmetry assigments:
 Orbital symmetries:
       Occupied  (A) (A) (A) (A) (A) (A) (A) (A) (A) (A) (A) (A)
                 (A) (A) (A) (A) (A) (A) (A) (A) (A) (A) (A) (A)
                 (A) (A) (A) (A) (A) (A) (A) (A) (A) (A) (A) (A)
                 (A) (A) (A) (A) (A) (A) (A) (A) (A) (A) (A)
       Virtual   (A) (A) (A) (A) (A) (A) (A) (A) (A) (A) (A) (A)
                 (A) (A) (A) (A) (A) (A) (A) (A) (A) (A) (A) (A)
                 (A) (A) (A) (A) (A) (A) (A) (A) (A) (A) (A) (A)
                 (A) (A) (A) (A) (A) (A) (A) (A) (A) (A) (A) (A)
                 (A) (A) (A) (A) (A) (A) (A) (A) (A) (A) (A) (A)
                 (A) (A) (A) (A) (A) (A) (A) (A) (A) (A) (A) (A)
                 (A) (A) (A) (A) (A) (A) (A) (A) (A) (A) (A) (A)
                 (A) (A) (A) (A) (A) (A) (A) (A) (A) (A) (A) (A)
                 (A) (A) (A) (A) (A) (A) (A) (A) (A) (A) (A) (A)
                 (A) (A) (A) (A) (A) (A) (A) (A) (A) (A) (A) (A)
                 (A) (A) (A) (A) (A) (A) (A) (A) (A) (A) (A) (A)
                 (A) (A) (A) (A) (A) (A) (A) (A) (A) (A) (A) (A)
                 (A) (A) (A) (A) (A) (A) (A) (A) (A) (A) (A) (A)
                 (A) (A) (A) (A) (A) (A) (A) (A) (A) (A) (A) (A)
                 (A) (A) (A) (A) (A) (A) (A) (A) (A) (A) (A) (A)
                 (A) (A) (A) (A) (A) (A) (A) (A) (A) (A) (A) (A)
                 (A) (A) (A) (A) (A) (A) (A) (A) (A) (A) (A) (A)
                 (A) (A) (A) (A) (A) (A) (A) (A) (A) (A) (A) (A)
                 (A) (A) (A) (A) (A) (A) (A) (A) (A) (A) (A) (A)
 Generating guess from densities on rwf.
 Convergence on wavefunction:    0.000001000000000
 Davidson Disk Diagonalization:  ConvIn= 1.00D-06 SkipCon=T Conv= 1.00D-06.
 Max sub-space:  2000 roots to seek:     5 dimension of matrix:        15504
 Iteration     1 Dimension    10 NMult     0 NNew     10
 CISAX will form    10 AO SS matrices at one time.
 NMat=    10 NSing=    10 JSym2X= 0.
 FoFJK:  IHMeth= 1 ICntrl=       0 DoSepK=F KAlg= 0 I1Cent=           0 FoldK=F
 IRaf= 880000000 NMat=      20 IRICut=      25 DoRegI=T DoRafI=T ISym2E= 0 IDoP0=0 IntGTp=1.
 FoFCou: FMM=F IPFlag=           0 FMFlag=      100000 FMFlg1=           0
         NFxFlg=           0 DoJE=F BraDBF=F KetDBF=F FulRan=T
         wScrn=  0.000000 ICntrl=         0 IOpCl=  0 I1Cent=           0 NGrid=           0
         NMat0=   20 NMatS0=     10 NMatT0=    0 NMatD0=   20 NMtDS0=    0 NMtDT0=    0
 Symmetry not used in FoFCou.
 Raff kept on since  88.24% of shell-pairs survive, threshold=   0.20 IRatSp=88.
 Excitation Energies [eV] at current iteration:
 Root      1 :     2.108080190220577
 Root      2 :     3.428126818292708
 Root      3 :     4.805487718852762
 Root      4 :     4.833765311486056
 Root      5 :     5.064422571199303
 Iteration     2 Dimension    20 NMult    10 NNew     10
 CISAX will form    10 AO SS matrices at one time.
 NMat=    10 NSing=    10 JSym2X= 0.
 Root      1 not converged, maximum delta is    0.022703786870486
 Root      2 not converged, maximum delta is    0.023406600311765
 New state      3 was old state      4
 Root      3 not converged, maximum delta is    0.211280300258438
 New state      4 was old state      3
 Root      4 not converged, maximum delta is    0.268359069323085
 Root      5 not converged, maximum delta is    0.017693053583444
 Excitation Energies [eV] at current iteration:
 Root      1 :     2.044714347285570   Change is   -0.063365842935008
 Root      2 :     3.359149792181078   Change is   -0.068977026111631
 Root      3 :     4.758038371912392   Change is   -0.075726939573664
 Root      4 :     4.785564717018968   Change is   -0.019923001833793
 Root      5 :     5.007319941433391   Change is   -0.057102629765912
 Iteration     3 Dimension    30 NMult    20 NNew     10
 CISAX will form    10 AO SS matrices at one time.
 NMat=    10 NSing=    10 JSym2X= 0.
 Root      1 not converged, maximum delta is    0.003078249270864
 Root      2 not converged, maximum delta is    0.002314120320383
 Root      3 not converged, maximum delta is    0.005994633424449
 Root      4 not converged, maximum delta is    0.003064672948318
 Root      5 not converged, maximum delta is    0.009732773937878
 Excitation Energies [eV] at current iteration:
 Root      1 :     2.043610254618347   Change is   -0.001104092667223
 Root      2 :     3.358007396933948   Change is   -0.001142395247130
 Root      3 :     4.757073447113480   Change is   -0.000964924798913
 Root      4 :     4.785267041915289   Change is   -0.000297675103679
 Root      5 :     5.006132498047493   Change is   -0.001187443385898
 Iteration     4 Dimension    40 NMult    30 NNew     10
 CISAX will form    10 AO SS matrices at one time.
 NMat=    10 NSing=    10 JSym2X= 0.
 Root      1 not converged, maximum delta is    0.000469192281999
 Root      2 not converged, maximum delta is    0.000265802116131
 Root      3 not converged, maximum delta is    0.002422922342183
 Root      4 not converged, maximum delta is    0.001167370808416
 Root      5 not converged, maximum delta is    0.010144370454153
 Excitation Energies [eV] at current iteration:
 Root      1 :     2.043514708272331   Change is   -0.000095546346016
 Root      2 :     3.357956906887072   Change is   -0.000050490046876
 Root      3 :     4.756950372108102   Change is   -0.000123075005377
 Root      4 :     4.785228476412242   Change is   -0.000038565503047
 Root      5 :     5.005777013909231   Change is   -0.000355484138261
 Iteration     5 Dimension    50 NMult    40 NNew     10
 CISAX will form    10 AO SS matrices at one time.
 NMat=    10 NSing=    10 JSym2X= 0.
 Root      1 not converged, maximum delta is    0.000096288692777
 Root      2 not converged, maximum delta is    0.000100634458853
 Root      3 not converged, maximum delta is    0.001190103398514
 Root      4 not converged, maximum delta is    0.000495643252895
 Root      5 not converged, maximum delta is    0.008657803293942
 Excitation Energies [eV] at current iteration:
 Root      1 :     2.043510314705412   Change is   -0.000004393566919
 Root      2 :     3.357953908023393   Change is   -0.000002998863680
 Root      3 :     4.756930108596895   Change is   -0.000020263511208
 Root      4 :     4.785220967991034   Change is   -0.000007508421208
 Root      5 :     5.005639336824666   Change is   -0.000137677084565
 Iteration     6 Dimension    60 NMult    50 NNew     10
 CISAX will form    10 AO SS matrices at one time.
 NMat=    10 NSing=    10 JSym2X= 0.
 Root      1 not converged, maximum delta is    0.000020862960100
 Root      2 not converged, maximum delta is    0.000009444065364
 Root      3 not converged, maximum delta is    0.000179098753380
 Root      4 not converged, maximum delta is    0.000193612475855
 Root      5 not converged, maximum delta is    0.003513711909222
 Excitation Energies [eV] at current iteration:
 Root      1 :     2.043510042211081   Change is   -0.000000272494331
 Root      2 :     3.357953783745807   Change is   -0.000000124277586
 Root      3 :     4.756928319413846   Change is   -0.000001789183049
 Root      4 :     4.785219913668531   Change is   -0.000001054322503
 Root      5 :     5.005604692383472   Change is   -0.000034644441194
 Iteration     7 Dimension    70 NMult    60 NNew     10
 CISAX will form    10 AO SS matrices at one time.
 NMat=    10 NSing=    10 JSym2X= 0.
 Root      1 not converged, maximum delta is    0.000003638498049
 Root      2 not converged, maximum delta is    0.000002533159998
 Root      3 not converged, maximum delta is    0.000023630763970
 Root      4 not converged, maximum delta is    0.000038279602738
 Root      5 not converged, maximum delta is    0.001304421712516
 Excitation Energies [eV] at current iteration:
 Root      1 :     2.043510029249069   Change is   -0.000000012962012
 Root      2 :     3.357953778959687   Change is   -0.000000004786120
 Root      3 :     4.756928182045606   Change is   -0.000000137368239
 Root      4 :     4.785219801197615   Change is   -0.000000112470915
 Root      5 :     5.005598166050905   Change is   -0.000006526332568
 Iteration     8 Dimension    80 NMult    70 NNew     10
 CISAX will form    10 AO SS matrices at one time.
 NMat=    10 NSing=    10 JSym2X= 0.
 Root      1 has converged.
 Root      2 has converged.
 Root      3 not converged, maximum delta is    0.000011950689664
 Root      4 not converged, maximum delta is    0.000008907083173
 Root      5 not converged, maximum delta is    0.000330981350042
 Excitation Energies [eV] at current iteration:
 Root      1 :     2.043510029007737   Change is   -0.000000000241331
 Root      2 :     3.357953778784962   Change is   -0.000000000174724
 Root      3 :     4.756928162895875   Change is   -0.000000019149732
 Root      4 :     4.785219790764166   Change is   -0.000000010433449
 Root      5 :     5.005597301518431   Change is   -0.000000864532473
 Iteration     9 Dimension    86 NMult    80 NNew      6
 CISAX will form     6 AO SS matrices at one time.
 NMat=     6 NSing=     6 JSym2X= 0.
 Root      1 has converged.
 Root      2 has converged.
 Root      3 not converged, maximum delta is    0.000004739487851
 Root      4 not converged, maximum delta is    0.000002843607763
 Root      5 not converged, maximum delta is    0.000062515711382
 Excitation Energies [eV] at current iteration:
 Root      1 :     2.043510029007295   Change is   -0.000000000000443
 Root      2 :     3.357953778784228   Change is   -0.000000000000734
 Root      3 :     4.756928159955766   Change is   -0.000000002940108
 Root      4 :     4.785219789332928   Change is   -0.000000001431238
 Root      5 :     5.005597216263561   Change is   -0.000000085254870
 Iteration    10 Dimension    92 NMult    86 NNew      6
 CISAX will form     6 AO SS matrices at one time.
 NMat=     6 NSing=     6 JSym2X= 0.
 Root      1 has converged.
 Root      2 has converged.
 Root      3 not converged, maximum delta is    0.000001573235533
 Root      4 has converged.
 Root      5 not converged, maximum delta is    0.000006902404173
 Excitation Energies [eV] at current iteration:
 Root      1 :     2.043510029007214   Change is   -0.000000000000080
 Root      2 :     3.357953778783739   Change is   -0.000000000000489
 Root      3 :     4.756928159511957   Change is   -0.000000000443810
 Root      4 :     4.785219789157267   Change is   -0.000000000175660
 Root      5 :     5.005597207065891   Change is   -0.000000009197669
 Iteration    11 Dimension    96 NMult    92 NNew      4
 CISAX will form     4 AO SS matrices at one time.
 NMat=     4 NSing=     4 JSym2X= 0.
 Root      1 has converged.
 Root      2 has converged.
 Root      3 has converged.
 Root      4 has converged.
 Root      5 not converged, maximum delta is    0.000002094908715
 Excitation Energies [eV] at current iteration:
 Root      1 :     2.043510029007134   Change is   -0.000000000000080
 Root      2 :     3.357953778783714   Change is   -0.000000000000025
 Root      3 :     4.756928159459628   Change is   -0.000000000052329
 Root      4 :     4.785219789146359   Change is   -0.000000000010909
 Root      5 :     5.005597205954834   Change is   -0.000000001111057
 Iteration    12 Dimension    98 NMult    96 NNew      2
 CISAX will form     2 AO SS matrices at one time.
 NMat=     2 NSing=     2 JSym2X= 0.
 Root      1 has converged.
 Root      2 has converged.
 Root      3 has converged.
 Root      4 has converged.
 Root      5 has converged.
 Excitation Energies [eV] at current iteration:
 Root      1 :     2.043510029007375   Change is    0.000000000000241
 Root      2 :     3.357953778783592   Change is   -0.000000000000122
 Root      3 :     4.756928159459524   Change is   -0.000000000000104
 Root      4 :     4.785219789144950   Change is   -0.000000000001409
 Root      5 :     5.005597205824911   Change is   -0.000000000129923
 Convergence achieved on expansion vectors.
 ***********************************************************************
 Excited states from <AA,BB:AA,BB> singles matrix:
 ***********************************************************************
 
 1PDM for each excited state written to RWF  633
 Ground to excited state transition densities written to RWF  633
 Ground to excited state transition electric dipole moments (Au):
       state          X           Y           Z        Dip. S.      Osc.
         1        -0.0692     -0.0358     -0.0126      0.0062      0.0003
         2         0.1189      0.0014     -0.0113      0.0143      0.0012
         3        -1.1068      0.1003     -0.7991      1.8736      0.2183
         4        -0.3398      0.9988      0.2072      1.1559      0.1355
         5         0.1184      0.0683      0.1483      0.0407      0.0050
 Ground to excited state transition velocity dipole moments (Au):
       state          X           Y           Z        Dip. S.      Osc.
         1         0.0042      0.0007     -0.0015      0.0000      0.0002
         2        -0.0134     -0.0001      0.0045      0.0002      0.0011
         3         0.1894     -0.0193      0.1380      0.0553      0.2109
         4         0.0621     -0.1753     -0.0364      0.0359      0.1362
         5        -0.0212     -0.0123     -0.0295      0.0015      0.0053
 Ground to excited state transition magnetic dipole moments (Au):
       state          X           Y           Z
         1         0.1480      0.0746      0.0810
         2         0.0817      0.0630      0.0278
         3         0.2016      0.0456     -0.1622
         4        -0.0165     -0.0107      0.0241
         5        -0.2699     -0.1071     -0.2418
 Ground to excited state transition velocity quadrupole moments (Au):
       state          XX          YY          ZZ          XY          XZ          YZ
         1        -0.0003      0.0023      0.0084      0.0235      0.0128      0.0027
         2        -0.0336     -0.0050      0.0068     -0.0032     -0.0483      0.0048
         3        -0.7618      0.1441     -0.1236     -0.2095     -0.7528     -0.1236
         4         0.5375     -0.1922      0.0085     -0.4903      0.1280      0.0238
         5         0.3641     -0.0614     -0.0015      0.0109      0.0959      0.0512
 <0|del|b> * <b|rxdel|0> + <0|del|b> * <b|delr+rdel|0>
 Rotatory Strengths (R) in cgs (10**-40 erg-esu-cm/Gauss)
       state          XX          YY          ZZ    R(velocity)    E-M Angle
         1        -0.5344      2.6046      3.1661      1.7455       48.28
         2         0.2897     -2.9258     -2.9611     -1.8657      130.19
         3      -134.8291     43.0659    152.1245     20.1204       76.02
         4        83.0689    -36.7641    -46.3699     -0.0217       90.00
         5        17.9060     23.2482     13.3434     18.1658       12.11
 1/2[<0|r|b>*<b|rxdel|0> + (<0|rxdel|b>*<b|r|0>)*]
 Rotatory Strengths (R) in cgs (10**-40 erg-esu-cm/Gauss)
       state          XX          YY          ZZ     R(length)
         1         7.2406      1.8897      0.7208      3.2837
         2        -6.8634     -0.0642      0.2228     -2.2349
         3       157.7660     -3.2372    -91.6634     20.9551
         4        -3.9534      7.5898     -3.5322      0.0347
         5        22.6063      5.1738     25.3496     17.7099
  1/2[<0|del|b>*<b|r|0> + (<0|r|b>*<b|del|0>)*] (Au)
       state          X           Y           Z        Dip. S.   Osc.(frdel)
         1        -0.0003     -0.0000      0.0000      0.0003      0.0002
         2        -0.0016     -0.0000     -0.0001      0.0016      0.0011
         3        -0.2097     -0.0019     -0.1103      0.3219      0.2146
         4        -0.0211     -0.1751     -0.0075      0.2037      0.1358
         5        -0.0025     -0.0008     -0.0044      0.0077      0.0052

 Excitation energies and oscillator strengths:
 
 Excited State   1:      Singlet-A      2.0435 eV  606.72 nm  f=0.0003  <S**2>=0.000
      47 -> 48         0.70356
 This state for optimization and/or second-order correction.
 Total Energy, E(TD-HF/TD-DFT) =  -557.333593360    
 Copying the excited state density for this state as the 1-particle RhoCI density.
 
 Excited State   2:      Singlet-A      3.3580 eV  369.23 nm  f=0.0012  <S**2>=0.000
      46 -> 48         0.70679
 
 Excited State   3:      Singlet-A      4.7569 eV  260.64 nm  f=0.2183  <S**2>=0.000
      45 -> 48        -0.67589
      47 -> 49         0.14474
 
 Excited State   4:      Singlet-A      4.7852 eV  259.10 nm  f=0.1355  <S**2>=0.000
      45 -> 48         0.14723
      46 -> 49         0.15162
      46 -> 50         0.11148
      47 -> 49         0.52681
      47 -> 50        -0.39773
 
 Excited State   5:      Singlet-A      5.0056 eV  247.69 nm  f=0.0050  <S**2>=0.000
      43 -> 48        -0.56129
      44 -> 48        -0.39128
 SavETr:  write IOETrn=   770 NScale= 10 NData=  16 NLR=1 NState=    5 LETran=     100.
 The selected state is a singlet.
 CISGrd: IGrad=2 NXY=2 DFT=T
 CISAX will form     1 AO SS matrices at one time.
 NMat=     1 NSing=     1 JSym2X= 0.
 GePol: Maximum number of non-zero 1st derivatives   =     254
 Leave Link  914 at Wed Jun 24 11:45:06 2026, MaxMem=  4026531840 cpu:            1211.9 elap:             152.5
 (Enter /opt/packages/gaussian/g16RevC.01/g16/l1002.exe)
 Minotr:  Closed shell wavefunction.
          Computing CIS/TDA/TD derivatives.
          Using Z-Vector for PSCF gradient.
          Skipping F1 and S1 gradient terms here.
          IDoAtm=111111111111111111111111111
 NEqPCM:  Using equilibrium solvation (IEInf=0, Eps=  32.6130, EpsInf=   1.7657)
          Frozen-core window.
          Direct CPHF calculation.
          Differentiating once with respect to electric field.
                with respect to dipole field.
          Differentiating once with respect to nuclear coordinates.
          Requested convergence is 1.0D-10 RMS, and 1.0D-09 maximum.
          NewPWx=F KeepS1=T KeepF1=T KeepIn=T MapXYZ=F SortEE=F KeepMc=T.
 Keep R1 ints in memory in canonical form, NReq=730638089.
 FoFCou: FMM=F IPFlag=           0 FMFlag=           0 FMFlg1=           0
         NFxFlg=           0 DoJE=F BraDBF=F KetDBF=F FulRan=T
         wScrn=  0.000000 ICntrl=       600 IOpCl=  0 I1Cent=           0 NGrid=           0
         NMat0=    1 NMatS0=  37950 NMatT0=    0 NMatD0=    1 NMtDS0=    0 NMtDT0=    0
 Symmetry not used in FoFCou.
 Two-electron integral symmetry not used.
          MDV=    4026531840 using IRadAn=       5.
          Solving linear equations separately, MaxMat=       0.
          There are     1 degrees of freedom in the 1st order CPHF.  IDoFFX=0 NUNeed=     1.
 LinEq1:  Iter=  0 NonCon=     1 RMS=1.16D-02 Max=2.70D-01 NDo=     1
 AX will form     1 AO Fock derivatives at one time.
 LinEq1:  Iter=  1 NonCon=     1 RMS=3.44D-03 Max=1.79D-01 NDo=     1
 LinEq1:  Iter=  2 NonCon=     1 RMS=2.47D-03 Max=7.14D-02 NDo=     1
 LinEq1:  Iter=  3 NonCon=     1 RMS=1.06D-03 Max=3.50D-02 NDo=     1
 LinEq1:  Iter=  4 NonCon=     1 RMS=1.03D-03 Max=4.78D-02 NDo=     1
 LinEq1:  Iter=  5 NonCon=     1 RMS=5.61D-04 Max=2.31D-02 NDo=     1
 LinEq1:  Iter=  6 NonCon=     1 RMS=3.76D-04 Max=1.71D-02 NDo=     1
 LinEq1:  Iter=  7 NonCon=     1 RMS=1.60D-04 Max=5.58D-03 NDo=     1
 LinEq1:  Iter=  8 NonCon=     1 RMS=1.04D-04 Max=3.51D-03 NDo=     1
 LinEq1:  Iter=  9 NonCon=     1 RMS=4.52D-05 Max=2.15D-03 NDo=     1
 LinEq1:  Iter= 10 NonCon=     1 RMS=2.41D-05 Max=6.83D-04 NDo=     1
 LinEq1:  Iter= 11 NonCon=     1 RMS=1.04D-05 Max=2.29D-04 NDo=     1
 LinEq1:  Iter= 12 NonCon=     1 RMS=4.92D-06 Max=1.20D-04 NDo=     1
 LinEq1:  Iter= 13 NonCon=     1 RMS=1.49D-06 Max=3.46D-05 NDo=     1
 LinEq1:  Iter= 14 NonCon=     1 RMS=9.32D-07 Max=2.07D-05 NDo=     1
 LinEq1:  Iter= 15 NonCon=     1 RMS=3.54D-07 Max=1.45D-05 NDo=     1
 LinEq1:  Iter= 16 NonCon=     1 RMS=2.09D-07 Max=5.91D-06 NDo=     1
 LinEq1:  Iter= 17 NonCon=     1 RMS=8.70D-08 Max=2.30D-06 NDo=     1
 LinEq1:  Iter= 18 NonCon=     1 RMS=3.54D-08 Max=5.43D-07 NDo=     1
 LinEq1:  Iter= 19 NonCon=     1 RMS=1.38D-08 Max=2.15D-07 NDo=     1
 LinEq1:  Iter= 20 NonCon=     1 RMS=3.69D-09 Max=8.11D-08 NDo=     1
 LinEq1:  Iter= 21 NonCon=     1 RMS=2.30D-09 Max=3.90D-08 NDo=     1
 LinEq1:  Iter= 22 NonCon=     1 RMS=5.60D-10 Max=1.36D-08 NDo=     1
 LinEq1:  Iter= 23 NonCon=     1 RMS=1.33D-10 Max=2.63D-09 NDo=     1
 LinEq1:  Iter= 24 NonCon=     1 RMS=7.42D-11 Max=1.31D-09 NDo=     1
 LinEq1:  Iter= 25 NonCon=     0 RMS=2.20D-11 Max=4.96D-10 NDo=     1
 Linear equations converged to 1.000D-10 1.000D-09 after    25 iterations.
 End of Minotr F.D. properties file   721 does not exist.
 End of Minotr F.D. properties file   722 does not exist.
 End of Minotr F.D. properties file   788 does not exist.
 Leave Link 1002 at Wed Jun 24 11:45:55 2026, MaxMem=  4026531840 cpu:             312.6 elap:              48.9
 (Enter /opt/packages/gaussian/g16RevC.01/g16/l701.exe)
 ... and contract with generalized density number  6.
 Compute integral first derivatives.
 D1PCM: PCM CHGder 1st derivatives, ID1Alg=3 FixD1E=F DoIter=F DoCFld=F I1PDM=6.
 Leave Link  701 at Wed Jun 24 11:45:56 2026, MaxMem=  4026531840 cpu:              13.4 elap:               1.7
 (Enter /opt/packages/gaussian/g16RevC.01/g16/l702.exe)
 L702 exits ... SP integral derivatives will be done elsewhere.
 Leave Link  702 at Wed Jun 24 11:45:56 2026, MaxMem=  4026531840 cpu:               0.1 elap:               0.0
 (Enter /opt/packages/gaussian/g16RevC.01/g16/l703.exe)
 Integral derivatives from FoFJK, PRISM(SPDF).
 Compute integral first derivatives, UseDBF=F ICtDFT=           0.
 Calling FoFJK, ICntrl=  10005127 FMM=F ISym2X=0 I1Cent= 0 IOpClX= 0 NMat=1 NMatS=1 NMatT=0.
 FoFJK:  IHMeth= 1 ICntrl=10005127 DoSepK=F KAlg= 0 I1Cent=           0 FoldK=F
 IRaf=         0 NMat=       1 IRICut=       1 DoRegI=T DoRafI=F ISym2E= 0 IDoP0=0 IntGTp=1.
 FoFCou: FMM=F IPFlag=           0 FMFlag=      100000 FMFlg1=         800
         NFxFlg=           0 DoJE=F BraDBF=F KetDBF=F FulRan=T
         wScrn=  0.000000 ICntrl=  10005127 IOpCl=  0 I1Cent=           0 NGrid=           0
         NMat0=    1 NMatS0=      1 NMatT0=    0 NMatD0=    1 NMtDS0=    0 NMtDT0=    0
 Symmetry not used in FoFCou.
 Leave Link  703 at Wed Jun 24 11:46:03 2026, MaxMem=  4026531840 cpu:              50.1 elap:               6.3
 (Enter /opt/packages/gaussian/g16RevC.01/g16/l716.exe)
 Dipole        = 2.35640364D+00-5.10650548D-01-3.70987405D-01
 ***** Axes restored to original set *****
 -------------------------------------------------------------------
 Center     Atomic                   Forces (Hartrees/Bohr)
 Number     Number              X              Y              Z
 -------------------------------------------------------------------
      1        6          -0.000122195    0.000313751    0.000038427
      2        6           0.000189023    0.000081058   -0.000516239
      3        6           0.000020658   -0.000993273    0.001683355
      4        6           0.001349737    0.000742416    0.000075018
      5        6          -0.000433997    0.000204529   -0.001153582
      6        6           0.000055524   -0.000193768   -0.000121267
      7        1           0.000194332    0.000263237    0.000314745
      8        1          -0.000132148    0.000032409   -0.000089514
      9        1          -0.000022135   -0.000034070   -0.000371765
     10        1          -0.000518801    0.000133406    0.000573738
     11        8          -0.000614198   -0.000046940    0.001006841
     12        6          -0.000049309    0.000624743   -0.000711207
     13        1           0.000833755   -0.000333792   -0.000276345
     14        1           0.000219373   -0.000343406    0.000191648
     15        1           0.000103983   -0.000421717   -0.000326838
     16        6           0.000038988   -0.000562608    0.000741038
     17        6          -0.000234389   -0.000376676    0.000222949
     18        7          -0.000291108    0.000119169   -0.000991102
     19        6          -0.000480039    0.000622516    0.000369230
     20        6           0.000020035   -0.000500660   -0.000320807
     21        1           0.000148371    0.000266431   -0.000058949
     22        1          -0.000245350   -0.000418046   -0.000089540
     23        1           0.000296345   -0.000061377   -0.000205279
     24        1          -0.000193955    0.000017133   -0.000066836
     25        1           0.000039684    0.000065136    0.000267937
     26        1          -0.000097081   -0.000181346    0.000232009
     27        1          -0.000075100    0.000981746   -0.000417665
 -------------------------------------------------------------------
 Cartesian Forces:  Max     0.001683355 RMS     0.000471891
 Leave Link  716 at Wed Jun 24 11:46:03 2026, MaxMem=  4026531840 cpu:               0.1 elap:               0.0
 (Enter /opt/packages/gaussian/g16RevC.01/g16/l103.exe)

 GradGradGradGradGradGradGradGradGradGradGradGradGradGradGradGradGradGrad
 Berny optimization.
 Using GEDIIS/GDIIS optimizer.
 FormGI is forming the generalized inverse of G from B-inverse, IUseBI=4.
 GSVD:  received Info=                   1 from GESDD.
 Internal  Forces:  Max     0.001630557 RMS     0.000353956
 Search for a local minimum.
 Step number   3 out of a maximum of  154
 All quantities printed in internal units (Hartrees-Bohrs-Radians)
 RMS Force = .35396D-03 SwitMx=.10000D-02 MixMth= 2
 Mixed Optimization -- En-DIIS/RFO-DIIS
 Swapping is turned off.
 Update second derivatives using D2CorX and points    1    2    3
 DE= -9.71D-05 DEPred=-1.93D-04 R= 5.04D-01
 TightC=F SS=  1.41D+00  RLast= 1.24D-01 DXNew= 5.0454D-01 3.7137D-01
 Trust test= 5.04D-01 RLast= 1.24D-01 DXMaxT set to 3.71D-01
 ITU=  1  0  0
     Eigenvalues ---    0.00398   0.00878   0.00953   0.01349   0.01515
     Eigenvalues ---    0.01531   0.01685   0.01820   0.01939   0.01964
     Eigenvalues ---    0.02006   0.02103   0.02183   0.02202   0.02884
     Eigenvalues ---    0.03267   0.03494   0.03932   0.04924   0.05241
     Eigenvalues ---    0.05776   0.06063   0.06897   0.07132   0.07845
     Eigenvalues ---    0.08388   0.09292   0.10223   0.10715   0.10817
     Eigenvalues ---    0.12764   0.15512   0.15999   0.16000   0.16000
     Eigenvalues ---    0.16000   0.16002   0.17166   0.20007   0.21724
     Eigenvalues ---    0.21907   0.21987   0.22949   0.23735   0.24813
     Eigenvalues ---    0.25008   0.25338   0.26920   0.27503   0.30047
     Eigenvalues ---    0.33216   0.33947   0.34003   0.34078   0.34164
     Eigenvalues ---    0.34260   0.34292   0.34483   0.34516   0.34892
     Eigenvalues ---    0.34971   0.35215   0.35245   0.35499   0.35592
     Eigenvalues ---    0.37786   0.39041   0.39511   0.40622   0.41637
     Eigenvalues ---    0.44749   0.46520   0.47928   0.50579   0.63626
 En-DIIS/RFO-DIIS/Sim-DIIS IScMMF=       -3 using points:     3    2    1
 RFO step:  Lambda=-9.70352346D-05.
 NNeg= 0 NGDIIS= 3 SimSw=  2.50D-03 Rises=F DC= -9.71D-05 SmlDif=  1.00D-05
 NRisDI= 0 DoIntr=F SqrtH=F CThrHd= 10.0 CDAdj=  3.0
 RMS Error=  0.3589657630D-02 NUsed= 3 OKEnD=T EnDIS=F
 InvSVX:  RCond= 7.75D-03 Info=           0 Equed=N FErr=  1.51D-15 BErr=  6.04D-17
 DidBck=T Rises=F RFO-DIIS coefs:    0.70113    0.25825    0.04062
 Iteration  1 RMS(Cart)=  0.00713931 RMS(Int)=  0.00002905
 Iteration  2 RMS(Cart)=  0.00003434 RMS(Int)=  0.00000708
 Iteration  3 RMS(Cart)=  0.00000000 RMS(Int)=  0.00000708
 ITry= 1 IFail=0 DXMaxC= 3.93D-02 DCOld= 1.00D+10 DXMaxT= 3.71D-01 DXLimC= 3.00D+00 Rises=F
 Variable       Old X    -DE/DX   Delta X   Delta X   Delta X     New X
                                 (Linear)    (Quad)   (Total)
    R1        2.70010   0.00015   0.00021  -0.00005   0.00015   2.70025
    R2        2.71060   0.00051   0.00013   0.00083   0.00096   2.71156
    R3        2.48050   0.00045   0.00024   0.00032   0.00056   2.48106
    R4        2.59301   0.00006   0.00020  -0.00006   0.00013   2.59314
    R5        2.04786  -0.00004  -0.00006  -0.00006  -0.00012   2.04774
    R6        2.70896   0.00014  -0.00042   0.00049   0.00008   2.70904
    R7        2.05126   0.00023   0.00021   0.00029   0.00050   2.05176
    R8        2.69206  -0.00041   0.00001  -0.00071  -0.00070   2.69137
    R9        2.78734   0.00107   0.00080   0.00155   0.00235   2.78969
   R10        2.59026   0.00062   0.00045   0.00051   0.00096   2.59123
   R11        2.04972   0.00065   0.00056   0.00085   0.00141   2.05114
   R12        2.04929   0.00044   0.00039   0.00057   0.00095   2.05024
   R13        2.74350   0.00150   0.00035   0.00243   0.00278   2.74628
   R14        2.06380   0.00011   0.00017   0.00012   0.00029   2.06409
   R15        2.06293   0.00035   0.00022   0.00053   0.00075   2.06368
   R16        2.05726  -0.00011   0.00013  -0.00030  -0.00017   2.05709
   R17        2.85326   0.00054  -0.00036   0.00157   0.00121   2.85447
   R18        2.63622   0.00163   0.00011   0.00185   0.00196   2.63817
   R19        2.92332  -0.00002   0.00045  -0.00064  -0.00018   2.92314
   R20        2.06948  -0.00007   0.00012  -0.00014  -0.00002   2.06945
   R21        2.08496   0.00035   0.00031   0.00039   0.00071   2.08567
   R22        2.78851   0.00046   0.00015   0.00081   0.00095   2.78946
   R23        1.91454   0.00102   0.00041   0.00113   0.00155   1.91608
   R24        2.91156   0.00051   0.00040   0.00105   0.00146   2.91301
   R25        2.07186   0.00014   0.00024   0.00010   0.00034   2.07220
   R26        2.06823   0.00013   0.00008   0.00020   0.00029   2.06852
   R27        2.07020   0.00022   0.00026   0.00024   0.00050   2.07070
   R28        2.06746   0.00018   0.00011   0.00029   0.00040   2.06786
    A1        2.10718  -0.00012   0.00039  -0.00045  -0.00006   2.10712
    A2        2.17273  -0.00011  -0.00085   0.00011  -0.00074   2.17199
    A3        2.00327   0.00023   0.00046   0.00035   0.00080   2.00408
    A4        2.06680  -0.00006   0.00008  -0.00030  -0.00022   2.06658
    A5        2.10596   0.00016  -0.00023   0.00078   0.00055   2.10651
    A6        2.11041  -0.00010   0.00015  -0.00046  -0.00031   2.11010
    A7        2.12678   0.00014  -0.00051   0.00069   0.00019   2.12696
    A8        2.08628  -0.00018  -0.00023  -0.00050  -0.00074   2.08554
    A9        2.07010   0.00004   0.00074  -0.00016   0.00058   2.07068
   A10        2.06957   0.00017   0.00064  -0.00010   0.00055   2.07012
   A11        2.10728   0.00002   0.00030  -0.00008   0.00022   2.10750
   A12        2.10628  -0.00019  -0.00097   0.00014  -0.00084   2.10544
   A13        2.10973  -0.00015  -0.00003  -0.00043  -0.00046   2.10927
   A14        2.07662  -0.00014  -0.00115   0.00013  -0.00103   2.07559
   A15        2.09680   0.00030   0.00119   0.00034   0.00153   2.09832
   A16        2.08626   0.00003  -0.00058   0.00062   0.00005   2.08631
   A17        2.06145   0.00003   0.00044  -0.00020   0.00024   2.06169
   A18        2.13547  -0.00006   0.00013  -0.00042  -0.00029   2.13518
   A19        2.12690   0.00096   0.00068   0.00196   0.00264   2.12954
   A20        1.90446   0.00130   0.00075   0.00529   0.00603   1.91049
   A21        1.90955  -0.00005   0.00123  -0.00103   0.00020   1.90975
   A22        1.82357   0.00047   0.00061   0.00125   0.00186   1.82542
   A23        1.94520  -0.00027   0.00072  -0.00105  -0.00033   1.94486
   A24        1.93854  -0.00080  -0.00138  -0.00249  -0.00388   1.93467
   A25        1.93827  -0.00055  -0.00186  -0.00165  -0.00351   1.93476
   A26        2.14178  -0.00037   0.00011   0.00043   0.00059   2.14237
   A27        2.06875   0.00057   0.00336  -0.00083   0.00256   2.07131
   A28        1.88245  -0.00009   0.00130   0.00031   0.00162   1.88407
   A29        1.76731   0.00015   0.00027   0.00031   0.00058   1.76789
   A30        1.97082  -0.00022  -0.00216  -0.00026  -0.00241   1.96840
   A31        1.95254   0.00016   0.00242   0.00016   0.00258   1.95512
   A32        1.96677  -0.00002  -0.00065   0.00052  -0.00013   1.96664
   A33        1.93583  -0.00017  -0.00003  -0.00114  -0.00116   1.93467
   A34        1.87155   0.00008   0.00018   0.00035   0.00053   1.87208
   A35        1.93785  -0.00037   0.00005  -0.00108  -0.00102   1.93683
   A36        2.07554   0.00032   0.00270  -0.00074   0.00197   2.07751
   A37        2.06725  -0.00004   0.00043  -0.00117  -0.00071   2.06654
   A38        1.81938   0.00019   0.00003   0.00085   0.00088   1.82026
   A39        1.90846  -0.00029  -0.00074  -0.00180  -0.00254   1.90591
   A40        1.93331   0.00005   0.00056   0.00045   0.00101   1.93432
   A41        1.95003   0.00001   0.00022   0.00007   0.00029   1.95032
   A42        1.96594  -0.00001  -0.00022   0.00050   0.00028   1.96622
   A43        1.88622   0.00003   0.00012  -0.00012   0.00000   1.88622
   A44        1.82033   0.00020   0.00071   0.00009   0.00081   1.82113
   A45        1.91227  -0.00011  -0.00038  -0.00139  -0.00178   1.91049
   A46        1.96524  -0.00018  -0.00044   0.00008  -0.00036   1.96488
   A47        1.91968  -0.00011  -0.00021   0.00015  -0.00006   1.91961
   A48        1.95627   0.00020   0.00069   0.00129   0.00197   1.95824
   A49        1.88940   0.00000  -0.00037  -0.00024  -0.00061   1.88879
    D1        0.00474  -0.00017  -0.00427  -0.00037  -0.00464   0.00010
    D2        3.13945  -0.00002  -0.00363   0.00313  -0.00049   3.13896
    D3       -3.13410  -0.00025  -0.00498  -0.00319  -0.00816   3.14093
    D4        0.00061  -0.00010  -0.00433   0.00032  -0.00401  -0.00340
    D5        0.00413  -0.00009  -0.00024  -0.00124  -0.00148   0.00265
    D6       -3.13808  -0.00009  -0.00063  -0.00241  -0.00304  -3.14112
    D7       -3.13996  -0.00001   0.00040   0.00131   0.00172  -3.13824
    D8        0.00101  -0.00002   0.00001   0.00014   0.00015   0.00117
    D9       -0.01886   0.00029   0.00251   0.00617   0.00868  -0.01018
   D10        3.12533   0.00022   0.00184   0.00350   0.00535   3.13068
   D11       -0.00988   0.00035   0.00686   0.00238   0.00924  -0.00064
   D12        3.13999  -0.00001   0.00091  -0.00175  -0.00085   3.13915
   D13        3.13862   0.00020   0.00621  -0.00114   0.00508  -3.13949
   D14        0.00531  -0.00016   0.00026  -0.00527  -0.00501   0.00030
   D15        0.00628  -0.00028  -0.00498  -0.00277  -0.00774  -0.00147
   D16       -3.12406  -0.00012  -0.00317   0.00093  -0.00223  -3.12629
   D17        3.13966   0.00008   0.00093   0.00133   0.00226  -3.14127
   D18        0.00933   0.00024   0.00274   0.00503   0.00777   0.01709
   D19        0.00295   0.00001   0.00025   0.00107   0.00132   0.00428
   D20        3.13539   0.00030   0.00357   0.00611   0.00968  -3.13811
   D21        3.13329  -0.00015  -0.00154  -0.00263  -0.00417   3.12912
   D22       -0.01745   0.00013   0.00178   0.00241   0.00418  -0.01327
   D23        1.12642  -0.00047  -0.00606  -0.00204  -0.00810   1.11832
   D24       -1.31393  -0.00064  -0.01455  -0.00199  -0.01653  -1.33047
   D25       -2.00367  -0.00030  -0.00423   0.00174  -0.00249  -2.00616
   D26        1.83916  -0.00047  -0.01272   0.00179  -0.01092   1.82823
   D27       -0.00789   0.00016   0.00220   0.00085   0.00305  -0.00484
   D28        3.13435   0.00017   0.00261   0.00207   0.00468   3.13903
   D29       -3.14022  -0.00012  -0.00116  -0.00424  -0.00540   3.13757
   D30        0.00202  -0.00012  -0.00075  -0.00302  -0.00377  -0.00175
   D31        1.06432   0.00024   0.00828   0.00019   0.00846   1.07278
   D32       -1.06805  -0.00022   0.00612  -0.00122   0.00490  -1.06315
   D33        3.13864   0.00019   0.00736   0.00053   0.00789  -3.13665
   D34       -3.06487  -0.00031  -0.00477   0.00093  -0.00386  -3.06872
   D35        1.11099  -0.00027  -0.00313   0.00024  -0.00289   1.10810
   D36       -1.00235  -0.00035  -0.00357  -0.00015  -0.00374  -1.00609
   D37       -0.56116   0.00009   0.00371   0.00048   0.00419  -0.55698
   D38       -2.66849   0.00012   0.00535  -0.00021   0.00515  -2.66334
   D39        1.50135   0.00005   0.00491  -0.00061   0.00431   1.50566
   D40        2.88482  -0.00006   0.00367  -0.00041   0.00324   2.88806
   D41       -0.90789  -0.00022   0.00826  -0.00503   0.00321  -0.90467
   D42        0.35008  -0.00005  -0.00311  -0.00049  -0.00360   0.34649
   D43        2.84057  -0.00022   0.00148  -0.00511  -0.00363   2.83694
   D44        0.55445  -0.00007  -0.00293  -0.00072  -0.00365   0.55080
   D45       -1.49993   0.00001  -0.00289  -0.00027  -0.00317  -1.50310
   D46        2.67958   0.00020  -0.00188   0.00095  -0.00093   2.67865
   D47        2.66464  -0.00024  -0.00564  -0.00058  -0.00623   2.65841
   D48        0.61025  -0.00016  -0.00560  -0.00014  -0.00574   0.60451
   D49       -1.49343   0.00003  -0.00459   0.00109  -0.00350  -1.49693
   D50       -1.52011  -0.00027  -0.00587  -0.00058  -0.00645  -1.52656
   D51        2.70869  -0.00019  -0.00583  -0.00013  -0.00596   2.70273
   D52        0.60501   0.00000  -0.00482   0.00109  -0.00373   0.60129
   D53        0.02131  -0.00011   0.00129  -0.00010   0.00118   0.02249
   D54       -2.06610  -0.00009   0.00137   0.00024   0.00161  -2.06449
   D55        2.14016   0.00002   0.00135   0.00124   0.00258   2.14274
   D56       -2.47262  -0.00010  -0.00421   0.00431   0.00010  -2.47252
   D57        1.72316  -0.00008  -0.00412   0.00465   0.00053   1.72369
   D58       -0.35377   0.00003  -0.00415   0.00565   0.00150  -0.35226
   D59       -0.36856   0.00012   0.00112   0.00037   0.00148  -0.36708
   D60        1.68071   0.00004   0.00096  -0.00114  -0.00018   1.68053
   D61       -2.49961   0.00010   0.00081  -0.00050   0.00031  -2.49930
   D62        1.69049  -0.00010   0.00037  -0.00124  -0.00087   1.68962
   D63       -2.54342  -0.00018   0.00021  -0.00275  -0.00254  -2.54595
   D64       -0.44055  -0.00012   0.00006  -0.00211  -0.00205  -0.44260
   D65       -2.46560  -0.00006   0.00053  -0.00098  -0.00045  -2.46605
   D66       -0.41632  -0.00013   0.00038  -0.00249  -0.00211  -0.41844
   D67        1.68654  -0.00007   0.00022  -0.00185  -0.00163   1.68492
         Item               Value     Threshold  Converged?
 Maximum Force            0.001631     0.000450     NO 
 RMS     Force            0.000354     0.000300     NO 
 Maximum Displacement     0.039291     0.001800     NO 
 RMS     Displacement     0.007144     0.001200     NO 
 Predicted change in Energy=-4.859906D-05
 Lowest energy point so far.  Saving SCF results.
 GradGradGradGradGradGradGradGradGradGradGradGradGradGradGradGradGradGrad

 Leave Link  103 at Wed Jun 24 11:46:03 2026, MaxMem=  4026531840 cpu:               0.2 elap:               0.0
 (Enter /opt/packages/gaussian/g16RevC.01/g16/l202.exe)
                          Input orientation:                          
 ---------------------------------------------------------------------
 Center     Atomic      Atomic             Coordinates (Angstroms)
 Number     Number       Type             X           Y           Z
 ---------------------------------------------------------------------
      1          6           0        2.488182    0.185961    0.216870
      2          6           0        1.796434   -0.811636   -0.536837
      3          6           0        0.424266   -0.800062   -0.530394
      4          6           0       -0.320883    0.177761    0.206975
      5          6           0        0.392778    1.159538    0.952075
      6          6           0        1.763870    1.175323    0.962158
      7          1           0        2.331665    1.913194    1.519160
      8          1           0        2.343998   -1.557046   -1.101430
      9          1           0       -0.119269   -1.548576   -1.098851
     10          1           0       -0.166336    1.900336    1.514867
     11          8           0        3.795075    0.284791    0.294509
     12          6           0        4.679848   -0.644322   -0.388073
     13          1           0        4.513774   -0.580022   -1.465728
     14          1           0        4.501129   -1.655515   -0.016411
     15          1           0        5.682474   -0.308119   -0.129854
     16          6           0       -1.796947    0.155647    0.212124
     17          6           0       -2.595050   -0.983729    0.800795
     18          7           0       -2.477867    0.621032   -0.914266
     19          6           0       -3.895930    0.212512   -0.880615
     20          6           0       -4.039131   -0.556100    0.447901
     21          1           0       -2.439903   -1.097579    1.878862
     22          1           0       -2.345502   -1.950324    0.330108
     23          1           0       -4.107368   -0.427870   -1.745285
     24          1           0       -4.553896    1.085568   -0.935679
     25          1           0       -4.422989    0.111579    1.227367
     26          1           0       -4.720322   -1.408092    0.361279
     27          1           0       -2.248350    1.536593   -1.284617
 ---------------------------------------------------------------------
                    Distance matrix (angstroms):
                    1          2          3          4          5
     1  C    0.000000
     2  C    1.428912   0.000000
     3  C    2.406324   1.372232   0.000000
     4  C    2.809094   2.452589   1.433562   0.000000
     5  C    2.424684   2.841238   2.457384   1.424209   0.000000
     6  C    1.434894   2.489187   2.815031   2.431384   1.371219
     7  H    2.168822   3.455184   3.898795   3.430681   2.156123
     8  H    2.190154   1.083618   2.141139   3.438469   3.924789
     9  H    3.396843   2.128112   1.085747   2.173952   3.435458
    10  H    3.416189   3.926417   3.438613   2.168348   1.085415
    11  O    1.312922   2.426490   3.635893   4.118280   3.573961
    12  C    2.420480   2.892092   4.260808   5.102667   4.840338
    13  H    2.742424   2.881045   4.200874   5.171661   5.084727
    14  H    2.738140   2.880686   4.197236   5.163584   5.073562
    15  H    3.250821   3.939603   5.296338   6.032399   5.595129
    16  C    4.285239   3.795915   2.529527   1.476239   2.519965
    17  C    5.248656   4.593910   3.304855   2.621739   3.680163
    18  N    5.111789   4.523786   3.254111   2.471082   3.466095
    19  C    6.477813   5.793969   4.451074   3.736980   4.759058
    20  C    6.573420   5.923583   4.575860   3.797627   4.779061
    21  H    5.356838   4.885071   3.754530   2.985288   3.738662
    22  H    5.285928   4.382219   3.120126   2.939896   4.190020
    23  H    6.908554   6.038419   4.706400   4.302973   5.481508
    24  H    7.192254   6.639665   5.338722   4.477518   5.295155
    25  H    6.985050   6.530388   5.236096   4.227630   4.936155
    26  H    7.384063   6.605337   5.256574   4.679081   5.752005
    27  H    5.149117   4.736416   3.629282   2.790412   3.481453
                    6          7          8          9         10
     6  C    0.000000
     7  H    1.084941   0.000000
     8  H    3.472864   4.348587   0.000000
     9  H    3.900461   4.984467   2.463283   0.000000
    10  H    2.134672   2.498038   5.010018   4.327671   0.000000
    11  O    2.316160   2.508592   2.728851   4.541451   4.448825
    12  C    3.692852   3.961361   2.607324   4.935018   5.794995
    13  H    4.066674   4.459516   2.407326   4.747398   6.077792
    14  H    4.057565   4.449745   2.416645   4.746703   6.064167
    15  H    4.329960   4.345273   3.694483   6.011482   6.464593
    16  C    3.779115   4.673623   4.669708   2.727203   2.720289
    17  C    4.867004   5.760272   5.323659   3.171308   3.837497
    18  N    4.671245   5.542819   5.294283   3.210023   3.588938
    19  C    6.029606   6.887248   6.489746   4.172796   4.743096
    20  C    6.077591   6.916072   6.644296   4.329292   4.708613
    21  H    4.866019   5.653495   5.654994   3.802041   3.780092
    22  H    5.201548   6.181951   4.918880   2.675712   4.580394
    23  H    6.661224   7.589356   6.581012   4.192707   5.619686
    24  H    6.597272   7.356776   7.388628   5.160548   5.091140
    25  H    6.283241   6.996879   7.348450   5.166179   4.626165
    26  H    7.005700   7.880492   7.215700   4.829223   5.745890
    27  H    4.612637   5.383264   5.540201   3.753101   3.507734
                   11         12         13         14         15
    11  O    0.000000
    12  C    1.453269   0.000000
    13  H    2.088747   1.092271   0.000000
    14  H    2.088054   1.092055   1.804817   0.000000
    15  H    2.023339   1.088563   1.795648   1.795528   0.000000
    16  C    5.594120   6.553553   6.571271   6.557309   7.501585
    17  C    6.534460   7.379210   7.472315   7.174600   8.357031
    18  N    6.397186   7.287721   7.115454   7.395619   8.250442
    19  C    7.780598   8.632539   8.467207   8.645633   9.621878
    20  C    7.880699   8.759408   8.764402   8.623245   9.741915
    21  H    6.579975   7.485672   7.733549   7.216736   8.404237
    22  H    6.534806   7.181710   7.221664   6.861731   8.207120
    23  H    8.192512   8.894045   8.627016   8.865796   9.922952
    24  H    8.477023   9.410335   9.234597   9.505371  10.362191
    25  H    8.272654   9.275919   9.359317   9.182020  10.204832
    26  H    8.682298   9.460870   9.449454   9.232498  10.472312
    27  H    6.370528   7.318477   7.087960   7.573200   8.224015
                   16         17         18         19         20
    16  C    0.000000
    17  C    1.510523   0.000000
    18  N    1.396061   2.351685   0.000000
    19  C    2.367074   2.439348   1.476118   0.000000
    20  C    2.364226   1.546859   2.382999   1.541501   0.000000
    21  H    2.182197   1.095108   3.279730   3.383943   2.213229
    22  H    2.179437   1.103688   2.859695   2.923617   2.196843
    23  H    3.083827   3.013073   2.108569   1.096562   2.197991
    24  H    3.127774   3.336826   2.127475   1.094613   2.207793
    25  H    2.815805   2.173252   2.937624   2.175216   1.095768
    26  H    3.318681   2.211343   3.282219   2.201881   1.094265
    27  H    2.085907   3.289554   1.013948   2.151960   3.253902
                   21         22         23         24         25
    21  H    0.000000
    22  H    1.770516   0.000000
    23  H    4.045169   3.119182   0.000000
    24  H    4.142069   3.961800   1.773512   0.000000
    25  H    2.412289   3.061449   3.037644   2.375828   0.000000
    26  H    2.756771   2.436135   2.402948   2.815695   1.774236
    27  H    4.121062   3.843874   2.743589   2.375021   3.615216
                   26         27
    26  H    0.000000
    27  H    4.182199   0.000000
 Stoichiometry    C11H14NO(1+)
 Framework group  C1[X(C11H14NO)]
 Deg. of freedom    75
 Full point group                 C1      NOp   1
 RotChk:  IX=0 Diff= 1.79D-02
 Largest Abelian subgroup         C1      NOp   1
 Largest concise Abelian subgroup C1      NOp   1
                         Standard orientation:                         
 ---------------------------------------------------------------------
 Center     Atomic      Atomic             Coordinates (Angstroms)
 Number     Number       Type             X           Y           Z
 ---------------------------------------------------------------------
      1          6           0        2.485180    0.232234    0.008334
      2          6           0        1.774753   -1.005822   -0.057243
      3          6           0        0.402980   -0.972786   -0.044257
      4          6           0       -0.323660    0.260526    0.033436
      5          6           0        0.408435    1.480330    0.100417
      6          6           0        1.779578    1.479236    0.085989
      7          1           0        2.361173    2.393886    0.133521
      8          1           0        2.308169   -1.947078   -0.118325
      9          1           0       -0.154615   -1.902997   -0.095651
     10          1           0       -0.136589    2.416919    0.162682
     11          8           0        3.793778    0.338634    0.004615
     12          6           0        4.661235   -0.825769   -0.056004
     13          1           0        4.477763   -1.368261   -0.986110
     14          1           0        4.482292   -1.457691    0.816484
     15          1           0        5.670106   -0.417314   -0.038287
     16          6           0       -1.799547    0.266332    0.065120
     17          6           0       -2.594998   -0.342737    1.195594
     18          7           0       -2.496051    0.037749   -1.122996
     19          6           0       -3.915922   -0.262778   -0.853598
     20          6           0       -4.041985   -0.162205    0.679444
     21          1           0       -2.422758    0.158938    2.153674
     22          1           0       -2.359398   -1.411474    1.338494
     23          1           0       -4.145689   -1.272342   -1.214759
     24          1           0       -4.569167    0.442159   -1.377537
     25          1           0       -4.408657    0.831354    0.960694
     26          1           0       -4.729896   -0.908939    1.087587
     27          1           0       -2.266901    0.590142   -1.941802
 ---------------------------------------------------------------------
 Rotational constants (GHZ):           2.7042631           0.3412494           0.3294741
 Leave Link  202 at Wed Jun 24 11:46:03 2026, MaxMem=  4026531840 cpu:               0.0 elap:               0.0
 (Enter /opt/packages/gaussian/g16RevC.01/g16/l301.exe)
 Standard basis: 6-31+G(d) (6D, 7F)
 Ernie: Thresh=  0.10000D-02 Tol=  0.10000D-05 Strict=F.
 There are   275 symmetry adapted cartesian basis functions of A   symmetry.
 There are   275 symmetry adapted basis functions of A   symmetry.
   275 basis functions,   472 primitive gaussians,   275 cartesian basis functions
    47 alpha electrons       47 beta electrons
       nuclear repulsion energy       751.1934998216 Hartrees.
 IExCor=  402 DFT=T Ex+Corr=B3LYP ExCW=0 ScaHFX=  0.200000
 ScaDFX=  0.800000  0.720000  1.000000  0.810000 ScalE2=  1.000000  1.000000
 IRadAn=      5 IRanWt=     -1 IRanGd=            0 ICorTp=0 IEmpDi=  4
 NAtoms=   27 NActive=   27 NUniq=   27 SFac= 1.00D+00 NAtFMM=   60 NAOKFM=F Big=F
 Integral buffers will be    131072 words long.
 Regular integral format.
 Two-electron integral symmetry is turned on.
 ------------------------------------------------------------------------------
 Polarizable Continuum Model (PCM)
 =================================
 Model                : PCM.
 Atomic radii         : SMD-Coulomb.
 Polarization charges : Total charges.
 Charge compensation  : None.
 Solution method      : On-the-fly selection.
 Cavity type          : VdW (van der Waals Surface) (Alpha=1.000).
 Cavity algorithm     : GePol (No added spheres)
                        Default sphere list used, NSphG=   27.
                        Lebedev-Laikov grids with approx.  5.0 points / Ang**2.
                        Smoothing algorithm: York/Karplus (Gamma=1.0000).
                        Polarization charges: spherical gaussians, with
                                              point-specific exponents (IZeta= 3).
                        Self-potential: point-specific (ISelfS= 7).
                        Self-field    : sphere-specific E.n sum rule (ISelfD= 2).
 1st derivatives      : Analytical E(r).r(x)/FMM algorithm (CHGder, D1EAlg=3).
                        Cavity 1st derivative terms included.
 Solvent              : Methanol, Eps=  32.613000 Eps(inf)=   1.765709
 ------------------------------------------------------------------------------
 GePol: Number of generator spheres                  =      27
 GePol: Total number of spheres                      =      27
 GePol: Number of exposed spheres                    =      27 (100.00%)
 GePol: Number of points                             =    2013
 GePol: Average weight of points                     =       0.11
 GePol: Minimum weight of points                     =   0.29D-08
 GePol: Maximum weight of points                     =    0.21991
 GePol: Number of points with low weight             =     103
 GePol: Fraction of low-weight points (<1% of avg)   =       5.12%
 GePol: Cavity surface area                          =    220.795 Ang**2
 GePol: Cavity volume                                =    193.943 Ang**3
 ------------------------------------------------------------------------------
 Atomic radii for non-electrostatic terms: SMD-CDS.
 ------------------------------------------------------------------------------
 PCM non-electrostatic energy =        -0.0003291179 Hartrees.
 Nuclear repulsion after PCM non-electrostatic terms =      751.1931707037 Hartrees.
 Leave Link  301 at Wed Jun 24 11:46:03 2026, MaxMem=  4026531840 cpu:               0.3 elap:               0.1
 (Enter /opt/packages/gaussian/g16RevC.01/g16/l302.exe)
 NPDir=0 NMtPBC=     1 NCelOv=     1 NCel=       1 NClECP=     1 NCelD=      1
         NCelK=      1 NCelE2=     1 NClLst=     1 CellRange=     0.0.
 One-electron integrals computed using PRISM.
 One-electron integral symmetry used in STVInt
 NBasis=   275 RedAO= T EigKep=  1.39D-06  NBF=   275
 NBsUse=   275 1.00D-06 EigRej= -1.00D+00 NBFU=   275
 Precomputing XC quadrature grid using
 IXCGrd= 4 IRadAn=           5 IRanWt=          -1 IRanGd=           0 AccXCQ= 0.00D+00.
 Generated NRdTot=       0 NPtTot=           0 NUsed=           0 NTot=          32
 NSgBfM=   274   274   274   274   274 MxSgAt=    27 MxSgA2=    27.
 Leave Link  302 at Wed Jun 24 11:46:03 2026, MaxMem=  4026531840 cpu:               1.4 elap:               0.2
 (Enter /opt/packages/gaussian/g16RevC.01/g16/l303.exe)
 DipDrv:  MaxL=1.
 Leave Link  303 at Wed Jun 24 11:46:03 2026, MaxMem=  4026531840 cpu:               0.1 elap:               0.0
 (Enter /opt/packages/gaussian/g16RevC.01/g16/l308.exe)
 Leave Link  308 at Wed Jun 24 11:46:04 2026, MaxMem=  4026531840 cpu:               0.1 elap:               0.0
 (Enter /opt/packages/gaussian/g16RevC.01/g16/l401.exe)
 Initial guess from the checkpoint file:  "iminium_singlet.chk"
 B after Tr=     0.000000    0.000000    0.000000
         Rot=    0.999982   -0.005958   -0.000109   -0.000163 Ang=  -0.68 deg.
 Guess basis will be translated and rotated to current coordinates.
 JPrj=2 DoOrth=T DoCkMO=T.
 Generating alternative initial guess.
 ExpMin= 4.38D-02 ExpMax= 5.48D+03 ExpMxC= 8.25D+02 IAcc=3 IRadAn=         5 AccDes= 0.00D+00
 Harris functional with IExCor=  402 and IRadAn=       5 diagonalized for initial guess.
 HarFok:  IExCor=  402 AccDes= 0.00D+00 IRadAn=         5 IDoV= 1 UseB2=F ITyADJ=14
 ICtDFT=  3500011 ScaDFX=  1.000000  1.000000  1.000000  1.000000
 FoFCou: FMM=F IPFlag=           0 FMFlag=      100000 FMFlg1=           0
         NFxFlg=           0 DoJE=T BraDBF=F KetDBF=T FulRan=T
         wScrn=  0.000000 ICntrl=       500 IOpCl=  0 I1Cent=   200000004 NGrid=           0
         NMat0=    1 NMatS0=      1 NMatT0=    0 NMatD0=    1 NMtDS0=    0 NMtDT0=    0
 Petite list used in FoFCou.
 Harris En= -557.326766850106    
 Leave Link  401 at Wed Jun 24 11:46:04 2026, MaxMem=  4026531840 cpu:               6.7 elap:               0.9
 (Enter /opt/packages/gaussian/g16RevC.01/g16/l502.exe)
 Integral symmetry usage will be decided dynamically.
 Closed shell SCF:
 Using DIIS extrapolation, IDIIS=  1040.
 NGot=  4026531840 LenX=  4026374748 LenY=  4026298682
 Requested convergence on RMS density matrix=1.00D-08 within 128 cycles.
 Requested convergence on MAX density matrix=1.00D-06.
 Requested convergence on             energy=1.00D-06.
 No special actions if energy rises.
 Fock matrices will be formed incrementally for  20 cycles.

 Cycle   1  Pass 1  IDiag  1:
 FoFJK:  IHMeth= 1 ICntrl=       0 DoSepK=F KAlg= 0 I1Cent=           0 FoldK=F
 IRaf= 880000000 NMat=       1 IRICut=       1 DoRegI=T DoRafI=F ISym2E= 0 IDoP0=0 IntGTp=1.
 FoFCou: FMM=F IPFlag=           0 FMFlag=      100000 FMFlg1=           0
         NFxFlg=           0 DoJE=F BraDBF=F KetDBF=F FulRan=T
         wScrn=  0.000000 ICntrl=         0 IOpCl=  0 I1Cent=           0 NGrid=           0
         NMat0=    1 NMatS0=      1 NMatT0=    0 NMatD0=    1 NMtDS0=    0 NMtDT0=    0
 Symmetry not used in FoFCou.
 Inv3:  Mode=1 IEnd=    12156507.
 Iteration    1 A*A^-1 deviation from unit magnitude is 3.11D-15 for   1117.
 Iteration    1 A*A^-1 deviation from orthogonality  is 2.42D-15 for   1509   1104.
 Iteration    1 A^-1*A deviation from unit magnitude is 3.22D-15 for    374.
 Iteration    1 A^-1*A deviation from orthogonality  is 7.26D-15 for    981    883.
 E= -557.408703362373    
 DIIS: error= 5.92D-04 at cycle   1 NSaved=   1.
 NSaved= 1 IEnMin= 1 EnMin= -557.408703362373     IErMin= 1 ErrMin= 5.92D-04
 ErrMax= 5.92D-04  0.00D+00 EMaxC= 1.00D-01 BMatC= 1.24D-04 BMatP= 1.24D-04
 IDIUse=3 WtCom= 9.94D-01 WtEn= 5.92D-03
 Coeff-Com:  0.100D+01
 Coeff-En:   0.100D+01
 Coeff:      0.100D+01
 Gap=     0.410 Goal=   None    Shift=    0.000
 RMSDP=1.16D-03 MaxDP=8.52D-02              OVMax= 4.88D-03

 Cycle   2  Pass 1  IDiag  1:
 RMSU=  1.05D-03    CP:  9.94D-01
 E= -557.408921761080     Delta-E=       -0.000218398707 Rises=F Damp=F
 DIIS: error= 5.25D-05 at cycle   2 NSaved=   2.
 NSaved= 2 IEnMin= 2 EnMin= -557.408921761080     IErMin= 2 ErrMin= 5.25D-05
 ErrMax= 5.25D-05  0.00D+00 EMaxC= 1.00D-01 BMatC= 2.22D-06 BMatP= 1.24D-04
 IDIUse=1 WtCom= 1.00D+00 WtEn= 0.00D+00
 Coeff-Com: -0.315D-01 0.103D+01
 Coeff:     -0.315D-01 0.103D+01
 Gap=     0.109 Goal=   None    Shift=    0.000
 RMSDP=1.24D-04 MaxDP=6.96D-03 DE=-2.18D-04 OVMax= 1.81D-03

 Cycle   3  Pass 1  IDiag  1:
 RMSU=  1.01D-04    CP:  9.93D-01  1.05D+00
 E= -557.408921210407     Delta-E=        0.000000550673 Rises=F Damp=F
 DIIS: error= 8.38D-05 at cycle   3 NSaved=   3.
 NSaved= 3 IEnMin= 2 EnMin= -557.408921761080     IErMin= 2 ErrMin= 5.25D-05
 ErrMax= 8.38D-05  0.00D+00 EMaxC= 1.00D-01 BMatC= 5.11D-06 BMatP= 2.22D-06
 IDIUse=1 WtCom= 1.00D+00 WtEn= 0.00D+00
 Coeff-Com: -0.332D-01 0.650D+00 0.384D+00
 Coeff:     -0.332D-01 0.650D+00 0.384D+00
 Gap=     0.110 Goal=   None    Shift=    0.000
 RMSDP=6.71D-05 MaxDP=4.13D-03 DE= 5.51D-07 OVMax= 8.38D-04

 Cycle   4  Pass 1  IDiag  1:
 RMSU=  3.73D-05    CP:  9.93D-01  1.03D+00  6.47D-01
 E= -557.408925790680     Delta-E=       -0.000004580273 Rises=F Damp=F
 DIIS: error= 1.79D-05 at cycle   4 NSaved=   4.
 NSaved= 4 IEnMin= 4 EnMin= -557.408925790680     IErMin= 4 ErrMin= 1.79D-05
 ErrMax= 1.79D-05  0.00D+00 EMaxC= 1.00D-01 BMatC= 2.30D-07 BMatP= 2.22D-06
 IDIUse=1 WtCom= 1.00D+00 WtEn= 0.00D+00
 Coeff-Com: -0.119D-01 0.175D+00 0.198D+00 0.638D+00
 Coeff:     -0.119D-01 0.175D+00 0.198D+00 0.638D+00
 Gap=     0.109 Goal=   None    Shift=    0.000
 RMSDP=1.80D-05 MaxDP=1.14D-03 DE=-4.58D-06 OVMax= 2.68D-04

 Cycle   5  Pass 1  IDiag  1:
 RMSU=  1.25D-05    CP:  9.93D-01  1.04D+00  6.98D-01  9.74D-01
 E= -557.408926021423     Delta-E=       -0.000000230742 Rises=F Damp=F
 DIIS: error= 5.52D-06 at cycle   5 NSaved=   5.
 NSaved= 5 IEnMin= 5 EnMin= -557.408926021423     IErMin= 5 ErrMin= 5.52D-06
 ErrMax= 5.52D-06  0.00D+00 EMaxC= 1.00D-01 BMatC= 3.32D-08 BMatP= 2.30D-07
 IDIUse=1 WtCom= 1.00D+00 WtEn= 0.00D+00
 Coeff-Com: -0.240D-02 0.161D-01 0.605D-01 0.342D+00 0.584D+00
 Coeff:     -0.240D-02 0.161D-01 0.605D-01 0.342D+00 0.584D+00
 Gap=     0.109 Goal=   None    Shift=    0.000
 RMSDP=8.05D-06 MaxDP=4.70D-04 DE=-2.31D-07 OVMax= 1.64D-04

 Cycle   6  Pass 1  IDiag  1:
 RMSU=  6.21D-06    CP:  9.93D-01  1.03D+00  7.34D-01  1.06D+00  1.09D+00
 E= -557.408926060464     Delta-E=       -0.000000039041 Rises=F Damp=F
 DIIS: error= 2.67D-06 at cycle   6 NSaved=   6.
 NSaved= 6 IEnMin= 6 EnMin= -557.408926060464     IErMin= 6 ErrMin= 2.67D-06
 ErrMax= 2.67D-06  0.00D+00 EMaxC= 1.00D-01 BMatC= 4.50D-09 BMatP= 3.32D-08
 IDIUse=1 WtCom= 1.00D+00 WtEn= 0.00D+00
 Coeff-Com:  0.671D-03-0.209D-01-0.190D-02 0.714D-01 0.305D+00 0.645D+00
 Coeff:      0.671D-03-0.209D-01-0.190D-02 0.714D-01 0.305D+00 0.645D+00
 Gap=     0.109 Goal=   None    Shift=    0.000
 RMSDP=3.88D-06 MaxDP=2.73D-04 DE=-3.90D-08 OVMax= 9.21D-05

 Cycle   7  Pass 1  IDiag  1:
 RMSU=  2.82D-06    CP:  9.93D-01  1.04D+00  7.56D-01  1.10D+00  1.12D+00
                    CP:  1.06D+00
 E= -557.408926067207     Delta-E=       -0.000000006744 Rises=F Damp=F
 DIIS: error= 9.40D-07 at cycle   7 NSaved=   7.
 NSaved= 7 IEnMin= 7 EnMin= -557.408926067207     IErMin= 7 ErrMin= 9.40D-07
 ErrMax= 9.40D-07  0.00D+00 EMaxC= 1.00D-01 BMatC= 6.49D-10 BMatP= 4.50D-09
 IDIUse=1 WtCom= 1.00D+00 WtEn= 0.00D+00
 Coeff-Com:  0.608D-03-0.125D-01-0.808D-02-0.481D-02 0.898D-01 0.342D+00
 Coeff-Com:  0.593D+00
 Coeff:      0.608D-03-0.125D-01-0.808D-02-0.481D-02 0.898D-01 0.342D+00
 Coeff:      0.593D+00
 Gap=     0.109 Goal=   None    Shift=    0.000
 RMSDP=1.38D-06 MaxDP=8.05D-05 DE=-6.74D-09 OVMax= 3.64D-05

 Cycle   8  Pass 1  IDiag  1:
 RMSU=  6.19D-07    CP:  9.93D-01  1.04D+00  7.64D-01  1.11D+00  1.15D+00
                    CP:  1.16D+00  1.09D+00
 E= -557.408926068273     Delta-E=       -0.000000001066 Rises=F Damp=F
 DIIS: error= 2.60D-07 at cycle   8 NSaved=   8.
 NSaved= 8 IEnMin= 8 EnMin= -557.408926068273     IErMin= 8 ErrMin= 2.60D-07
 ErrMax= 2.60D-07  0.00D+00 EMaxC= 1.00D-01 BMatC= 4.72D-11 BMatP= 6.49D-10
 IDIUse=1 WtCom= 1.00D+00 WtEn= 0.00D+00
 Coeff-Com:  0.913D-04-0.582D-03-0.260D-02-0.162D-01-0.255D-01-0.129D-03
 Coeff-Com:  0.204D+00 0.841D+00
 Coeff:      0.913D-04-0.582D-03-0.260D-02-0.162D-01-0.255D-01-0.129D-03
 Coeff:      0.204D+00 0.841D+00
 Gap=     0.109 Goal=   None    Shift=    0.000
 RMSDP=7.65D-07 MaxDP=5.95D-05 DE=-1.07D-09 OVMax= 2.14D-05

 Cycle   9  Pass 1  IDiag  1:
 RMSU=  2.10D-07    CP:  9.93D-01  1.04D+00  7.67D-01  1.12D+00  1.18D+00
                    CP:  1.22D+00  1.18D+00  9.90D-01
 E= -557.408926068419     Delta-E=       -0.000000000145 Rises=F Damp=F
 DIIS: error= 1.59D-07 at cycle   9 NSaved=   9.
 NSaved= 9 IEnMin= 9 EnMin= -557.408926068419     IErMin= 9 ErrMin= 1.59D-07
 ErrMax= 1.59D-07  0.00D+00 EMaxC= 1.00D-01 BMatC= 1.39D-11 BMatP= 4.72D-11
 IDIUse=1 WtCom= 1.00D+00 WtEn= 0.00D+00
 Coeff-Com: -0.612D-05 0.914D-03-0.672D-03-0.897D-02-0.234D-01-0.329D-01
 Coeff-Com:  0.601D-01 0.484D+00 0.521D+00
 Coeff:     -0.612D-05 0.914D-03-0.672D-03-0.897D-02-0.234D-01-0.329D-01
 Coeff:      0.601D-01 0.484D+00 0.521D+00
 Gap=     0.109 Goal=   None    Shift=    0.000
 RMSDP=1.82D-07 MaxDP=1.02D-05 DE=-1.45D-10 OVMax= 3.99D-06

 Cycle  10  Pass 1  IDiag  1:
 RMSU=  6.30D-08    CP:  9.93D-01  1.04D+00  7.68D-01  1.12D+00  1.18D+00
                    CP:  1.23D+00  1.20D+00  1.05D+00  7.78D-01
 E= -557.408926068436     Delta-E=       -0.000000000018 Rises=F Damp=F
 DIIS: error= 3.92D-08 at cycle  10 NSaved=  10.
 NSaved=10 IEnMin=10 EnMin= -557.408926068436     IErMin=10 ErrMin= 3.92D-08
 ErrMax= 3.92D-08  0.00D+00 EMaxC= 1.00D-01 BMatC= 8.25D-13 BMatP= 1.39D-11
 IDIUse=1 WtCom= 1.00D+00 WtEn= 0.00D+00
 Coeff-Com: -0.133D-04 0.506D-03 0.458D-06-0.230D-02-0.785D-02-0.149D-01
 Coeff-Com:  0.575D-02 0.133D+00 0.244D+00 0.642D+00
 Coeff:     -0.133D-04 0.506D-03 0.458D-06-0.230D-02-0.785D-02-0.149D-01
 Coeff:      0.575D-02 0.133D+00 0.244D+00 0.642D+00
 Gap=     0.109 Goal=   None    Shift=    0.000
 RMSDP=3.99D-08 MaxDP=2.75D-06 DE=-1.76D-11 OVMax= 9.15D-07

 Cycle  11  Pass 1  IDiag  1:
 RMSU=  1.87D-08    CP:  9.93D-01  1.04D+00  7.68D-01  1.12D+00  1.18D+00
                    CP:  1.23D+00  1.21D+00  1.06D+00  8.13D-01  9.57D-01
 E= -557.408926068432     Delta-E=        0.000000000004 Rises=F Damp=F
 DIIS: error= 8.39D-09 at cycle  11 NSaved=  11.
 NSaved=11 IEnMin=10 EnMin= -557.408926068436     IErMin=11 ErrMin= 8.39D-09
 ErrMax= 8.39D-09  0.00D+00 EMaxC= 1.00D-01 BMatC= 6.62D-14 BMatP= 8.25D-13
 IDIUse=1 WtCom= 1.00D+00 WtEn= 0.00D+00
 Coeff-Com: -0.536D-05 0.146D-03 0.537D-04-0.273D-03-0.156D-02-0.402D-02
 Coeff-Com: -0.252D-02 0.181D-01 0.647D-01 0.286D+00 0.639D+00
 Coeff:     -0.536D-05 0.146D-03 0.537D-04-0.273D-03-0.156D-02-0.402D-02
 Coeff:     -0.252D-02 0.181D-01 0.647D-01 0.286D+00 0.639D+00
 Gap=     0.109 Goal=   None    Shift=    0.000
 RMSDP=1.59D-08 MaxDP=1.64D-06 DE= 4.32D-12 OVMax= 2.22D-07

 Cycle  12  Pass 1  IDiag  1:
 RMSU=  7.89D-09    CP:  9.93D-01  1.04D+00  7.68D-01  1.12D+00  1.18D+00
                    CP:  1.23D+00  1.21D+00  1.06D+00  8.22D-01  9.59D-01
                    CP:  8.88D-01
 E= -557.408926068434     Delta-E=       -0.000000000002 Rises=F Damp=F
 DIIS: error= 2.15D-09 at cycle  12 NSaved=  12.
 NSaved=12 IEnMin=10 EnMin= -557.408926068436     IErMin=12 ErrMin= 2.15D-09
 ErrMax= 2.15D-09  0.00D+00 EMaxC= 1.00D-01 BMatC= 3.26D-15 BMatP= 6.62D-14
 IDIUse=1 WtCom= 1.00D+00 WtEn= 0.00D+00
 Coeff-Com: -0.477D-06-0.169D-05 0.170D-04 0.122D-03 0.221D-03 0.163D-04
 Coeff-Com: -0.144D-02-0.702D-02-0.234D-02 0.311D-01 0.207D+00 0.773D+00
 Coeff:     -0.477D-06-0.169D-05 0.170D-04 0.122D-03 0.221D-03 0.163D-04
 Coeff:     -0.144D-02-0.702D-02-0.234D-02 0.311D-01 0.207D+00 0.773D+00
 Gap=     0.109 Goal=   None    Shift=    0.000
 RMSDP=3.37D-09 MaxDP=1.52D-07 DE=-2.05D-12 OVMax= 8.03D-08

 Error on total polarization charges =  0.05314
 SCF Done:  E(RB3LYP) =  -557.408926068     A.U. after   12 cycles
            NFock= 12  Conv=0.34D-08     -V/T= 2.0103
 KE= 5.517111160679D+02 PE=-2.780332357854D+03 EE= 9.200191450143D+02
 SMD-CDS (non-electrostatic) energy       (kcal/mol) =      -0.21
 (included in total energy above)
 Leave Link  502 at Wed Jun 24 11:46:27 2026, MaxMem=  4026531840 cpu:             182.6 elap:              23.0
 (Enter /opt/packages/gaussian/g16RevC.01/g16/l801.exe)
 DoSCS=F DFT=T ScalE2(SS,OS)=  1.000000  1.000000
 ExpMin= 4.38D-02 ExpMax= 5.48D+03 ExpMxC= 8.25D+02 IAcc=3 IRadAn=         5 AccDes= 0.00D+00
 HarFok:  IExCor=  205 AccDes= 0.00D+00 IRadAn=         5 IDoV=-2 UseB2=F ITyADJ=14
 ICtDFT= 12500011 ScaDFX=  1.000000  1.000000  1.000000  1.000000
 Largest valence mixing into a core orbital is  5.70D-05
 Largest core mixing into a valence orbital is  1.22D-05
 Range of M.O.s used for correlation:    14   275
 NBasis=   275 NAE=    47 NBE=    47 NFC=    13 NFV=     0
 NROrb=    262 NOA=    34 NOB=    34 NVA=   228 NVB=   228

 **** Warning!!: The largest alpha MO coefficient is  0.23159128D+03

 Leave Link  801 at Wed Jun 24 11:46:28 2026, MaxMem=  4026531840 cpu:               0.7 elap:               0.1
 (Enter /opt/packages/gaussian/g16RevC.01/g16/l914.exe)
 RHF ground state
 Two-electron integrals replicated using symmetry.
 MDV=  4026531840 DFT=T DoStab=F Mixed=T DoRPA=T DoScal=F NonHer=T
 NEqPCM:  Using equilibrium solvation (IEInf=0, Eps=  32.6130, EpsInf=   1.7657)
 Making orbital integer symmetry assigments:
 Orbital symmetries:
       Occupied  (A) (A) (A) (A) (A) (A) (A) (A) (A) (A) (A) (A)
                 (A) (A) (A) (A) (A) (A) (A) (A) (A) (A) (A) (A)
                 (A) (A) (A) (A) (A) (A) (A) (A) (A) (A) (A) (A)
                 (A) (A) (A) (A) (A) (A) (A) (A) (A) (A) (A)
       Virtual   (A) (A) (A) (A) (A) (A) (A) (A) (A) (A) (A) (A)
                 (A) (A) (A) (A) (A) (A) (A) (A) (A) (A) (A) (A)
                 (A) (A) (A) (A) (A) (A) (A) (A) (A) (A) (A) (A)
                 (A) (A) (A) (A) (A) (A) (A) (A) (A) (A) (A) (A)
                 (A) (A) (A) (A) (A) (A) (A) (A) (A) (A) (A) (A)
                 (A) (A) (A) (A) (A) (A) (A) (A) (A) (A) (A) (A)
                 (A) (A) (A) (A) (A) (A) (A) (A) (A) (A) (A) (A)
                 (A) (A) (A) (A) (A) (A) (A) (A) (A) (A) (A) (A)
                 (A) (A) (A) (A) (A) (A) (A) (A) (A) (A) (A) (A)
                 (A) (A) (A) (A) (A) (A) (A) (A) (A) (A) (A) (A)
                 (A) (A) (A) (A) (A) (A) (A) (A) (A) (A) (A) (A)
                 (A) (A) (A) (A) (A) (A) (A) (A) (A) (A) (A) (A)
                 (A) (A) (A) (A) (A) (A) (A) (A) (A) (A) (A) (A)
                 (A) (A) (A) (A) (A) (A) (A) (A) (A) (A) (A) (A)
                 (A) (A) (A) (A) (A) (A) (A) (A) (A) (A) (A) (A)
                 (A) (A) (A) (A) (A) (A) (A) (A) (A) (A) (A) (A)
                 (A) (A) (A) (A) (A) (A) (A) (A) (A) (A) (A) (A)
                 (A) (A) (A) (A) (A) (A) (A) (A) (A) (A) (A) (A)
                 (A) (A) (A) (A) (A) (A) (A) (A) (A) (A) (A) (A)
 Generating guess from densities on rwf.
 Convergence on wavefunction:    0.000001000000000
 Davidson Disk Diagonalization:  ConvIn= 1.00D-06 SkipCon=T Conv= 1.00D-06.
 Max sub-space:  2000 roots to seek:     5 dimension of matrix:        15504
 Iteration     1 Dimension    10 NMult     0 NNew     10
 CISAX will form    10 AO SS matrices at one time.
 NMat=    10 NSing=    10 JSym2X= 0.
 FoFJK:  IHMeth= 1 ICntrl=       0 DoSepK=F KAlg= 0 I1Cent=           0 FoldK=F
 IRaf= 880000000 NMat=      20 IRICut=      25 DoRegI=T DoRafI=T ISym2E= 0 IDoP0=0 IntGTp=1.
 FoFCou: FMM=F IPFlag=           0 FMFlag=      100000 FMFlg1=           0
         NFxFlg=           0 DoJE=F BraDBF=F KetDBF=F FulRan=T
         wScrn=  0.000000 ICntrl=         0 IOpCl=  0 I1Cent=           0 NGrid=           0
         NMat0=   20 NMatS0=     10 NMatT0=    0 NMatD0=   20 NMtDS0=    0 NMtDT0=    0
 Symmetry not used in FoFCou.
 Raff kept on since  88.29% of shell-pairs survive, threshold=   0.20 IRatSp=88.
 Excitation Energies [eV] at current iteration:
 Root      1 :     2.051402473786877
 Root      2 :     3.365095773680178
 Root      3 :     4.759866894924212
 Root      4 :     4.786245480868718
 Root      5 :     5.017109255319181
 Iteration     2 Dimension    20 NMult    10 NNew     10
 CISAX will form    10 AO SS matrices at one time.
 NMat=    10 NSing=    10 JSym2X= 0.
 Root      1 not converged, maximum delta is    0.004971124271663
 Root      2 not converged, maximum delta is    0.005208201567159
 Root      3 not converged, maximum delta is    0.006031356709933
 Root      4 not converged, maximum delta is    0.007795494788939
 Root      5 not converged, maximum delta is    0.004364456989460
 Excitation Energies [eV] at current iteration:
 Root      1 :     2.048519543753604   Change is   -0.002882930033273
 Root      2 :     3.362132923866118   Change is   -0.002962849814060
 Root      3 :     4.756844408545483   Change is   -0.003022486378729
 Root      4 :     4.784741750570105   Change is   -0.001503730298613
 Root      5 :     5.014460916511903   Change is   -0.002648338807279
 Iteration     3 Dimension    30 NMult    20 NNew     10
 CISAX will form    10 AO SS matrices at one time.
 NMat=    10 NSing=    10 JSym2X= 0.
 Root      1 not converged, maximum delta is    0.000596334489372
 Root      2 not converged, maximum delta is    0.000449988986614
 Root      3 not converged, maximum delta is    0.001287927123459
 Root      4 not converged, maximum delta is    0.000668072646992
 Root      5 not converged, maximum delta is    0.002917075569440
 Excitation Energies [eV] at current iteration:
 Root      1 :     2.048476818028499   Change is   -0.000042725725106
 Root      2 :     3.362090817832293   Change is   -0.000042106033826
 Root      3 :     4.756800683910719   Change is   -0.000043724634763
 Root      4 :     4.784719380942724   Change is   -0.000022369627380
 Root      5 :     5.014407073367903   Change is   -0.000053843144000
 Iteration     4 Dimension    40 NMult    30 NNew     10
 CISAX will form    10 AO SS matrices at one time.
 NMat=    10 NSing=    10 JSym2X= 0.
 Root      1 not converged, maximum delta is    0.000090475197894
 Root      2 not converged, maximum delta is    0.000120237858640
 Root      3 not converged, maximum delta is    0.000518604489264
 Root      4 not converged, maximum delta is    0.000484058655184
 Root      5 not converged, maximum delta is    0.007032639422108
 Excitation Energies [eV] at current iteration:
 Root      1 :     2.048474215553845   Change is   -0.000002602474654
 Root      2 :     3.362089144670654   Change is   -0.000001673161638
 Root      3 :     4.756794926558334   Change is   -0.000005757352385
 Root      4 :     4.784715684304719   Change is   -0.000003696638006
 Root      5 :     5.014371642457266   Change is   -0.000035430910637
 Iteration     5 Dimension    50 NMult    40 NNew     10
 CISAX will form    10 AO SS matrices at one time.
 NMat=    10 NSing=    10 JSym2X= 0.
 Root      1 not converged, maximum delta is    0.000012627662357
 Root      2 not converged, maximum delta is    0.000025811222454
 Root      3 not converged, maximum delta is    0.000173661805338
 Root      4 not converged, maximum delta is    0.000149549369418
 Root      5 not converged, maximum delta is    0.002066968377059
 Excitation Energies [eV] at current iteration:
 Root      1 :     2.048474101309199   Change is   -0.000000114244646
 Root      2 :     3.362089049570180   Change is   -0.000000095100474
 Root      3 :     4.756794172209291   Change is   -0.000000754349044
 Root      4 :     4.784715160505981   Change is   -0.000000523798737
 Root      5 :     5.014363418956262   Change is   -0.000008223501004
 Iteration     6 Dimension    60 NMult    50 NNew     10
 CISAX will form    10 AO SS matrices at one time.
 NMat=    10 NSing=    10 JSym2X= 0.
 Root      1 not converged, maximum delta is    0.000002929444319
 Root      2 not converged, maximum delta is    0.000003096230129
 Root      3 not converged, maximum delta is    0.000029933085726
 Root      4 not converged, maximum delta is    0.000023426268628
 Root      5 not converged, maximum delta is    0.000184703974079
 Excitation Energies [eV] at current iteration:
 Root      1 :     2.048474093921144   Change is   -0.000000007388055
 Root      2 :     3.362089045604371   Change is   -0.000000003965808
 Root      3 :     4.756794112182073   Change is   -0.000000060027218
 Root      4 :     4.784715106289878   Change is   -0.000000054216104
 Root      5 :     5.014362639909315   Change is   -0.000000779046947
 Iteration     7 Dimension    70 NMult    60 NNew     10
 CISAX will form    10 AO SS matrices at one time.
 NMat=    10 NSing=    10 JSym2X= 0.
 Root      1 has converged.
 Root      2 has converged.
 Root      3 not converged, maximum delta is    0.000005683460689
 Root      4 not converged, maximum delta is    0.000007374802530
 Root      5 not converged, maximum delta is    0.000078718909537
 Excitation Energies [eV] at current iteration:
 Root      1 :     2.048474093683969   Change is   -0.000000000237175
 Root      2 :     3.362089045357536   Change is   -0.000000000246836
 Root      3 :     4.756794106301881   Change is   -0.000000005880191
 Root      4 :     4.784715099336117   Change is   -0.000000006953761
 Root      5 :     5.014362561045481   Change is   -0.000000078863833
 Iteration     8 Dimension    76 NMult    70 NNew      6
 CISAX will form     6 AO SS matrices at one time.
 NMat=     6 NSing=     6 JSym2X= 0.
 Root      1 has converged.
 Root      2 has converged.
 Root      3 not converged, maximum delta is    0.000002179031247
 Root      4 not converged, maximum delta is    0.000002296830697
 Root      5 not converged, maximum delta is    0.000025740112056
 Excitation Energies [eV] at current iteration:
 Root      1 :     2.048474093683487   Change is   -0.000000000000481
 Root      2 :     3.362089045355604   Change is   -0.000000000001932
 Root      3 :     4.756794105732297   Change is   -0.000000000569584
 Root      4 :     4.784715098243491   Change is   -0.000000001092626
 Root      5 :     5.014362553226562   Change is   -0.000000007818920
 Iteration     9 Dimension    82 NMult    76 NNew      6
 CISAX will form     6 AO SS matrices at one time.
 NMat=     6 NSing=     6 JSym2X= 0.
 Root      1 has converged.
 Root      2 has converged.
 Root      3 has converged.
 Root      4 not converged, maximum delta is    0.000001180051763
 Root      5 not converged, maximum delta is    0.000008040386085
 Excitation Energies [eV] at current iteration:
 Root      1 :     2.048474093683527   Change is    0.000000000000040
 Root      2 :     3.362089045354968   Change is   -0.000000000000636
 Root      3 :     4.756794105645195   Change is   -0.000000000087102
 Root      4 :     4.784715098109803   Change is   -0.000000000133688
 Root      5 :     5.014362552303015   Change is   -0.000000000923547
 Iteration    10 Dimension    86 NMult    82 NNew      4
 CISAX will form     4 AO SS matrices at one time.
 NMat=     4 NSing=     4 JSym2X= 0.
 Root      1 has converged.
 Root      2 has converged.
 Root      3 has converged.
 Root      4 has converged.
 Root      5 not converged, maximum delta is    0.000001229578459
 Excitation Energies [eV] at current iteration:
 Root      1 :     2.048474093683447   Change is   -0.000000000000080
 Root      2 :     3.362089045354772   Change is   -0.000000000000196
 Root      3 :     4.756794105645541   Change is    0.000000000000345
 Root      4 :     4.784715098091986   Change is   -0.000000000017817
 Root      5 :     5.014362552199681   Change is   -0.000000000103333
 Iteration    11 Dimension    88 NMult    86 NNew      2
 CISAX will form     2 AO SS matrices at one time.
 NMat=     2 NSing=     2 JSym2X= 0.
 Root      1 has converged.
 Root      2 has converged.
 Root      3 has converged.
 Root      4 has converged.
 Root      5 has converged.
 Excitation Energies [eV] at current iteration:
 Root      1 :     2.048474093683327   Change is   -0.000000000000120
 Root      2 :     3.362089045354724   Change is   -0.000000000000049
 Root      3 :     4.756794105645851   Change is    0.000000000000311
 Root      4 :     4.784715098091506   Change is   -0.000000000000481
 Root      5 :     5.014362552186697   Change is   -0.000000000012985
 Convergence achieved on expansion vectors.
 ***********************************************************************
 Excited states from <AA,BB:AA,BB> singles matrix:
 ***********************************************************************
 
 1PDM for each excited state written to RWF  633
 Ground to excited state transition densities written to RWF  633
 Ground to excited state transition electric dipole moments (Au):
       state          X           Y           Z        Dip. S.      Osc.
         1        -0.0046     -0.0348     -0.0087      0.0013      0.0001
         2         0.1264      0.0080     -0.0096      0.0161      0.0013
         3        -1.1023      0.1180     -0.7975      1.8649      0.2173
         4        -0.3274      0.9951      0.2182      1.1451      0.1342
         5         0.1154      0.0646      0.1560      0.0418      0.0051
 Ground to excited state transition velocity dipole moments (Au):
       state          X           Y           Z        Dip. S.      Osc.
         1        -0.0005      0.0006     -0.0018      0.0000      0.0000
         2        -0.0143     -0.0010      0.0043      0.0002      0.0012
         3         0.1887     -0.0223      0.1377      0.0551      0.2100
         4         0.0599     -0.1746     -0.0382      0.0355      0.1348
         5        -0.0206     -0.0116     -0.0310      0.0015      0.0055
 Ground to excited state transition magnetic dipole moments (Au):
       state          X           Y           Z
         1         0.1474      0.0722      0.0864
         2         0.0805      0.0623      0.0182
         3         0.1982      0.0475     -0.1612
         4        -0.0165     -0.0059      0.0285
         5        -0.2753     -0.1034     -0.2362
 Ground to excited state transition velocity quadrupole moments (Au):
       state          XX          YY          ZZ          XY          XZ          YZ
         1         0.0009      0.0013      0.0100      0.0236      0.0148      0.0024
         2        -0.0316     -0.0059      0.0072     -0.0013     -0.0473      0.0046
         3        -0.7647      0.1464     -0.1262     -0.1974     -0.7551     -0.1191
         4         0.5384     -0.1936      0.0097     -0.4918      0.1237      0.0231
         5         0.3606     -0.0613     -0.0010      0.0097      0.1028      0.0527
 <0|del|b> * <b|rxdel|0> + <0|del|b> * <b|delr+rdel|0>
 Rotatory Strengths (R) in cgs (10**-40 erg-esu-cm/Gauss)
       state          XX          YY          ZZ    R(velocity)    E-M Angle
         1        -0.7582     -0.8471     -0.0553     -0.5535      119.29
         2        -0.0933     -3.2495     -3.1554     -2.1660      137.01
         3      -136.0895     40.2584    153.0327     19.0672       76.59
         4        81.1243    -39.1918    -46.1210     -1.3962       99.51
         5        18.0867     23.4463     12.9942     18.1757       15.15
 1/2[<0|r|b>*<b|rxdel|0> + (<0|rxdel|b>*<b|r|0>)*]
 Rotatory Strengths (R) in cgs (10**-40 erg-esu-cm/Gauss)
       state          XX          YY          ZZ     R(length)
         1         0.4766      1.7769      0.5296      0.9277
         2        -7.1918     -0.3532      0.1244     -2.4735
         3       154.4595     -3.9640    -90.9153     19.8601
         4        -3.8198      4.1712     -4.3917     -1.3468
         5        22.4686      4.7229     26.0591     17.7502
  1/2[<0|del|b>*<b|r|0> + (<0|r|b>*<b|del|0>)*] (Au)
       state          X           Y           Z        Dip. S.   Osc.(frdel)
         1         0.0000     -0.0000      0.0000      0.0000      0.0000
         2        -0.0018     -0.0000     -0.0000      0.0019      0.0012
         3        -0.2080     -0.0026     -0.1098      0.3205      0.2136
         4        -0.0196     -0.1738     -0.0083      0.2017      0.1345
         5        -0.0024     -0.0008     -0.0048      0.0080      0.0053

 Excitation energies and oscillator strengths:
 
 Excited State   1:      Singlet-A      2.0485 eV  605.25 nm  f=0.0001  <S**2>=0.000
      47 -> 48         0.70356
 This state for optimization and/or second-order correction.
 Total Energy, E(TD-HF/TD-DFT) =  -557.333646031    
 Copying the excited state density for this state as the 1-particle RhoCI density.
 
 Excited State   2:      Singlet-A      3.3621 eV  368.77 nm  f=0.0013  <S**2>=0.000
      46 -> 48         0.70679
 
 Excited State   3:      Singlet-A      4.7568 eV  260.65 nm  f=0.2173  <S**2>=0.000
      45 -> 48        -0.67538
      47 -> 49         0.14655
 
 Excited State   4:      Singlet-A      4.7847 eV  259.13 nm  f=0.1342  <S**2>=0.000
      45 -> 48         0.14943
      46 -> 49         0.15175
      46 -> 50        -0.11173
      47 -> 49         0.52515
      47 -> 50         0.39894
 
 Excited State   5:      Singlet-A      5.0144 eV  247.26 nm  f=0.0051  <S**2>=0.000
      43 -> 48        -0.59713
      44 -> 48        -0.33354
 SavETr:  write IOETrn=   770 NScale= 10 NData=  16 NLR=1 NState=    5 LETran=     100.
 The selected state is a singlet.
 CISGrd: IGrad=2 NXY=2 DFT=T
 CISAX will form     1 AO SS matrices at one time.
 NMat=     1 NSing=     1 JSym2X= 0.
 GePol: Maximum number of non-zero 1st derivatives   =     254
 Leave Link  914 at Wed Jun 24 11:48:46 2026, MaxMem=  4026531840 cpu:            1097.0 elap:             137.9
 (Enter /opt/packages/gaussian/g16RevC.01/g16/l1002.exe)
 Minotr:  Closed shell wavefunction.
          Computing CIS/TDA/TD derivatives.
          Using Z-Vector for PSCF gradient.
          Skipping F1 and S1 gradient terms here.
          IDoAtm=111111111111111111111111111
 NEqPCM:  Using equilibrium solvation (IEInf=0, Eps=  32.6130, EpsInf=   1.7657)
          Frozen-core window.
          Direct CPHF calculation.
          Differentiating once with respect to electric field.
                with respect to dipole field.
          Differentiating once with respect to nuclear coordinates.
          Requested convergence is 1.0D-10 RMS, and 1.0D-09 maximum.
          NewPWx=F KeepS1=T KeepF1=T KeepIn=T MapXYZ=F SortEE=F KeepMc=T.
 Keep R1 ints in memory in canonical form, NReq=730638089.
 FoFCou: FMM=F IPFlag=           0 FMFlag=           0 FMFlg1=           0
         NFxFlg=           0 DoJE=F BraDBF=F KetDBF=F FulRan=T
         wScrn=  0.000000 ICntrl=       600 IOpCl=  0 I1Cent=           0 NGrid=           0
         NMat0=    1 NMatS0=  37950 NMatT0=    0 NMatD0=    1 NMtDS0=    0 NMtDT0=    0
 Symmetry not used in FoFCou.
 Two-electron integral symmetry not used.
          MDV=    4026531840 using IRadAn=       5.
          Solving linear equations separately, MaxMat=       0.
          There are     1 degrees of freedom in the 1st order CPHF.  IDoFFX=0 NUNeed=     1.
 LinEq1:  Iter=  0 NonCon=     1 RMS=1.16D-02 Max=2.69D-01 NDo=     1
 AX will form     1 AO Fock derivatives at one time.
 LinEq1:  Iter=  1 NonCon=     1 RMS=3.39D-03 Max=1.78D-01 NDo=     1
 LinEq1:  Iter=  2 NonCon=     1 RMS=2.38D-03 Max=4.67D-02 NDo=     1
 LinEq1:  Iter=  3 NonCon=     1 RMS=1.00D-03 Max=3.32D-02 NDo=     1
 LinEq1:  Iter=  4 NonCon=     1 RMS=9.47D-04 Max=4.32D-02 NDo=     1
 LinEq1:  Iter=  5 NonCon=     1 RMS=4.92D-04 Max=1.24D-02 NDo=     1
 LinEq1:  Iter=  6 NonCon=     1 RMS=3.00D-04 Max=1.26D-02 NDo=     1
 LinEq1:  Iter=  7 NonCon=     1 RMS=1.37D-04 Max=5.65D-03 NDo=     1
 LinEq1:  Iter=  8 NonCon=     1 RMS=8.73D-05 Max=4.20D-03 NDo=     1
 LinEq1:  Iter=  9 NonCon=     1 RMS=4.25D-05 Max=1.85D-03 NDo=     1
 LinEq1:  Iter= 10 NonCon=     1 RMS=2.33D-05 Max=6.17D-04 NDo=     1
 LinEq1:  Iter= 11 NonCon=     1 RMS=1.02D-05 Max=2.14D-04 NDo=     1
 LinEq1:  Iter= 12 NonCon=     1 RMS=4.86D-06 Max=1.18D-04 NDo=     1
 LinEq1:  Iter= 13 NonCon=     1 RMS=1.48D-06 Max=3.43D-05 NDo=     1
 LinEq1:  Iter= 14 NonCon=     1 RMS=9.25D-07 Max=2.08D-05 NDo=     1
 LinEq1:  Iter= 15 NonCon=     1 RMS=3.46D-07 Max=1.39D-05 NDo=     1
 LinEq1:  Iter= 16 NonCon=     1 RMS=2.03D-07 Max=5.79D-06 NDo=     1
 LinEq1:  Iter= 17 NonCon=     1 RMS=8.64D-08 Max=2.31D-06 NDo=     1
 LinEq1:  Iter= 18 NonCon=     1 RMS=3.53D-08 Max=5.60D-07 NDo=     1
 LinEq1:  Iter= 19 NonCon=     1 RMS=1.37D-08 Max=2.05D-07 NDo=     1
 LinEq1:  Iter= 20 NonCon=     1 RMS=3.66D-09 Max=8.04D-08 NDo=     1
 LinEq1:  Iter= 21 NonCon=     1 RMS=2.27D-09 Max=3.82D-08 NDo=     1
 LinEq1:  Iter= 22 NonCon=     1 RMS=5.50D-10 Max=1.43D-08 NDo=     1
 LinEq1:  Iter= 23 NonCon=     1 RMS=1.30D-10 Max=3.08D-09 NDo=     1
 LinEq1:  Iter= 24 NonCon=     1 RMS=7.23D-11 Max=1.52D-09 NDo=     1
 LinEq1:  Iter= 25 NonCon=     0 RMS=2.27D-11 Max=4.90D-10 NDo=     1
 Linear equations converged to 1.000D-10 1.000D-09 after    25 iterations.
 End of Minotr F.D. properties file   721 does not exist.
 End of Minotr F.D. properties file   722 does not exist.
 End of Minotr F.D. properties file   788 does not exist.
 Leave Link 1002 at Wed Jun 24 11:49:35 2026, MaxMem=  4026531840 cpu:             314.2 elap:              49.2
 (Enter /opt/packages/gaussian/g16RevC.01/g16/l701.exe)
 ... and contract with generalized density number  6.
 Compute integral first derivatives.
 D1PCM: PCM CHGder 1st derivatives, ID1Alg=3 FixD1E=F DoIter=F DoCFld=F I1PDM=6.
 Leave Link  701 at Wed Jun 24 11:49:37 2026, MaxMem=  4026531840 cpu:              13.5 elap:               1.7
 (Enter /opt/packages/gaussian/g16RevC.01/g16/l702.exe)
 L702 exits ... SP integral derivatives will be done elsewhere.
 Leave Link  702 at Wed Jun 24 11:49:37 2026, MaxMem=  4026531840 cpu:               0.1 elap:               0.0
 (Enter /opt/packages/gaussian/g16RevC.01/g16/l703.exe)
 Integral derivatives from FoFJK, PRISM(SPDF).
 Compute integral first derivatives, UseDBF=F ICtDFT=           0.
 Calling FoFJK, ICntrl=  10005127 FMM=F ISym2X=0 I1Cent= 0 IOpClX= 0 NMat=1 NMatS=1 NMatT=0.
 FoFJK:  IHMeth= 1 ICntrl=10005127 DoSepK=F KAlg= 0 I1Cent=           0 FoldK=F
 IRaf=         0 NMat=       1 IRICut=       1 DoRegI=T DoRafI=F ISym2E= 0 IDoP0=0 IntGTp=1.
 FoFCou: FMM=F IPFlag=           0 FMFlag=      100000 FMFlg1=         800
         NFxFlg=           0 DoJE=F BraDBF=F KetDBF=F FulRan=T
         wScrn=  0.000000 ICntrl=  10005127 IOpCl=  0 I1Cent=           0 NGrid=           0
         NMat0=    1 NMatS0=      1 NMatT0=    0 NMatD0=    1 NMtDS0=    0 NMtDT0=    0
 Symmetry not used in FoFCou.
 Leave Link  703 at Wed Jun 24 11:49:44 2026, MaxMem=  4026531840 cpu:              49.6 elap:               6.2
 (Enter /opt/packages/gaussian/g16RevC.01/g16/l716.exe)
 Dipole        = 2.36728124D+00-4.99600988D-01-3.73678963D-01
 ***** Axes restored to original set *****
 -------------------------------------------------------------------
 Center     Atomic                   Forces (Hartrees/Bohr)
 Number     Number              X              Y              Z
 -------------------------------------------------------------------
      1        6           0.000119875   -0.000012332   -0.000088973
      2        6           0.000041840    0.000005939   -0.000062722
      3        6           0.000048401   -0.000035486    0.000086199
      4        6           0.000326362    0.000129524    0.000096689
      5        6          -0.000175069   -0.000087861   -0.000178540
      6        6           0.000033981    0.000000434   -0.000022021
      7        1           0.000039015    0.000067575    0.000040227
      8        1          -0.000016600   -0.000019699    0.000009204
      9        1          -0.000004267   -0.000020249   -0.000067670
     10        1          -0.000079491    0.000037040    0.000099940
     11        8          -0.000187632   -0.000028086    0.000179147
     12        6          -0.000012976    0.000008341   -0.000158282
     13        1           0.000015010    0.000012557   -0.000026579
     14        1           0.000029644   -0.000069954    0.000070945
     15        1           0.000005033   -0.000000131   -0.000021144
     16        6           0.000050406   -0.000051296    0.000491337
     17        6          -0.000138334   -0.000119836    0.000035011
     18        7           0.000189929   -0.000146357   -0.000613639
     19        6          -0.000274414    0.000053956    0.000133199
     20        6           0.000059463   -0.000041813   -0.000093843
     21        1           0.000046822    0.000094763   -0.000021882
     22        1          -0.000016108   -0.000052913   -0.000024490
     23        1           0.000042819   -0.000042731   -0.000019219
     24        1          -0.000012613   -0.000004915   -0.000014421
     25        1          -0.000026615    0.000048972    0.000054439
     26        1          -0.000015496   -0.000017724    0.000036074
     27        1          -0.000088986    0.000292281    0.000081013
 -------------------------------------------------------------------
 Cartesian Forces:  Max     0.000613639 RMS     0.000128311
 Leave Link  716 at Wed Jun 24 11:49:44 2026, MaxMem=  4026531840 cpu:               0.1 elap:               0.0
 (Enter /opt/packages/gaussian/g16RevC.01/g16/l103.exe)

 GradGradGradGradGradGradGradGradGradGradGradGradGradGradGradGradGradGrad
 Berny optimization.
 Using GEDIIS/GDIIS optimizer.
 FormGI is forming the generalized inverse of G from B-inverse, IUseBI=4.
 Internal  Forces:  Max     0.000441458 RMS     0.000065951
 Search for a local minimum.
 Step number   4 out of a maximum of  154
 All quantities printed in internal units (Hartrees-Bohrs-Radians)
 RMS Force = .65951D-04 SwitMx=.10000D-02 MixMth= 2
 Mixed Optimization -- En-DIIS/RFO-DIIS
 Swapping is turned off.
 Update second derivatives using D2CorX and points    1    2    3    4
 DE= -5.27D-05 DEPred=-4.86D-05 R= 1.08D+00
 TightC=F SS=  1.41D+00  RLast= 4.31D-02 DXNew= 6.2456D-01 1.2928D-01
 Trust test= 1.08D+00 RLast= 4.31D-02 DXMaxT set to 3.71D-01
 ITU=  1  1  0  0
     Eigenvalues ---    0.00396   0.00900   0.00937   0.01389   0.01483
     Eigenvalues ---    0.01538   0.01683   0.01814   0.01921   0.01966
     Eigenvalues ---    0.02006   0.02098   0.02171   0.02200   0.02847
     Eigenvalues ---    0.03267   0.03507   0.03902   0.04965   0.05244
     Eigenvalues ---    0.05778   0.06063   0.06897   0.07137   0.07848
     Eigenvalues ---    0.08399   0.09301   0.10162   0.10668   0.10786
     Eigenvalues ---    0.12761   0.15611   0.15994   0.16000   0.16000
     Eigenvalues ---    0.16000   0.16002   0.17350   0.20112   0.21748
     Eigenvalues ---    0.21879   0.22011   0.22949   0.23850   0.24851
     Eigenvalues ---    0.25002   0.25718   0.26882   0.27525   0.30127
     Eigenvalues ---    0.33203   0.33668   0.33977   0.34053   0.34165
     Eigenvalues ---    0.34261   0.34292   0.34484   0.34498   0.34808
     Eigenvalues ---    0.34941   0.35173   0.35232   0.35269   0.35591
     Eigenvalues ---    0.37797   0.38803   0.39515   0.40373   0.41441
     Eigenvalues ---    0.43752   0.45174   0.47640   0.50456   0.63886
 En-DIIS/RFO-DIIS/Sim-DIIS IScMMF=       -3 using points:     4    3    2    1
 RFO step:  Lambda=-5.94125664D-06.
 NNeg= 0 NGDIIS= 4 SimSw=  2.50D-01 Rises=F DC= -5.27D-05 SmlDif=  1.00D-05
 NRisDI= 0 DoIntr=F SqrtH=F CThrHd= 10.0 CDAdj=  3.0
 RMS Error=  0.1662291277D-02 NUsed= 4 OKEnD=T EnDIS=F
 InvSVX:  RCond= 4.40D-05 Info=           0 Equed=N FErr=  7.07D-15 BErr=  5.59D-17
 DidBck=F Rises=F RFO-DIIS coefs:    1.53484   -0.31234   -0.14069   -0.08182
 Iteration  1 RMS(Cart)=  0.00217447 RMS(Int)=  0.00001095
 Iteration  2 RMS(Cart)=  0.00000668 RMS(Int)=  0.00000853
 Iteration  3 RMS(Cart)=  0.00000000 RMS(Int)=  0.00000853
 ITry= 1 IFail=0 DXMaxC= 1.13D-02 DCOld= 1.00D+10 DXMaxT= 3.71D-01 DXLimC= 3.00D+00 Rises=F
 Variable       Old X    -DE/DX   Delta X   Delta X   Delta X     New X
                                 (Linear)    (Quad)   (Total)
    R1        2.70025  -0.00003  -0.00007  -0.00006  -0.00013   2.70012
    R2        2.71156   0.00011   0.00034   0.00007   0.00041   2.71196
    R3        2.48106  -0.00015   0.00005  -0.00043  -0.00039   2.48068
    R4        2.59314  -0.00005  -0.00012  -0.00008  -0.00020   2.59294
    R5        2.04774   0.00000   0.00000   0.00001   0.00001   2.04775
    R6        2.70904   0.00006   0.00041  -0.00012   0.00029   2.70933
    R7        2.05176   0.00005   0.00005   0.00013   0.00018   2.05195
    R8        2.69137  -0.00017  -0.00034  -0.00029  -0.00063   2.69074
    R9        2.78969   0.00018   0.00040   0.00027   0.00067   2.79035
   R10        2.59123   0.00012   0.00006   0.00022   0.00028   2.59151
   R11        2.05114   0.00012   0.00018   0.00024   0.00042   2.05155
   R12        2.05024   0.00009   0.00011   0.00020   0.00031   2.05055
   R13        2.74628   0.00011   0.00102  -0.00056   0.00047   2.74675
   R14        2.06409   0.00002  -0.00002   0.00008   0.00006   2.06416
   R15        2.06368   0.00009   0.00016   0.00017   0.00034   2.06402
   R16        2.05709   0.00000  -0.00020   0.00016  -0.00004   2.05705
   R17        2.85447   0.00008   0.00088  -0.00038   0.00050   2.85498
   R18        2.63817   0.00044   0.00093   0.00071   0.00165   2.63982
   R19        2.92314   0.00001  -0.00047   0.00017  -0.00032   2.92282
   R20        2.06945  -0.00003  -0.00014  -0.00001  -0.00015   2.06931
   R21        2.08567   0.00005   0.00008   0.00012   0.00020   2.08587
   R22        2.78946   0.00023   0.00033   0.00077   0.00111   2.79057
   R23        1.91608   0.00021   0.00040   0.00027   0.00067   1.91675
   R24        2.91301   0.00003   0.00035  -0.00037  -0.00003   2.91299
   R25        2.07220   0.00003  -0.00005   0.00015   0.00010   2.07231
   R26        2.06852   0.00000   0.00006  -0.00006   0.00001   2.06853
   R27        2.07070   0.00008   0.00001   0.00028   0.00029   2.07099
   R28        2.06786   0.00002   0.00009  -0.00001   0.00008   2.06794
    A1        2.10712   0.00003  -0.00039   0.00051   0.00012   2.10723
    A2        2.17199  -0.00007   0.00044  -0.00070  -0.00026   2.17173
    A3        2.00408   0.00004  -0.00005   0.00019   0.00014   2.00422
    A4        2.06658  -0.00004  -0.00017  -0.00014  -0.00032   2.06626
    A5        2.10651   0.00004   0.00048  -0.00008   0.00040   2.10691
    A6        2.11010   0.00000  -0.00031   0.00022  -0.00008   2.11001
    A7        2.12696   0.00002   0.00055  -0.00035   0.00019   2.12715
    A8        2.08554  -0.00004  -0.00013  -0.00010  -0.00024   2.08531
    A9        2.07068   0.00002  -0.00039   0.00045   0.00005   2.07073
   A10        2.07012   0.00007  -0.00031   0.00058   0.00027   2.07039
   A11        2.10750  -0.00004  -0.00018  -0.00010  -0.00028   2.10721
   A12        2.10544  -0.00003   0.00048  -0.00046   0.00002   2.10546
   A13        2.10927  -0.00005  -0.00019  -0.00014  -0.00033   2.10894
   A14        2.07559   0.00000   0.00054  -0.00036   0.00018   2.07577
   A15        2.09832   0.00005  -0.00034   0.00050   0.00015   2.09847
   A16        2.08631  -0.00002   0.00054  -0.00047   0.00008   2.08638
   A17        2.06169   0.00002  -0.00029   0.00030   0.00001   2.06170
   A18        2.13518   0.00000  -0.00025   0.00017  -0.00009   2.13509
   A19        2.12954  -0.00008   0.00069  -0.00119  -0.00049   2.12904
   A20        1.91049   0.00002   0.00222  -0.00192   0.00030   1.91079
   A21        1.90975   0.00000  -0.00100   0.00081  -0.00019   1.90956
   A22        1.82542  -0.00000   0.00033  -0.00052  -0.00019   1.82523
   A23        1.94486   0.00003  -0.00078   0.00112   0.00033   1.94519
   A24        1.93467  -0.00003  -0.00062   0.00047  -0.00016   1.93451
   A25        1.93476  -0.00003  -0.00001  -0.00010  -0.00011   1.93466
   A26        2.14237   0.00006   0.00004   0.00013   0.00013   2.14250
   A27        2.07131  -0.00002  -0.00126   0.00055  -0.00074   2.07057
   A28        1.88407  -0.00003  -0.00033   0.00034   0.00000   1.88408
   A29        1.76789   0.00004   0.00001  -0.00019  -0.00019   1.76770
   A30        1.96840  -0.00009   0.00072  -0.00188  -0.00117   1.96723
   A31        1.95512   0.00003  -0.00084   0.00122   0.00038   1.95550
   A32        1.96664   0.00002   0.00053  -0.00025   0.00028   1.96692
   A33        1.93467  -0.00003  -0.00053   0.00063   0.00010   1.93477
   A34        1.87208   0.00003   0.00009   0.00048   0.00057   1.87266
   A35        1.93683  -0.00012  -0.00061  -0.00047  -0.00110   1.93572
   A36        2.07751   0.00006  -0.00153  -0.00044  -0.00201   2.07550
   A37        2.06654  -0.00002  -0.00088  -0.00137  -0.00230   2.06423
   A38        1.82026   0.00003   0.00044  -0.00008   0.00036   1.82062
   A39        1.90591  -0.00004  -0.00068   0.00000  -0.00068   1.90523
   A40        1.93432   0.00000   0.00010   0.00012   0.00021   1.93454
   A41        1.95032   0.00000  -0.00010  -0.00004  -0.00015   1.95018
   A42        1.96622  -0.00002   0.00033  -0.00025   0.00008   1.96631
   A43        1.88622   0.00001  -0.00010   0.00024   0.00014   1.88636
   A44        1.82113   0.00007  -0.00019   0.00014  -0.00006   1.82107
   A45        1.91049  -0.00001  -0.00053   0.00046  -0.00007   1.91042
   A46        1.96488  -0.00004   0.00021  -0.00020   0.00001   1.96489
   A47        1.91961  -0.00003   0.00012  -0.00029  -0.00017   1.91944
   A48        1.95824   0.00000   0.00035   0.00007   0.00043   1.95867
   A49        1.88879   0.00001   0.00002  -0.00016  -0.00014   1.88864
    D1        0.00010  -0.00002   0.00118  -0.00186  -0.00068  -0.00058
    D2        3.13896   0.00000   0.00281  -0.00207   0.00074   3.13969
    D3        3.14093  -0.00002   0.00015  -0.00086  -0.00071   3.14021
    D4       -0.00340   0.00000   0.00178  -0.00107   0.00071  -0.00269
    D5        0.00265   0.00001  -0.00087   0.00131   0.00044   0.00309
    D6       -3.14112   0.00000  -0.00106   0.00121   0.00014  -3.14098
    D7       -3.13824   0.00001   0.00007   0.00040   0.00046  -3.13778
    D8        0.00117   0.00000  -0.00013   0.00030   0.00017   0.00134
    D9       -0.01018   0.00004   0.00180   0.00018   0.00198  -0.00821
   D10        3.13068   0.00004   0.00083   0.00112   0.00195   3.13263
   D11       -0.00064   0.00001  -0.00066   0.00099   0.00033  -0.00031
   D12        3.13915  -0.00001  -0.00107   0.00028  -0.00079   3.13835
   D13       -3.13949  -0.00001  -0.00230   0.00121  -0.00110  -3.14059
   D14        0.00030  -0.00003  -0.00271   0.00049  -0.00222  -0.00192
   D15       -0.00147  -0.00000  -0.00014   0.00040   0.00026  -0.00121
   D16       -3.12629  -0.00001   0.00136  -0.00151  -0.00015  -3.12644
   D17       -3.14127   0.00002   0.00026   0.00111   0.00137  -3.13990
   D18        0.01709   0.00002   0.00176  -0.00080   0.00097   0.01806
   D19        0.00428  -0.00001   0.00047  -0.00099  -0.00052   0.00376
   D20       -3.13811   0.00002   0.00187  -0.00054   0.00133  -3.13678
   D21        3.12912  -0.00000  -0.00104   0.00092  -0.00012   3.12901
   D22       -0.01327   0.00003   0.00036   0.00138   0.00173  -0.01154
   D23        1.11832   0.00000  -0.00388   0.00302  -0.00086   1.11747
   D24       -1.33047   0.00001  -0.00104   0.00119   0.00015  -1.33032
   D25       -2.00616  -0.00000  -0.00234   0.00106  -0.00127  -2.00743
   D26        1.82823   0.00001   0.00051  -0.00077  -0.00027   1.82797
   D27       -0.00484   0.00000   0.00003   0.00014   0.00017  -0.00466
   D28        3.13903   0.00001   0.00024   0.00024   0.00048   3.13951
   D29        3.13757  -0.00003  -0.00138  -0.00032  -0.00170   3.13586
   D30       -0.00175  -0.00002  -0.00118  -0.00022  -0.00140  -0.00314
   D31        1.07278  -0.00001  -0.00350  -0.00338  -0.00688   1.06590
   D32       -1.06315  -0.00007  -0.00329  -0.00406  -0.00735  -1.07050
   D33       -3.13665  -0.00003  -0.00296  -0.00406  -0.00702   3.13951
   D34       -3.06872   0.00000   0.00156  -0.00169  -0.00012  -3.06885
   D35        1.10810   0.00000   0.00059  -0.00036   0.00023   1.10832
   D36       -1.00609   0.00001   0.00056  -0.00052   0.00005  -1.00604
   D37       -0.55698  -0.00001  -0.00136   0.00006  -0.00130  -0.55828
   D38       -2.66334  -0.00001  -0.00233   0.00138  -0.00095  -2.66429
   D39        1.50566  -0.00000  -0.00236   0.00123  -0.00113   1.50453
   D40        2.88806   0.00003  -0.00100   0.00065  -0.00035   2.88771
   D41       -0.90467  -0.00010  -0.00566  -0.00305  -0.00868  -0.91335
   D42        0.34649   0.00001   0.00127  -0.00084   0.00042   0.34691
   D43        2.83694  -0.00012  -0.00338  -0.00454  -0.00791   2.82903
   D44        0.55080   0.00003   0.00074   0.00075   0.00150   0.55230
   D45       -1.50310   0.00003   0.00096   0.00080   0.00176  -1.50133
   D46        2.67865   0.00006   0.00117   0.00082   0.00199   2.68063
   D47        2.65841  -0.00004   0.00185  -0.00172   0.00013   2.65854
   D48        0.60451  -0.00004   0.00206  -0.00167   0.00039   0.60491
   D49       -1.49693  -0.00001   0.00227  -0.00165   0.00062  -1.49631
   D50       -1.52656  -0.00002   0.00195  -0.00083   0.00112  -1.52544
   D51        2.70273  -0.00001   0.00217  -0.00079   0.00138   2.70412
   D52        0.60129   0.00001   0.00238  -0.00076   0.00161   0.60290
   D53        0.02249  -0.00002  -0.00086   0.00132   0.00047   0.02296
   D54       -2.06449  -0.00002  -0.00064   0.00141   0.00077  -2.06371
   D55        2.14274  -0.00002  -0.00014   0.00104   0.00090   2.14364
   D56       -2.47252   0.00006   0.00401   0.00461   0.00862  -2.46390
   D57        1.72369   0.00006   0.00423   0.00470   0.00893   1.73262
   D58       -0.35226   0.00007   0.00472   0.00433   0.00905  -0.34321
   D59       -0.36708   0.00001  -0.00006  -0.00119  -0.00125  -0.36833
   D60        1.68053   0.00002  -0.00072  -0.00072  -0.00145   1.67909
   D61       -2.49930   0.00001  -0.00039  -0.00108  -0.00146  -2.50076
   D62        1.68962  -0.00002  -0.00067  -0.00125  -0.00192   1.68770
   D63       -2.54595  -0.00001  -0.00133  -0.00079  -0.00212  -2.54807
   D64       -0.44260  -0.00002  -0.00099  -0.00114  -0.00213  -0.44473
   D65       -2.46605  -0.00001  -0.00063  -0.00115  -0.00178  -2.46783
   D66       -0.41844  -0.00000  -0.00130  -0.00068  -0.00198  -0.42042
   D67        1.68492  -0.00001  -0.00096  -0.00104  -0.00200   1.68292
         Item               Value     Threshold  Converged?
 Maximum Force            0.000441     0.000450     YES
 RMS     Force            0.000066     0.000300     YES
 Maximum Displacement     0.011266     0.001800     NO 
 RMS     Displacement     0.002175     0.001200     NO 
 Predicted change in Energy=-2.766940D-06
 Lowest energy point so far.  Saving SCF results.
 GradGradGradGradGradGradGradGradGradGradGradGradGradGradGradGradGradGrad

 Leave Link  103 at Wed Jun 24 11:49:44 2026, MaxMem=  4026531840 cpu:               0.2 elap:               0.0
 (Enter /opt/packages/gaussian/g16RevC.01/g16/l202.exe)
                          Input orientation:                          
 ---------------------------------------------------------------------
 Center     Atomic      Atomic             Coordinates (Angstroms)
 Number     Number       Type             X           Y           Z
 ---------------------------------------------------------------------
      1          6           0        2.488402    0.185733    0.217575
      2          6           0        1.796792   -0.811722   -0.536314
      3          6           0        0.424732   -0.799904   -0.529664
      4          6           0       -0.320439    0.178146    0.207677
      5          6           0        0.392782    1.160127    0.952296
      6          6           0        1.764026    1.175624    0.962512
      7          1           0        2.331927    1.913555    1.519644
      8          1           0        2.344061   -1.557963   -1.100107
      9          1           0       -0.118848   -1.547928   -1.098906
     10          1           0       -0.166482    1.900365    1.516100
     11          8           0        3.795113    0.283892    0.295686
     12          6           0        4.679259   -0.644837   -0.388752
     13          1           0        4.508453   -0.583723   -1.465887
     14          1           0        4.504837   -1.655599   -0.013374
     15          1           0        5.682100   -0.305336   -0.135816
     16          6           0       -1.796855    0.155842    0.212491
     17          6           0       -2.595253   -0.984209    0.800137
     18          7           0       -2.477098    0.621402   -0.915315
     19          6           0       -3.895460    0.211794   -0.881672
     20          6           0       -4.038992   -0.556020    0.447254
     21          1           0       -2.439778   -1.097772    1.878108
     22          1           0       -2.345786   -1.950719    0.328987
     23          1           0       -4.105494   -0.429584   -1.746015
     24          1           0       -4.554190    1.084201   -0.937956
     25          1           0       -4.422266    0.112580    1.226432
     26          1           0       -4.720800   -1.407672    0.361648
     27          1           0       -2.250996    1.540567   -1.279760
 ---------------------------------------------------------------------
                    Distance matrix (angstroms):
                    1          2          3          4          5
     1  C    0.000000
     2  C    1.428842   0.000000
     3  C    2.405947   1.372127   0.000000
     4  C    2.808869   2.452759   1.433713   0.000000
     5  C    2.425053   2.841723   2.457427   1.423878   0.000000
     6  C    1.435108   2.489397   2.814783   2.430995   1.371369
     7  H    2.169155   3.455498   3.898706   3.430445   2.156344
     8  H    2.190342   1.083625   2.141000   3.438595   3.925285
     9  H    3.396536   2.127954   1.085844   2.174196   3.435514
    10  H    3.416802   3.927119   3.438915   2.168343   1.085635
    11  O    1.312718   2.426083   3.635282   4.117851   3.574182
    12  C    2.420193   2.891063   4.259683   5.101962   4.840474
    13  H    2.739838   2.875621   4.195238   5.167152   5.082063
    14  H    2.740410   2.884286   4.200717   5.166699   5.076399
    15  H    3.250499   3.938584   5.295246   6.031768   5.595396
    16  C    4.285364   3.796207   2.529761   1.476592   2.520002
    17  C    5.248971   4.594117   3.304944   2.622376   3.680990
    18  N    5.111696   4.523673   3.254144   2.471591   3.466180
    19  C    6.477864   5.793841   4.451012   3.737457   4.759391
    20  C    6.573418   5.923610   4.575880   3.797898   4.779210
    21  H    5.356465   4.884648   3.753866   2.984946   3.738801
    22  H    5.286418   4.382581   3.120485   2.940886   4.191137
    23  H    6.907515   6.037084   4.705273   4.302660   5.481109
    24  H    7.193094   6.640091   5.339122   4.478622   5.296353
    25  H    6.984302   6.529800   5.235446   4.226954   4.935301
    26  H    7.384598   6.606095   5.257406   4.679925   5.752494
    27  H    5.151648   4.740312   3.633176   2.792080   3.480858
                    6          7          8          9         10
     6  C    0.000000
     7  H    1.085104   0.000000
     8  H    3.473231   4.349101   0.000000
     9  H    3.900307   4.984473   2.462930   0.000000
    10  H    2.135081   2.498446   5.010728   4.327961   0.000000
    11  O    2.316281   2.508941   2.728776   4.540875   4.449340
    12  C    3.693044   3.961983   2.606334   4.933734   5.795491
    13  H    4.065010   4.459491   2.401568   4.740916   6.076015
    14  H    4.059584   4.450903   2.420635   4.750625   6.066744
    15  H    4.330228   4.345996   3.693432   6.010206   6.465281
    16  C    3.779201   4.673868   4.669821   2.727325   2.720455
    17  C    4.867706   5.761235   5.323246   3.171234   3.838268
    18  N    4.671245   5.543050   5.294086   3.209523   3.589773
    19  C    6.029906   6.887863   6.489328   4.172123   4.744034
    20  C    6.077754   6.916460   6.643913   4.329205   4.708778
    21  H    4.866067   5.653827   5.653906   3.801575   3.779914
    22  H    5.202492   6.183144   4.918458   2.675887   4.581424
    23  H    6.660636   7.589151   6.579300   4.190797   5.620131
    24  H    6.598484   7.358413   7.388721   5.160064   5.093182
    25  H    6.282509   6.996328   7.347562   5.165645   4.625125
    26  H    7.006242   7.881146   7.216064   4.830202   5.746102
    27  H    4.613173   5.383211   5.545062   3.757334   3.505922
                   11         12         13         14         15
    11  O    0.000000
    12  C    1.453516   0.000000
    13  H    2.089198   1.092304   0.000000
    14  H    2.088265   1.092233   1.805194   0.000000
    15  H    2.023389   1.088544   1.795560   1.795592   0.000000
    16  C    5.594052   6.553063   6.566644   6.560766   7.501251
    17  C    6.534472   7.378832   7.467121   7.178011   8.357718
    18  N    6.396957   7.286568   7.110090   7.399030   8.248574
    19  C    7.780507   8.631489   8.461673   8.649052   9.620467
    20  C    7.880458   8.758692   8.758977   8.626602   9.741788
    21  H    6.579279   7.484952   7.728160   7.219180   8.405281
    22  H    6.534924   7.181347   7.216013   6.865518   8.207940
    23  H    8.191286   8.891590   8.619878   8.868086   9.919938
    24  H    8.477808   9.409983   9.229961   9.509329  10.361269
    25  H    8.271696   9.274711   9.353671   9.184593  10.204342
    26  H    8.682541   9.460768   9.444463   9.236584  10.472963
    27  H    6.373123   7.321087   7.087835   7.580270   8.224961
                   16         17         18         19         20
    16  C    0.000000
    17  C    1.510789   0.000000
    18  N    1.396933   2.352598   0.000000
    19  C    2.367376   2.439147   1.476707   0.000000
    20  C    2.364115   1.546691   2.383784   1.541487   0.000000
    21  H    2.181554   1.095031   3.280269   3.383838   2.213216
    22  H    2.180022   1.103792   2.860303   2.922952   2.196843
    23  H    3.083550   3.011864   2.108627   1.096617   2.197917
    24  H    3.128622   3.337172   2.128147   1.094618   2.207841
    25  H    2.814735   2.173165   2.937628   2.175194   1.095921
    26  H    3.319078   2.211231   3.283592   2.202203   1.094305
    27  H    2.085790   3.289221   1.014301   2.151366   3.251951
                   21         22         23         24         25
    21  H    0.000000
    22  H    1.770912   0.000000
    23  H    4.044175   3.117059   0.000000
    24  H    4.142700   3.961431   1.773650   0.000000
    25  H    2.412445   3.061760   3.038047   2.376137   0.000000
    26  H    2.756584   2.436526   2.403643   2.815344   1.774300
    27  H    4.119297   3.845274   2.745551   2.372721   3.610341
                   26         27
    26  H    0.000000
    27  H    4.181658   0.000000
 Stoichiometry    C11H14NO(1+)
 Framework group  C1[X(C11H14NO)]
 Deg. of freedom    75
 Full point group                 C1      NOp   1
 RotChk:  IX=0 Diff= 1.99D-04
 Largest Abelian subgroup         C1      NOp   1
 Largest concise Abelian subgroup C1      NOp   1
                         Standard orientation:                         
 ---------------------------------------------------------------------
 Center     Atomic      Atomic             Coordinates (Angstroms)
 Number     Number       Type             X           Y           Z
 ---------------------------------------------------------------------
      1          6           0        2.485287    0.232363    0.008652
      2          6           0        1.774940   -1.005649   -0.057102
      3          6           0        0.403283   -0.972245   -0.043899
      4          6           0       -0.323322    0.261264    0.033779
      5          6           0        0.408381    1.480948    0.100194
      6          6           0        1.779675    1.479635    0.085854
      7          1           0        2.361419    2.394382    0.133412
      8          1           0        2.308026   -1.947167   -0.117154
      9          1           0       -0.154409   -1.902462   -0.096175
     10          1           0       -0.136735    2.417653    0.163714
     11          8           0        3.793710    0.338421    0.005531
     12          6           0        4.660460   -0.826715   -0.056990
     13          1           0        4.472102   -1.371464   -0.984837
     14          1           0        4.485968   -1.456299    0.818309
     15          1           0        5.669495   -0.418492   -0.045618
     16          6           0       -1.799563    0.266786    0.065487
     17          6           0       -2.595205   -0.343414    1.195572
     18          7           0       -2.495577    0.037616   -1.123826
     19          6           0       -3.915730   -0.263771   -0.853649
     20          6           0       -4.041906   -0.162345    0.679313
     21          1           0       -2.422491    0.158405    2.153403
     22          1           0       -2.359714   -1.412349    1.337977
     23          1           0       -4.144179   -1.273982   -1.214001
     24          1           0       -4.569806    0.440001   -1.378127
     25          1           0       -4.407919    0.831816    0.959885
     26          1           0       -4.730390   -0.908210    1.088186
     27          1           0       -2.269808    0.596351   -1.939700
 ---------------------------------------------------------------------
 Rotational constants (GHZ):           2.7029183           0.3412785           0.3294878
 Leave Link  202 at Wed Jun 24 11:49:44 2026, MaxMem=  4026531840 cpu:               0.0 elap:               0.0
 (Enter /opt/packages/gaussian/g16RevC.01/g16/l301.exe)
 Standard basis: 6-31+G(d) (6D, 7F)
 Ernie: Thresh=  0.10000D-02 Tol=  0.10000D-05 Strict=F.
 There are   275 symmetry adapted cartesian basis functions of A   symmetry.
 There are   275 symmetry adapted basis functions of A   symmetry.
   275 basis functions,   472 primitive gaussians,   275 cartesian basis functions
    47 alpha electrons       47 beta electrons
       nuclear repulsion energy       751.1607150868 Hartrees.
 IExCor=  402 DFT=T Ex+Corr=B3LYP ExCW=0 ScaHFX=  0.200000
 ScaDFX=  0.800000  0.720000  1.000000  0.810000 ScalE2=  1.000000  1.000000
 IRadAn=      5 IRanWt=     -1 IRanGd=            0 ICorTp=0 IEmpDi=  4
 NAtoms=   27 NActive=   27 NUniq=   27 SFac= 1.00D+00 NAtFMM=   60 NAOKFM=F Big=F
 Integral buffers will be    131072 words long.
 Regular integral format.
 Two-electron integral symmetry is turned on.
 ------------------------------------------------------------------------------
 Polarizable Continuum Model (PCM)
 =================================
 Model                : PCM.
 Atomic radii         : SMD-Coulomb.
 Polarization charges : Total charges.
 Charge compensation  : None.
 Solution method      : On-the-fly selection.
 Cavity type          : VdW (van der Waals Surface) (Alpha=1.000).
 Cavity algorithm     : GePol (No added spheres)
                        Default sphere list used, NSphG=   27.
                        Lebedev-Laikov grids with approx.  5.0 points / Ang**2.
                        Smoothing algorithm: York/Karplus (Gamma=1.0000).
                        Polarization charges: spherical gaussians, with
                                              point-specific exponents (IZeta= 3).
                        Self-potential: point-specific (ISelfS= 7).
                        Self-field    : sphere-specific E.n sum rule (ISelfD= 2).
 1st derivatives      : Analytical E(r).r(x)/FMM algorithm (CHGder, D1EAlg=3).
                        Cavity 1st derivative terms included.
 Solvent              : Methanol, Eps=  32.613000 Eps(inf)=   1.765709
 ------------------------------------------------------------------------------
 GePol: Number of generator spheres                  =      27
 GePol: Total number of spheres                      =      27
 GePol: Number of exposed spheres                    =      27 (100.00%)
 GePol: Number of points                             =    2013
 GePol: Average weight of points                     =       0.11
 GePol: Minimum weight of points                     =   0.42D-11
 GePol: Maximum weight of points                     =    0.21991
 GePol: Number of points with low weight             =     105
 GePol: Fraction of low-weight points (<1% of avg)   =       5.22%
 GePol: Cavity surface area                          =    220.820 Ang**2
 GePol: Cavity volume                                =    193.960 Ang**3
 ------------------------------------------------------------------------------
 Atomic radii for non-electrostatic terms: SMD-CDS.
 ------------------------------------------------------------------------------
 PCM non-electrostatic energy =        -0.0003293239 Hartrees.
 Nuclear repulsion after PCM non-electrostatic terms =      751.1603857629 Hartrees.
 Leave Link  301 at Wed Jun 24 11:49:44 2026, MaxMem=  4026531840 cpu:               0.3 elap:               0.1
 (Enter /opt/packages/gaussian/g16RevC.01/g16/l302.exe)
 NPDir=0 NMtPBC=     1 NCelOv=     1 NCel=       1 NClECP=     1 NCelD=      1
         NCelK=      1 NCelE2=     1 NClLst=     1 CellRange=     0.0.
 One-electron integrals computed using PRISM.
 One-electron integral symmetry used in STVInt
 NBasis=   275 RedAO= T EigKep=  1.39D-06  NBF=   275
 NBsUse=   275 1.00D-06 EigRej= -1.00D+00 NBFU=   275
 Precomputing XC quadrature grid using
 IXCGrd= 4 IRadAn=           5 IRanWt=          -1 IRanGd=           0 AccXCQ= 0.00D+00.
 Generated NRdTot=       0 NPtTot=           0 NUsed=           0 NTot=          32
 NSgBfM=   274   274   274   274   274 MxSgAt=    27 MxSgA2=    27.
 Leave Link  302 at Wed Jun 24 11:49:44 2026, MaxMem=  4026531840 cpu:               1.4 elap:               0.2
 (Enter /opt/packages/gaussian/g16RevC.01/g16/l303.exe)
 DipDrv:  MaxL=1.
 Leave Link  303 at Wed Jun 24 11:49:44 2026, MaxMem=  4026531840 cpu:               0.1 elap:               0.0
 (Enter /opt/packages/gaussian/g16RevC.01/g16/l308.exe)
 Leave Link  308 at Wed Jun 24 11:49:44 2026, MaxMem=  4026531840 cpu:               0.1 elap:               0.0
 (Enter /opt/packages/gaussian/g16RevC.01/g16/l401.exe)
 Initial guess from the checkpoint file:  "iminium_singlet.chk"
 B after Tr=    -0.000000   -0.000000    0.000000
         Rot=    1.000000   -0.000017   -0.000009    0.000003 Ang=  -0.00 deg.
 Guess basis will be translated and rotated to current coordinates.
 JPrj=2 DoOrth=T DoCkMO=T.
 Leave Link  401 at Wed Jun 24 11:49:44 2026, MaxMem=  4026531840 cpu:               0.5 elap:               0.1
 (Enter /opt/packages/gaussian/g16RevC.01/g16/l502.exe)
 Integral symmetry usage will be decided dynamically.
 Closed shell SCF:
 Using DIIS extrapolation, IDIIS=  1040.
 NGot=  4026531840 LenX=  4026374748 LenY=  4026298682
 Requested convergence on RMS density matrix=1.00D-08 within 128 cycles.
 Requested convergence on MAX density matrix=1.00D-06.
 Requested convergence on             energy=1.00D-06.
 No special actions if energy rises.
 Fock matrices will be formed incrementally for  20 cycles.

 Cycle   1  Pass 1  IDiag  1:
 FoFJK:  IHMeth= 1 ICntrl=       0 DoSepK=F KAlg= 0 I1Cent=           0 FoldK=F
 IRaf= 880000000 NMat=       1 IRICut=       1 DoRegI=T DoRafI=F ISym2E= 0 IDoP0=0 IntGTp=1.
 FoFCou: FMM=F IPFlag=           0 FMFlag=      100000 FMFlg1=           0
         NFxFlg=           0 DoJE=F BraDBF=F KetDBF=F FulRan=T
         wScrn=  0.000000 ICntrl=         0 IOpCl=  0 I1Cent=           0 NGrid=           0
         NMat0=    1 NMatS0=      1 NMatT0=    0 NMatD0=    1 NMtDS0=    0 NMtDT0=    0
 Symmetry not used in FoFCou.
 Inv3:  Mode=1 IEnd=    12156507.
 Iteration    1 A*A^-1 deviation from unit magnitude is 3.11D-15 for   1473.
 Iteration    1 A*A^-1 deviation from orthogonality  is 1.81D-15 for   1235    181.
 Iteration    1 A^-1*A deviation from unit magnitude is 2.89D-15 for    725.
 Iteration    1 A^-1*A deviation from orthogonality  is 7.05D-15 for    909    882.
 E= -557.408492360064    
 DIIS: error= 1.46D-04 at cycle   1 NSaved=   1.
 NSaved= 1 IEnMin= 1 EnMin= -557.408492360064     IErMin= 1 ErrMin= 1.46D-04
 ErrMax= 1.46D-04  0.00D+00 EMaxC= 1.00D-01 BMatC= 9.19D-06 BMatP= 9.19D-06
 IDIUse=3 WtCom= 9.99D-01 WtEn= 1.46D-03
 Coeff-Com:  0.100D+01
 Coeff-En:   0.100D+01
 Coeff:      0.100D+01
 Gap=     0.410 Goal=   None    Shift=    0.000
 RMSDP=2.98D-04 MaxDP=2.78D-02              OVMax= 9.75D-04

 Cycle   2  Pass 1  IDiag  1:
 RMSU=  2.91D-04    CP:  1.00D+00
 E= -557.408508951353     Delta-E=       -0.000016591289 Rises=F Damp=F
 DIIS: error= 3.39D-05 at cycle   2 NSaved=   2.
 NSaved= 2 IEnMin= 2 EnMin= -557.408508951353     IErMin= 2 ErrMin= 3.39D-05
 ErrMax= 3.39D-05  0.00D+00 EMaxC= 1.00D-01 BMatC= 4.25D-07 BMatP= 9.19D-06
 IDIUse=1 WtCom= 1.00D+00 WtEn= 0.00D+00
 Coeff-Com:  0.169D-01 0.983D+00
 Coeff:      0.169D-01 0.983D+00
 Gap=     0.109 Goal=   None    Shift=    0.000
 RMSDP=5.31D-05 MaxDP=4.92D-03 DE=-1.66D-05 OVMax= 4.36D-04

 Cycle   3  Pass 1  IDiag  1:
 RMSU=  4.40D-05    CP:  1.00D+00  9.42D-01
 E= -557.408508752988     Delta-E=        0.000000198365 Rises=F Damp=F
 DIIS: error= 5.17D-05 at cycle   3 NSaved=   3.
 NSaved= 3 IEnMin= 2 EnMin= -557.408508951353     IErMin= 2 ErrMin= 3.39D-05
 ErrMax= 5.17D-05  0.00D+00 EMaxC= 1.00D-01 BMatC= 8.02D-07 BMatP= 4.25D-07
 IDIUse=1 WtCom= 1.00D+00 WtEn= 0.00D+00
 Coeff-Com: -0.395D-01 0.604D+00 0.436D+00
 Coeff:     -0.395D-01 0.604D+00 0.436D+00
 Gap=     0.109 Goal=   None    Shift=    0.000
 RMSDP=3.16D-05 MaxDP=2.68D-03 DE= 1.98D-07 OVMax= 2.97D-04

 Cycle   4  Pass 1  IDiag  1:
 RMSU=  1.26D-05    CP:  1.00D+00  9.85D-01  5.74D-01
 E= -557.408509437161     Delta-E=       -0.000000684173 Rises=F Damp=F
 DIIS: error= 7.91D-06 at cycle   4 NSaved=   4.
 NSaved= 4 IEnMin= 4 EnMin= -557.408509437161     IErMin= 4 ErrMin= 7.91D-06
 ErrMax= 7.91D-06  0.00D+00 EMaxC= 1.00D-01 BMatC= 3.94D-08 BMatP= 4.25D-07
 IDIUse=1 WtCom= 1.00D+00 WtEn= 0.00D+00
 Coeff-Com: -0.223D-01 0.280D+00 0.250D+00 0.493D+00
 Coeff:     -0.223D-01 0.280D+00 0.250D+00 0.493D+00
 Gap=     0.109 Goal=   None    Shift=    0.000
 RMSDP=6.67D-06 MaxDP=3.90D-04 DE=-6.84D-07 OVMax= 9.43D-05

 Cycle   5  Pass 1  IDiag  1:
 RMSU=  4.71D-06    CP:  1.00D+00  9.89D-01  5.29D-01  7.91D-01
 E= -557.408509469869     Delta-E=       -0.000000032708 Rises=F Damp=F
 DIIS: error= 2.66D-06 at cycle   5 NSaved=   5.
 NSaved= 5 IEnMin= 5 EnMin= -557.408509469869     IErMin= 5 ErrMin= 2.66D-06
 ErrMax= 2.66D-06  0.00D+00 EMaxC= 1.00D-01 BMatC= 4.67D-09 BMatP= 3.94D-08
 IDIUse=1 WtCom= 1.00D+00 WtEn= 0.00D+00
 Coeff-Com: -0.738D-02 0.699D-01 0.771D-01 0.292D+00 0.568D+00
 Coeff:     -0.738D-02 0.699D-01 0.771D-01 0.292D+00 0.568D+00
 Gap=     0.109 Goal=   None    Shift=    0.000
 RMSDP=2.23D-06 MaxDP=1.07D-04 DE=-3.27D-08 OVMax= 2.45D-05

 Cycle   6  Pass 1  IDiag  1:
 RMSU=  1.43D-06    CP:  1.00D+00  9.88D-01  5.52D-01  8.18D-01  7.20D-01
 E= -557.408509474267     Delta-E=       -0.000000004398 Rises=F Damp=F
 DIIS: error= 8.59D-07 at cycle   6 NSaved=   6.
 NSaved= 6 IEnMin= 6 EnMin= -557.408509474267     IErMin= 6 ErrMin= 8.59D-07
 ErrMax= 8.59D-07  0.00D+00 EMaxC= 1.00D-01 BMatC= 3.87D-10 BMatP= 4.67D-09
 IDIUse=1 WtCom= 1.00D+00 WtEn= 0.00D+00
 Coeff-Com: -0.160D-02 0.829D-02 0.153D-01 0.110D+00 0.294D+00 0.574D+00
 Coeff:     -0.160D-02 0.829D-02 0.153D-01 0.110D+00 0.294D+00 0.574D+00
 Gap=     0.109 Goal=   None    Shift=    0.000
 RMSDP=6.35D-07 MaxDP=3.38D-05 DE=-4.40D-09 OVMax= 1.29D-05

 Cycle   7  Pass 1  IDiag  1:
 RMSU=  5.72D-07    CP:  1.00D+00  9.88D-01  5.55D-01  8.26D-01  7.42D-01
                    CP:  9.51D-01
 E= -557.408509474622     Delta-E=       -0.000000000355 Rises=F Damp=F
 DIIS: error= 3.36D-07 at cycle   7 NSaved=   7.
 NSaved= 7 IEnMin= 7 EnMin= -557.408509474622     IErMin= 7 ErrMin= 3.36D-07
 ErrMax= 3.36D-07  0.00D+00 EMaxC= 1.00D-01 BMatC= 6.39D-11 BMatP= 3.87D-10
 IDIUse=1 WtCom= 1.00D+00 WtEn= 0.00D+00
 Coeff-Com:  0.271D-03-0.590D-02-0.369D-02 0.169D-01 0.675D-01 0.321D+00
 Coeff-Com:  0.604D+00
 Coeff:      0.271D-03-0.590D-02-0.369D-02 0.169D-01 0.675D-01 0.321D+00
 Coeff:      0.604D+00
 Gap=     0.109 Goal=   None    Shift=    0.000
 RMSDP=2.81D-07 MaxDP=1.55D-05 DE=-3.55D-10 OVMax= 4.86D-06

 Cycle   8  Pass 1  IDiag  1:
 RMSU=  1.71D-07    CP:  1.00D+00  9.88D-01  5.57D-01  8.34D-01  7.35D-01
                    CP:  9.93D-01  8.23D-01
 E= -557.408509474688     Delta-E=       -0.000000000065 Rises=F Damp=F
 DIIS: error= 7.21D-08 at cycle   8 NSaved=   8.
 NSaved= 8 IEnMin= 8 EnMin= -557.408509474688     IErMin= 8 ErrMin= 7.21D-08
 ErrMax= 7.21D-08  0.00D+00 EMaxC= 1.00D-01 BMatC= 4.40D-12 BMatP= 6.39D-11
 IDIUse=1 WtCom= 1.00D+00 WtEn= 0.00D+00
 Coeff-Com:  0.235D-03-0.352D-02-0.295D-02 0.274D-02 0.159D-01 0.130D+00
 Coeff-Com:  0.313D+00 0.545D+00
 Coeff:      0.235D-03-0.352D-02-0.295D-02 0.274D-02 0.159D-01 0.130D+00
 Coeff:      0.313D+00 0.545D+00
 Gap=     0.109 Goal=   None    Shift=    0.000
 RMSDP=7.26D-08 MaxDP=4.75D-06 DE=-6.54D-11 OVMax= 1.04D-06

 Cycle   9  Pass 1  IDiag  1:
 RMSU=  5.31D-08    CP:  1.00D+00  9.88D-01  5.57D-01  8.35D-01  7.35D-01
                    CP:  9.98D-01  8.75D-01  9.60D-01
 E= -557.408509474694     Delta-E=       -0.000000000006 Rises=F Damp=F
 DIIS: error= 1.96D-08 at cycle   9 NSaved=   9.
 NSaved= 9 IEnMin= 9 EnMin= -557.408509474694     IErMin= 9 ErrMin= 1.96D-08
 ErrMax= 1.96D-08  0.00D+00 EMaxC= 1.00D-01 BMatC= 4.01D-13 BMatP= 4.40D-12
 IDIUse=1 WtCom= 1.00D+00 WtEn= 0.00D+00
 Coeff-Com:  0.758D-04-0.876D-03-0.102D-02-0.990D-03-0.325D-02 0.154D-01
 Coeff-Com:  0.637D-01 0.247D+00 0.680D+00
 Coeff:      0.758D-04-0.876D-03-0.102D-02-0.990D-03-0.325D-02 0.154D-01
 Coeff:      0.637D-01 0.247D+00 0.680D+00
 Gap=     0.109 Goal=   None    Shift=    0.000
 RMSDP=3.00D-08 MaxDP=1.78D-06 DE=-6.03D-12 OVMax= 6.38D-07

 Cycle  10  Pass 1  IDiag  1:
 RMSU=  2.06D-08    CP:  1.00D+00  9.88D-01  5.58D-01  8.36D-01  7.35D-01
                    CP:  1.01D+00  8.87D-01  1.02D+00  9.73D-01
 E= -557.408509474694     Delta-E=       -0.000000000000 Rises=F Damp=F
 DIIS: error= 1.01D-08 at cycle  10 NSaved=  10.
 NSaved=10 IEnMin=10 EnMin= -557.408509474694     IErMin=10 ErrMin= 1.01D-08
 ErrMax= 1.01D-08  0.00D+00 EMaxC= 1.00D-01 BMatC= 5.97D-14 BMatP= 4.01D-13
 IDIUse=1 WtCom= 1.00D+00 WtEn= 0.00D+00
 Coeff-Com:  0.471D-05 0.653D-04-0.110D-03-0.863D-03-0.417D-02-0.110D-01
 Coeff-Com: -0.131D-01 0.456D-01 0.335D+00 0.648D+00
 Coeff:      0.471D-05 0.653D-04-0.110D-03-0.863D-03-0.417D-02-0.110D-01
 Coeff:     -0.131D-01 0.456D-01 0.335D+00 0.648D+00
 Gap=     0.109 Goal=   None    Shift=    0.000
 RMSDP=1.61D-08 MaxDP=1.13D-06 DE=-3.41D-13 OVMax= 3.25D-07

 Cycle  11  Pass 1  IDiag  1:
 RMSU=  8.46D-09    CP:  1.00D+00  9.88D-01  5.58D-01  8.36D-01  7.34D-01
                    CP:  1.01D+00  8.93D-01  1.05D+00  9.74D-01  1.27D+00
 E= -557.408509474683     Delta-E=        0.000000000011 Rises=F Damp=F
 DIIS: error= 3.56D-09 at cycle  11 NSaved=  11.
 NSaved=11 IEnMin=10 EnMin= -557.408509474694     IErMin=11 ErrMin= 3.56D-09
 ErrMax= 3.56D-09  0.00D+00 EMaxC= 1.00D-01 BMatC= 6.32D-15 BMatP= 5.97D-14
 IDIUse=1 WtCom= 1.00D+00 WtEn= 0.00D+00
 Coeff-Com: -0.784D-05 0.145D-03 0.876D-04-0.243D-03-0.136D-02-0.662D-02
 Coeff-Com: -0.133D-01-0.121D-01 0.572D-01 0.291D+00 0.686D+00
 Coeff:     -0.784D-05 0.145D-03 0.876D-04-0.243D-03-0.136D-02-0.662D-02
 Coeff:     -0.133D-01-0.121D-01 0.572D-01 0.291D+00 0.686D+00
 Gap=     0.109 Goal=   None    Shift=    0.000
 RMSDP=5.44D-09 MaxDP=5.11D-07 DE= 1.15D-11 OVMax= 1.33D-07

 Error on total polarization charges =  0.05314
 SCF Done:  E(RB3LYP) =  -557.408509475     A.U. after   11 cycles
            NFock= 11  Conv=0.54D-08     -V/T= 2.0103
 KE= 5.517073098193D+02 PE=-2.780264839646D+03 EE= 9.199886345891D+02
 SMD-CDS (non-electrostatic) energy       (kcal/mol) =      -0.21
 (included in total energy above)
 Leave Link  502 at Wed Jun 24 11:50:07 2026, MaxMem=  4026531840 cpu:             178.7 elap:              22.7
 (Enter /opt/packages/gaussian/g16RevC.01/g16/l801.exe)
 DoSCS=F DFT=T ScalE2(SS,OS)=  1.000000  1.000000
 ExpMin= 4.38D-02 ExpMax= 5.48D+03 ExpMxC= 8.25D+02 IAcc=3 IRadAn=         5 AccDes= 0.00D+00
 HarFok:  IExCor=  205 AccDes= 0.00D+00 IRadAn=         5 IDoV=-2 UseB2=F ITyADJ=14
 ICtDFT= 12500011 ScaDFX=  1.000000  1.000000  1.000000  1.000000
 Largest valence mixing into a core orbital is  5.71D-05
 Largest core mixing into a valence orbital is  1.22D-05
 Range of M.O.s used for correlation:    14   275
 NBasis=   275 NAE=    47 NBE=    47 NFC=    13 NFV=     0
 NROrb=    262 NOA=    34 NOB=    34 NVA=   228 NVB=   228

 **** Warning!!: The largest alpha MO coefficient is  0.23022938D+03

 Leave Link  801 at Wed Jun 24 11:50:07 2026, MaxMem=  4026531840 cpu:               0.7 elap:               0.1
 (Enter /opt/packages/gaussian/g16RevC.01/g16/l914.exe)
 RHF ground state
 Two-electron integrals replicated using symmetry.
 MDV=  4026531840 DFT=T DoStab=F Mixed=T DoRPA=T DoScal=F NonHer=T
 NEqPCM:  Using equilibrium solvation (IEInf=0, Eps=  32.6130, EpsInf=   1.7657)
 Making orbital integer symmetry assigments:
 Orbital symmetries:
       Occupied  (A) (A) (A) (A) (A) (A) (A) (A) (A) (A) (A) (A)
                 (A) (A) (A) (A) (A) (A) (A) (A) (A) (A) (A) (A)
                 (A) (A) (A) (A) (A) (A) (A) (A) (A) (A) (A) (A)
                 (A) (A) (A) (A) (A) (A) (A) (A) (A) (A) (A)
       Virtual   (A) (A) (A) (A) (A) (A) (A) (A) (A) (A) (A) (A)
                 (A) (A) (A) (A) (A) (A) (A) (A) (A) (A) (A) (A)
                 (A) (A) (A) (A) (A) (A) (A) (A) (A) (A) (A) (A)
                 (A) (A) (A) (A) (A) (A) (A) (A) (A) (A) (A) (A)
                 (A) (A) (A) (A) (A) (A) (A) (A) (A) (A) (A) (A)
                 (A) (A) (A) (A) (A) (A) (A) (A) (A) (A) (A) (A)
                 (A) (A) (A) (A) (A) (A) (A) (A) (A) (A) (A) (A)
                 (A) (A) (A) (A) (A) (A) (A) (A) (A) (A) (A) (A)
                 (A) (A) (A) (A) (A) (A) (A) (A) (A) (A) (A) (A)
                 (A) (A) (A) (A) (A) (A) (A) (A) (A) (A) (A) (A)
                 (A) (A) (A) (A) (A) (A) (A) (A) (A) (A) (A) (A)
                 (A) (A) (A) (A) (A) (A) (A) (A) (A) (A) (A) (A)
                 (A) (A) (A) (A) (A) (A) (A) (A) (A) (A) (A) (A)
                 (A) (A) (A) (A) (A) (A) (A) (A) (A) (A) (A) (A)
                 (A) (A) (A) (A) (A) (A) (A) (A) (A) (A) (A) (A)
                 (A) (A) (A) (A) (A) (A) (A) (A) (A) (A) (A) (A)
                 (A) (A) (A) (A) (A) (A) (A) (A) (A) (A) (A) (A)
                 (A) (A) (A) (A) (A) (A) (A) (A) (A) (A) (A) (A)
                 (A) (A) (A) (A) (A) (A) (A) (A) (A) (A) (A) (A)
 Generating guess from densities on rwf.
 Convergence on wavefunction:    0.000001000000000
 Davidson Disk Diagonalization:  ConvIn= 1.00D-06 SkipCon=T Conv= 1.00D-06.
 Max sub-space:  2000 roots to seek:     5 dimension of matrix:        15504
 Iteration     1 Dimension    10 NMult     0 NNew     10
 CISAX will form    10 AO SS matrices at one time.
 NMat=    10 NSing=    10 JSym2X= 0.
 FoFJK:  IHMeth= 1 ICntrl=       0 DoSepK=F KAlg= 0 I1Cent=           0 FoldK=F
 IRaf= 880000000 NMat=      20 IRICut=      25 DoRegI=T DoRafI=T ISym2E= 0 IDoP0=0 IntGTp=1.
 FoFCou: FMM=F IPFlag=           0 FMFlag=      100000 FMFlg1=           0
         NFxFlg=           0 DoJE=F BraDBF=F KetDBF=F FulRan=T
         wScrn=  0.000000 ICntrl=         0 IOpCl=  0 I1Cent=           0 NGrid=           0
         NMat0=   20 NMatS0=     10 NMatT0=    0 NMatD0=   20 NMtDS0=    0 NMtDT0=    0
 Symmetry not used in FoFCou.
 Raff kept on since  88.29% of shell-pairs survive, threshold=   0.20 IRatSp=88.
 Excitation Energies [eV] at current iteration:
 Root      1 :     2.037060346155454
 Root      2 :     3.351404359917657
 Root      3 :     4.746909054447831
 Root      4 :     4.783612668620425
 Root      5 :     5.005428717510905
 Iteration     2 Dimension    20 NMult    10 NNew     10
 CISAX will form    10 AO SS matrices at one time.
 NMat=    10 NSing=    10 JSym2X= 0.
 Root      1 not converged, maximum delta is    0.000447274163922
 Root      2 not converged, maximum delta is    0.000324894183278
 Root      3 not converged, maximum delta is    0.000809618706517
 Root      4 not converged, maximum delta is    0.000437221230326
 Root      5 not converged, maximum delta is    0.001798997805642
 Excitation Energies [eV] at current iteration:
 Root      1 :     2.037009756488839   Change is   -0.000050589666615
 Root      2 :     3.351360396904538   Change is   -0.000043963013119
 Root      3 :     4.746838730930212   Change is   -0.000070323517619
 Root      4 :     4.783591681071830   Change is   -0.000020987548594
 Root      5 :     5.005369561670761   Change is   -0.000059155840144
 Iteration     3 Dimension    30 NMult    20 NNew     10
 CISAX will form    10 AO SS matrices at one time.
 NMat=    10 NSing=    10 JSym2X= 0.
 Root      1 not converged, maximum delta is    0.000035109069730
 Root      2 not converged, maximum delta is    0.000048746943998
 Root      3 not converged, maximum delta is    0.000495883470290
 Root      4 not converged, maximum delta is    0.000530274356456
 Root      5 not converged, maximum delta is    0.005510073008032
 Excitation Energies [eV] at current iteration:
 Root      1 :     2.037009542225993   Change is   -0.000000214262846
 Root      2 :     3.351360218475984   Change is   -0.000000178428554
 Root      3 :     4.746836419332274   Change is   -0.000002311597938
 Root      4 :     4.783590690713042   Change is   -0.000000990358789
 Root      5 :     5.005353156419227   Change is   -0.000016405251534
 Iteration     4 Dimension    40 NMult    30 NNew     10
 CISAX will form    10 AO SS matrices at one time.
 NMat=    10 NSing=    10 JSym2X= 0.
 Root      1 not converged, maximum delta is    0.000008142415860
 Root      2 not converged, maximum delta is    0.000007975950759
 Root      3 not converged, maximum delta is    0.000211014347174
 Root      4 not converged, maximum delta is    0.000099496496968
 Root      5 not converged, maximum delta is    0.001978113330542
 Excitation Energies [eV] at current iteration:
 Root      1 :     2.037009531625712   Change is   -0.000000010600280
 Root      2 :     3.351360214944703   Change is   -0.000000003531281
 Root      3 :     4.746836073496305   Change is   -0.000000345835969
 Root      4 :     4.783590551452710   Change is   -0.000000139260331
 Root      5 :     5.005347077246832   Change is   -0.000006079172395
 Iteration     5 Dimension    50 NMult    40 NNew     10
 CISAX will form    10 AO SS matrices at one time.
 NMat=    10 NSing=    10 JSym2X= 0.
 Root      1 has converged.
 Root      2 not converged, maximum delta is    0.000001141430482
 Root      3 not converged, maximum delta is    0.000057698442258
 Root      4 not converged, maximum delta is    0.000043895477944
 Root      5 not converged, maximum delta is    0.000427367115478
 Excitation Energies [eV] at current iteration:
 Root      1 :     2.037009531210439   Change is   -0.000000000415273
 Root      2 :     3.351360214716480   Change is   -0.000000000228223
 Root      3 :     4.746836037941859   Change is   -0.000000035554446
 Root      4 :     4.783590529056807   Change is   -0.000000022395904
 Root      5 :     5.005346298634707   Change is   -0.000000778612125
 Iteration     6 Dimension    58 NMult    50 NNew      8
 CISAX will form     8 AO SS matrices at one time.
 NMat=     8 NSing=     8 JSym2X= 0.
 Root      1 has converged.
 Root      2 has converged.
 Root      3 not converged, maximum delta is    0.000007650338744
 Root      4 not converged, maximum delta is    0.000006962355745
 Root      5 not converged, maximum delta is    0.000084914817600
 Excitation Energies [eV] at current iteration:
 Root      1 :     2.037009531207775   Change is   -0.000000000002663
 Root      2 :     3.351360214706399   Change is   -0.000000000010082
 Root      3 :     4.746836033957091   Change is   -0.000000003984769
 Root      4 :     4.783590527034558   Change is   -0.000000002022248
 Root      5 :     5.005346192423899   Change is   -0.000000106210807
 Iteration     7 Dimension    64 NMult    58 NNew      6
 CISAX will form     6 AO SS matrices at one time.
 NMat=     6 NSing=     6 JSym2X= 0.
 Root      1 has converged.
 Root      2 has converged.
 Root      3 not converged, maximum delta is    0.000001684211378
 Root      4 has converged.
 Root      5 not converged, maximum delta is    0.000019854077498
 Excitation Energies [eV] at current iteration:
 Root      1 :     2.037009531207211   Change is   -0.000000000000565
 Root      2 :     3.351360214705981   Change is   -0.000000000000417
 Root      3 :     4.746836033595447   Change is   -0.000000000361643
 Root      4 :     4.783590526878224   Change is   -0.000000000156334
 Root      5 :     5.005346182712028   Change is   -0.000000009711871
 Iteration     8 Dimension    68 NMult    64 NNew      4
 CISAX will form     4 AO SS matrices at one time.
 NMat=     4 NSing=     4 JSym2X= 0.
 Root      1 has converged.
 Root      2 has converged.
 Root      3 has converged.
 Root      4 has converged.
 Root      5 not converged, maximum delta is    0.000002592129827
 Excitation Energies [eV] at current iteration:
 Root      1 :     2.037009531206968   Change is   -0.000000000000242
 Root      2 :     3.351360214705810   Change is   -0.000000000000171
 Root      3 :     4.746836033557607   Change is   -0.000000000037840
 Root      4 :     4.783590526870576   Change is   -0.000000000007648
 Root      5 :     5.005346181685056   Change is   -0.000000001026973
 Iteration     9 Dimension    70 NMult    68 NNew      2
 CISAX will form     2 AO SS matrices at one time.
 NMat=     2 NSing=     2 JSym2X= 0.
 Root      1 has converged.
 Root      2 has converged.
 Root      3 has converged.
 Root      4 has converged.
 Root      5 has converged.
 Excitation Energies [eV] at current iteration:
 Root      1 :     2.037009531206766   Change is   -0.000000000000202
 Root      2 :     3.351360214705785   Change is   -0.000000000000025
 Root      3 :     4.746836033555858   Change is   -0.000000000001749
 Root      4 :     4.783590526868583   Change is   -0.000000000001993
 Root      5 :     5.005346181512949   Change is   -0.000000000172107
 Convergence achieved on expansion vectors.
 ***********************************************************************
 Excited states from <AA,BB:AA,BB> singles matrix:
 ***********************************************************************
 
 1PDM for each excited state written to RWF  633
 Ground to excited state transition densities written to RWF  633
 Ground to excited state transition electric dipole moments (Au):
       state          X           Y           Z        Dip. S.      Osc.
         1        -0.0033     -0.0348     -0.0087      0.0013      0.0001
         2         0.1261      0.0083     -0.0097      0.0161      0.0013
         3        -1.0760      0.0606     -0.8077      1.8138      0.2109
         4        -0.3908      1.0016      0.1713      1.1852      0.1389
         5         0.1242      0.0660      0.1593      0.0452      0.0055
 Ground to excited state transition velocity dipole moments (Au):
       state          X           Y           Z        Dip. S.      Osc.
         1        -0.0006      0.0006     -0.0018      0.0000      0.0000
         2        -0.0143     -0.0010      0.0043      0.0002      0.0012
         3         0.1836     -0.0123      0.1392      0.0532      0.2035
         4         0.0708     -0.1758     -0.0301      0.0368      0.1397
         5        -0.0221     -0.0119     -0.0316      0.0016      0.0059
 Ground to excited state transition magnetic dipole moments (Au):
       state          X           Y           Z
         1         0.1473      0.0723      0.0862
         2         0.0808      0.0624      0.0180
         3         0.1997      0.0465     -0.1613
         4        -0.0043     -0.0026      0.0187
         5        -0.2774     -0.1040     -0.2300
 Ground to excited state transition velocity quadrupole moments (Au):
       state          XX          YY          ZZ          XY          XZ          YZ
         1         0.0010      0.0012      0.0100      0.0235      0.0150      0.0024
         2        -0.0314     -0.0059      0.0072     -0.0013     -0.0471      0.0046
         3        -0.7921      0.1569     -0.1266     -0.1691     -0.7573     -0.1201
         4         0.4927     -0.1855      0.0024     -0.5029      0.0790      0.0160
         5         0.3558     -0.0607     -0.0006      0.0087      0.1056      0.0535
 <0|del|b> * <b|rxdel|0> + <0|del|b> * <b|delr+rdel|0>
 Rotatory Strengths (R) in cgs (10**-40 erg-esu-cm/Gauss)
       state          XX          YY          ZZ    R(velocity)    E-M Angle
         1        -0.7753     -0.9270     -0.1275     -0.6099      121.68
         2        -0.1046     -3.2588     -3.1664     -2.1766      137.23
         3      -113.2400     31.8242    136.7482     18.4441       76.90
         4        58.1396    -29.8796    -29.8822     -0.5407       96.24
         5        18.2169     24.0264     14.0558     18.7664       14.69
 1/2[<0|r|b>*<b|rxdel|0> + (<0|rxdel|b>*<b|r|0>)*]
 Rotatory Strengths (R) in cgs (10**-40 erg-esu-cm/Gauss)
       state          XX          YY          ZZ     R(length)
         1         0.3413      1.7780      0.5274      0.8822
         2        -7.2093     -0.3640      0.1232     -2.4834
         3       151.9749     -1.9953    -92.1568     19.2742
         4        -1.1937      1.8675     -2.2608     -0.5290
         5        24.3622      4.8525     25.9137     18.3761
  1/2[<0|del|b>*<b|r|0> + (<0|r|b>*<b|del|0>)*] (Au)
       state          X           Y           Z        Dip. S.   Osc.(frdel)
         1         0.0000     -0.0000      0.0000      0.0000      0.0000
         2        -0.0018     -0.0000     -0.0000      0.0018      0.0012
         3        -0.1976     -0.0007     -0.1124      0.3107      0.2072
         4        -0.0277     -0.1761     -0.0052      0.2089      0.1393
         5        -0.0028     -0.0008     -0.0050      0.0086      0.0057

 Excitation energies and oscillator strengths:
 
 Excited State   1:      Singlet-A      2.0370 eV  608.66 nm  f=0.0001  <S**2>=0.000
      47 -> 48         0.70357
 This state for optimization and/or second-order correction.
 Total Energy, E(TD-HF/TD-DFT) =  -557.333650752    
 Copying the excited state density for this state as the 1-particle RhoCI density.
 
 Excited State   2:      Singlet-A      3.3514 eV  369.95 nm  f=0.0013  <S**2>=0.000
      46 -> 48         0.70679
 
 Excited State   3:      Singlet-A      4.7468 eV  261.19 nm  f=0.2109  <S**2>=0.000
      45 -> 48        -0.68291
      47 -> 49         0.11555
 
 Excited State   4:      Singlet-A      4.7836 eV  259.19 nm  f=0.1389  <S**2>=0.000
      45 -> 48         0.11046
      46 -> 49         0.15347
      46 -> 50        -0.11257
      47 -> 49         0.53389
      47 -> 50         0.39955
 
 Excited State   5:      Singlet-A      5.0053 eV  247.70 nm  f=0.0055  <S**2>=0.000
      43 -> 48        -0.60975
      44 -> 48        -0.31038
 SavETr:  write IOETrn=   770 NScale= 10 NData=  16 NLR=1 NState=    5 LETran=     100.
 The selected state is a singlet.
 CISGrd: IGrad=2 NXY=2 DFT=T
 CISAX will form     1 AO SS matrices at one time.
 NMat=     1 NSing=     1 JSym2X= 0.
 GePol: Maximum number of non-zero 1st derivatives   =     253
 Leave Link  914 at Wed Jun 24 11:52:01 2026, MaxMem=  4026531840 cpu:             903.2 elap:             113.4
 (Enter /opt/packages/gaussian/g16RevC.01/g16/l1002.exe)
 Minotr:  Closed shell wavefunction.
          Computing CIS/TDA/TD derivatives.
          Using Z-Vector for PSCF gradient.
          Skipping F1 and S1 gradient terms here.
          IDoAtm=111111111111111111111111111
 NEqPCM:  Using equilibrium solvation (IEInf=0, Eps=  32.6130, EpsInf=   1.7657)
          Frozen-core window.
          Direct CPHF calculation.
          Differentiating once with respect to electric field.
                with respect to dipole field.
          Differentiating once with respect to nuclear coordinates.
          Requested convergence is 1.0D-10 RMS, and 1.0D-09 maximum.
          NewPWx=F KeepS1=T KeepF1=T KeepIn=T MapXYZ=F SortEE=F KeepMc=T.
 Keep R1 ints in memory in canonical form, NReq=730638089.
 FoFCou: FMM=F IPFlag=           0 FMFlag=           0 FMFlg1=           0
         NFxFlg=           0 DoJE=F BraDBF=F KetDBF=F FulRan=T
         wScrn=  0.000000 ICntrl=       600 IOpCl=  0 I1Cent=           0 NGrid=           0
         NMat0=    1 NMatS0=  37950 NMatT0=    0 NMatD0=    1 NMtDS0=    0 NMtDT0=    0
 Symmetry not used in FoFCou.
 Two-electron integral symmetry not used.
          MDV=    4026531840 using IRadAn=       5.
          Solving linear equations separately, MaxMat=       0.
          There are     1 degrees of freedom in the 1st order CPHF.  IDoFFX=0 NUNeed=     1.
 LinEq1:  Iter=  0 NonCon=     1 RMS=1.16D-02 Max=2.69D-01 NDo=     1
 AX will form     1 AO Fock derivatives at one time.
 LinEq1:  Iter=  1 NonCon=     1 RMS=3.39D-03 Max=1.77D-01 NDo=     1
 LinEq1:  Iter=  2 NonCon=     1 RMS=2.39D-03 Max=4.70D-02 NDo=     1
 LinEq1:  Iter=  3 NonCon=     1 RMS=1.01D-03 Max=3.40D-02 NDo=     1
 LinEq1:  Iter=  4 NonCon=     1 RMS=9.60D-04 Max=4.36D-02 NDo=     1
 LinEq1:  Iter=  5 NonCon=     1 RMS=4.94D-04 Max=1.21D-02 NDo=     1
 LinEq1:  Iter=  6 NonCon=     1 RMS=2.99D-04 Max=1.24D-02 NDo=     1
 LinEq1:  Iter=  7 NonCon=     1 RMS=1.37D-04 Max=5.61D-03 NDo=     1
 LinEq1:  Iter=  8 NonCon=     1 RMS=8.68D-05 Max=4.21D-03 NDo=     1
 LinEq1:  Iter=  9 NonCon=     1 RMS=4.24D-05 Max=1.84D-03 NDo=     1
 LinEq1:  Iter= 10 NonCon=     1 RMS=2.34D-05 Max=6.18D-04 NDo=     1
 LinEq1:  Iter= 11 NonCon=     1 RMS=1.02D-05 Max=2.14D-04 NDo=     1
 LinEq1:  Iter= 12 NonCon=     1 RMS=4.89D-06 Max=1.19D-04 NDo=     1
 LinEq1:  Iter= 13 NonCon=     1 RMS=1.49D-06 Max=3.46D-05 NDo=     1
 LinEq1:  Iter= 14 NonCon=     1 RMS=9.28D-07 Max=2.07D-05 NDo=     1
 LinEq1:  Iter= 15 NonCon=     1 RMS=3.46D-07 Max=1.38D-05 NDo=     1
 LinEq1:  Iter= 16 NonCon=     1 RMS=2.02D-07 Max=5.82D-06 NDo=     1
 LinEq1:  Iter= 17 NonCon=     1 RMS=8.68D-08 Max=2.34D-06 NDo=     1
 LinEq1:  Iter= 18 NonCon=     1 RMS=3.54D-08 Max=5.63D-07 NDo=     1
 LinEq1:  Iter= 19 NonCon=     1 RMS=1.38D-08 Max=2.09D-07 NDo=     1
 LinEq1:  Iter= 20 NonCon=     1 RMS=3.68D-09 Max=8.11D-08 NDo=     1
 LinEq1:  Iter= 21 NonCon=     1 RMS=2.29D-09 Max=3.87D-08 NDo=     1
 LinEq1:  Iter= 22 NonCon=     1 RMS=5.55D-10 Max=1.46D-08 NDo=     1
 LinEq1:  Iter= 23 NonCon=     1 RMS=1.32D-10 Max=3.10D-09 NDo=     1
 LinEq1:  Iter= 24 NonCon=     1 RMS=7.34D-11 Max=1.46D-09 NDo=     1
 LinEq1:  Iter= 25 NonCon=     0 RMS=2.23D-11 Max=4.83D-10 NDo=     1
 Linear equations converged to 1.000D-10 1.000D-09 after    25 iterations.
 End of Minotr F.D. properties file   721 does not exist.
 End of Minotr F.D. properties file   722 does not exist.
 End of Minotr F.D. properties file   788 does not exist.
 Leave Link 1002 at Wed Jun 24 11:52:50 2026, MaxMem=  4026531840 cpu:             314.4 elap:              49.1
 (Enter /opt/packages/gaussian/g16RevC.01/g16/l701.exe)
 ... and contract with generalized density number  6.
 Compute integral first derivatives.
 D1PCM: PCM CHGder 1st derivatives, ID1Alg=3 FixD1E=F DoIter=F DoCFld=F I1PDM=6.
 Leave Link  701 at Wed Jun 24 11:52:52 2026, MaxMem=  4026531840 cpu:              13.5 elap:               1.7
 (Enter /opt/packages/gaussian/g16RevC.01/g16/l702.exe)
 L702 exits ... SP integral derivatives will be done elsewhere.
 Leave Link  702 at Wed Jun 24 11:52:53 2026, MaxMem=  4026531840 cpu:               0.1 elap:               0.0
 (Enter /opt/packages/gaussian/g16RevC.01/g16/l703.exe)
 Integral derivatives from FoFJK, PRISM(SPDF).
 Compute integral first derivatives, UseDBF=F ICtDFT=           0.
 Calling FoFJK, ICntrl=  10005127 FMM=F ISym2X=0 I1Cent= 0 IOpClX= 0 NMat=1 NMatS=1 NMatT=0.
 FoFJK:  IHMeth= 1 ICntrl=10005127 DoSepK=F KAlg= 0 I1Cent=           0 FoldK=F
 IRaf=         0 NMat=       1 IRICut=       1 DoRegI=T DoRafI=F ISym2E= 0 IDoP0=0 IntGTp=1.
 FoFCou: FMM=F IPFlag=           0 FMFlag=      100000 FMFlg1=         800
         NFxFlg=           0 DoJE=F BraDBF=F KetDBF=F FulRan=T
         wScrn=  0.000000 ICntrl=  10005127 IOpCl=  0 I1Cent=           0 NGrid=           0
         NMat0=    1 NMatS0=      1 NMatT0=    0 NMatD0=    1 NMtDS0=    0 NMtDT0=    0
 Symmetry not used in FoFCou.
 Leave Link  703 at Wed Jun 24 11:53:00 2026, MaxMem=  4026531840 cpu:              50.0 elap:               6.3
 (Enter /opt/packages/gaussian/g16RevC.01/g16/l716.exe)
 Dipole        = 2.36672339D+00-4.95100944D-01-3.69230508D-01
 ***** Axes restored to original set *****
 -------------------------------------------------------------------
 Center     Atomic                   Forces (Hartrees/Bohr)
 Number     Number              X              Y              Z
 -------------------------------------------------------------------
      1        6          -0.000038340    0.000065838   -0.000048069
      2        6          -0.000003417   -0.000029713    0.000036198
      3        6          -0.000099190    0.000006037   -0.000044980
      4        6           0.000048071    0.000014014   -0.000039295
      5        6          -0.000046651   -0.000033379    0.000065595
      6        6           0.000050761    0.000013654    0.000008471
      7        1          -0.000008287   -0.000018212   -0.000022847
      8        1          -0.000004608    0.000021098   -0.000008275
      9        1           0.000003351   -0.000000664    0.000026099
     10        1           0.000012711   -0.000016975   -0.000036931
     11        8           0.000034185   -0.000065113    0.000081834
     12        6          -0.000012544    0.000013953   -0.000085497
     13        1           0.000015734    0.000010057    0.000024848
     14        1           0.000008278    0.000035808    0.000020545
     15        1           0.000019695   -0.000008428   -0.000003075
     16        6          -0.000061120   -0.000096462    0.000013947
     17        6           0.000008471    0.000042431   -0.000041932
     18        7           0.000218523   -0.000000080   -0.000190941
     19        6          -0.000139893   -0.000041325    0.000115017
     20        6          -0.000012000    0.000020132   -0.000019073
     21        1           0.000010475    0.000005562    0.000024507
     22        1          -0.000003682    0.000030160    0.000025021
     23        1           0.000027741   -0.000010204    0.000021632
     24        1           0.000040438   -0.000007120   -0.000021428
     25        1           0.000003471   -0.000006754   -0.000001995
     26        1          -0.000006055    0.000003832   -0.000001800
     27        1          -0.000066114    0.000051853    0.000102425
 -------------------------------------------------------------------
 Cartesian Forces:  Max     0.000218523 RMS     0.000052538
 Leave Link  716 at Wed Jun 24 11:53:00 2026, MaxMem=  4026531840 cpu:               0.1 elap:               0.0
 (Enter /opt/packages/gaussian/g16RevC.01/g16/l103.exe)

 GradGradGradGradGradGradGradGradGradGradGradGradGradGradGradGradGradGrad
 Berny optimization.
 Using GEDIIS/GDIIS optimizer.
 FormGI is forming the generalized inverse of G from B-inverse, IUseBI=4.
 GSVD:  received Info=                   1 from GESDD.
 Internal  Forces:  Max     0.000088331 RMS     0.000024351
 Search for a local minimum.
 Step number   5 out of a maximum of  154
 All quantities printed in internal units (Hartrees-Bohrs-Radians)
 RMS Force = .24351D-04 SwitMx=.10000D-02 MixMth= 2
 Mixed Optimization -- En-DIIS/RFO-DIIS
 Swapping is turned off.
 Update second derivatives using D2CorX and points    1    2    3    4    5
 DE= -4.72D-06 DEPred=-2.77D-06 R= 1.71D+00
 TightC=F SS=  1.41D+00  RLast= 2.51D-02 DXNew= 6.2456D-01 7.5319D-02
 Trust test= 1.71D+00 RLast= 2.51D-02 DXMaxT set to 3.71D-01
 ITU=  1  1  1  0  0
     Eigenvalues ---    0.00350   0.00625   0.00940   0.01210   0.01474
     Eigenvalues ---    0.01534   0.01682   0.01805   0.01930   0.01965
     Eigenvalues ---    0.02006   0.02105   0.02199   0.02278   0.02793
     Eigenvalues ---    0.03247   0.03482   0.03936   0.04965   0.05238
     Eigenvalues ---    0.05785   0.06062   0.06913   0.07136   0.07843
     Eigenvalues ---    0.08405   0.09298   0.10137   0.10700   0.10793
     Eigenvalues ---    0.12692   0.15652   0.15966   0.16000   0.16000
     Eigenvalues ---    0.16002   0.16045   0.17571   0.20074   0.21721
     Eigenvalues ---    0.21891   0.22111   0.22946   0.23827   0.24862
     Eigenvalues ---    0.25133   0.26042   0.26821   0.27538   0.30272
     Eigenvalues ---    0.33102   0.33365   0.33991   0.34070   0.34185
     Eigenvalues ---    0.34266   0.34293   0.34486   0.34552   0.34874
     Eigenvalues ---    0.34971   0.35216   0.35246   0.35587   0.35881
     Eigenvalues ---    0.37758   0.39239   0.39528   0.40940   0.41776
     Eigenvalues ---    0.44793   0.46620   0.48209   0.50412   0.64165
 En-DIIS/RFO-DIIS/Sim-DIIS IScMMF=       -3 using points:     5    4    3    2    1
 RFO step:  Lambda=-2.68955786D-06.
 NNeg= 0 NGDIIS= 5 SimSw=  2.50D-01 Rises=F DC= -4.72D-06 SmlDif=  1.00D-05
 NRisDI= 0 DoIntr=F SqrtH=F CThrHd= 10.0 CDAdj=  3.0
 RMS Error=  0.1727273957D-02 NUsed= 5 OKEnD=F EnDIS=F
 InvSVX:  RCond= 5.14D-06 Info=           0 Equed=N FErr=  5.86D-14 BErr=  5.98D-17
 DidBck=F Rises=F RFO-DIIS coefs:    1.69123   -0.54422   -0.11096   -0.04139    0.00534
 Iteration  1 RMS(Cart)=  0.00148373 RMS(Int)=  0.00000453
 Iteration  2 RMS(Cart)=  0.00000320 RMS(Int)=  0.00000310
 Iteration  3 RMS(Cart)=  0.00000000 RMS(Int)=  0.00000310
 ITry= 1 IFail=0 DXMaxC= 6.91D-03 DCOld= 1.00D+10 DXMaxT= 3.71D-01 DXLimC= 3.00D+00 Rises=F
 Variable       Old X    -DE/DX   Delta X   Delta X   Delta X     New X
                                 (Linear)    (Quad)   (Total)
    R1        2.70012   0.00004  -0.00009   0.00018   0.00008   2.70020
    R2        2.71196  -0.00003   0.00042  -0.00034   0.00008   2.71204
    R3        2.48068   0.00007  -0.00020   0.00019  -0.00001   2.48066
    R4        2.59294   0.00005  -0.00013   0.00016   0.00002   2.59297
    R5        2.04775  -0.00001  -0.00001  -0.00003  -0.00004   2.04772
    R6        2.70933  -0.00005   0.00025  -0.00023   0.00001   2.70934
    R7        2.05195  -0.00002   0.00019  -0.00017   0.00001   2.05196
    R8        2.69074  -0.00002  -0.00054   0.00022  -0.00032   2.69042
    R9        2.79035  -0.00002   0.00076  -0.00057   0.00019   2.79054
   R10        2.59151   0.00002   0.00031  -0.00017   0.00013   2.59164
   R11        2.05155  -0.00004   0.00046  -0.00043   0.00003   2.05158
   R12        2.05055  -0.00003   0.00033  -0.00031   0.00002   2.05057
   R13        2.74675   0.00000   0.00073  -0.00046   0.00027   2.74701
   R14        2.06416  -0.00003   0.00007  -0.00016  -0.00008   2.06407
   R15        2.06402  -0.00003   0.00033  -0.00029   0.00004   2.06406
   R16        2.05705   0.00002  -0.00006   0.00008   0.00002   2.05707
   R17        2.85498  -0.00005   0.00058  -0.00054   0.00004   2.85501
   R18        2.63982  -0.00001   0.00142  -0.00072   0.00070   2.64052
   R19        2.92282  -0.00000  -0.00029   0.00007  -0.00022   2.92260
   R20        2.06931   0.00002  -0.00011   0.00013   0.00001   2.06932
   R21        2.08587  -0.00004   0.00022  -0.00028  -0.00006   2.08580
   R22        2.79057   0.00009   0.00090  -0.00012   0.00078   2.79135
   R23        1.91675  -0.00000   0.00066  -0.00040   0.00026   1.91701
   R24        2.91299  -0.00005   0.00017  -0.00037  -0.00019   2.91279
   R25        2.07231  -0.00001   0.00010  -0.00013  -0.00002   2.07228
   R26        2.06853  -0.00003   0.00004  -0.00014  -0.00010   2.06843
   R27        2.07099  -0.00001   0.00025  -0.00018   0.00007   2.07106
   R28        2.06794   0.00000   0.00011  -0.00007   0.00004   2.06797
    A1        2.10723  -0.00001   0.00004  -0.00010  -0.00006   2.10717
    A2        2.17173   0.00006  -0.00023   0.00048   0.00025   2.17198
    A3        2.00422  -0.00004   0.00019  -0.00038  -0.00019   2.00403
    A4        2.06626   0.00002  -0.00026   0.00025  -0.00001   2.06625
    A5        2.10691  -0.00001   0.00038  -0.00026   0.00012   2.10703
    A6        2.11001  -0.00001  -0.00012   0.00001  -0.00011   2.10991
    A7        2.12715  -0.00004   0.00021  -0.00026  -0.00006   2.12709
    A8        2.08531   0.00002  -0.00026   0.00030   0.00004   2.08534
    A9        2.07073   0.00001   0.00006  -0.00004   0.00002   2.07075
   A10        2.07039   0.00003   0.00021  -0.00004   0.00018   2.07057
   A11        2.10721  -0.00000  -0.00019   0.00004  -0.00015   2.10707
   A12        2.10546  -0.00002  -0.00003  -0.00000  -0.00004   2.10543
   A13        2.10894   0.00001  -0.00030   0.00021  -0.00009   2.10885
   A14        2.07577  -0.00001   0.00007  -0.00001   0.00006   2.07583
   A15        2.09847   0.00000   0.00024  -0.00020   0.00004   2.09851
   A16        2.08638  -0.00001   0.00011  -0.00006   0.00005   2.08643
   A17        2.06170  -0.00000   0.00001  -0.00008  -0.00007   2.06164
   A18        2.13509   0.00001  -0.00012   0.00014   0.00002   2.13511
   A19        2.12904   0.00008   0.00001   0.00025   0.00025   2.12930
   A20        1.91079   0.00001   0.00109  -0.00067   0.00042   1.91121
   A21        1.90956  -0.00004  -0.00021  -0.00024  -0.00046   1.90910
   A22        1.82523   0.00002   0.00011  -0.00005   0.00006   1.82528
   A23        1.94519   0.00003   0.00011   0.00019   0.00029   1.94548
   A24        1.93451  -0.00001  -0.00060   0.00045  -0.00015   1.93436
   A25        1.93466  -0.00001  -0.00046   0.00029  -0.00018   1.93448
   A26        2.14250   0.00002   0.00020   0.00014   0.00033   2.14283
   A27        2.07057  -0.00005  -0.00051   0.00017  -0.00035   2.07023
   A28        1.88408   0.00004   0.00013   0.00039   0.00052   1.88460
   A29        1.76770   0.00001  -0.00006  -0.00002  -0.00008   1.76762
   A30        1.96723  -0.00001  -0.00098   0.00046  -0.00052   1.96671
   A31        1.95550  -0.00000   0.00043  -0.00030   0.00013   1.95563
   A32        1.96692  -0.00001   0.00023  -0.00010   0.00013   1.96705
   A33        1.93477   0.00001  -0.00011   0.00025   0.00013   1.93490
   A34        1.87266   0.00000   0.00046  -0.00027   0.00020   1.87285
   A35        1.93572  -0.00007  -0.00091  -0.00011  -0.00103   1.93469
   A36        2.07550   0.00003  -0.00131  -0.00029  -0.00162   2.07388
   A37        2.06423  -0.00001  -0.00171   0.00000  -0.00173   2.06250
   A38        1.82062   0.00003   0.00038   0.00011   0.00049   1.82112
   A39        1.90523  -0.00002  -0.00078   0.00020  -0.00058   1.90465
   A40        1.93454  -0.00003   0.00023  -0.00046  -0.00022   1.93431
   A41        1.95018   0.00000  -0.00007  -0.00009  -0.00015   1.95002
   A42        1.96631   0.00000   0.00012   0.00016   0.00028   1.96659
   A43        1.88636   0.00001   0.00009   0.00006   0.00015   1.88651
   A44        1.82107  -0.00001   0.00001  -0.00020  -0.00019   1.82088
   A45        1.91042  -0.00000  -0.00029   0.00025  -0.00004   1.91038
   A46        1.96489   0.00001  -0.00001   0.00013   0.00012   1.96501
   A47        1.91944   0.00000  -0.00010   0.00008  -0.00002   1.91942
   A48        1.95867   0.00001   0.00054  -0.00038   0.00016   1.95884
   A49        1.88864  -0.00000  -0.00016   0.00012  -0.00004   1.88860
    D1       -0.00058   0.00001  -0.00074   0.00096   0.00022  -0.00036
    D2        3.13969   0.00000   0.00080  -0.00020   0.00060   3.14029
    D3        3.14021  -0.00001  -0.00125   0.00063  -0.00062   3.13959
    D4       -0.00269  -0.00001   0.00028  -0.00053  -0.00025  -0.00294
    D5        0.00309  -0.00001   0.00016  -0.00049  -0.00033   0.00276
    D6       -3.14098   0.00000  -0.00029   0.00028  -0.00001  -3.14099
    D7       -3.13778   0.00001   0.00063  -0.00019   0.00044  -3.13734
    D8        0.00134   0.00001   0.00018   0.00058   0.00076   0.00209
    D9       -0.00821   0.00005   0.00253   0.00036   0.00289  -0.00531
   D10        3.13263   0.00004   0.00204   0.00005   0.00209   3.13472
   D11       -0.00031  -0.00000   0.00086  -0.00066   0.00020  -0.00011
   D12        3.13835   0.00001  -0.00079   0.00081   0.00001   3.13837
   D13       -3.14059   0.00001  -0.00068   0.00051  -0.00017  -3.14076
   D14       -0.00192   0.00001  -0.00233   0.00197  -0.00036  -0.00228
   D15       -0.00121  -0.00001  -0.00042  -0.00010  -0.00052  -0.00172
   D16       -3.12644  -0.00000  -0.00009  -0.00004  -0.00012  -3.12656
   D17       -3.13990  -0.00001   0.00122  -0.00155  -0.00033  -3.14022
   D18        0.01806  -0.00001   0.00155  -0.00149   0.00006   0.01812
   D19        0.00376   0.00001  -0.00018   0.00059   0.00040   0.00416
   D20       -3.13678  -0.00001   0.00204  -0.00171   0.00033  -3.13645
   D21        3.12901   0.00000  -0.00052   0.00053   0.00001   3.12902
   D22       -0.01154  -0.00001   0.00171  -0.00178  -0.00007  -0.01160
   D23        1.11747   0.00003  -0.00025   0.00091   0.00067   1.11814
   D24       -1.33032   0.00000   0.00003  -0.00038  -0.00035  -1.33067
   D25       -2.00743   0.00004   0.00009   0.00098   0.00107  -2.00637
   D26        1.82797   0.00001   0.00036  -0.00032   0.00005   1.82801
   D27       -0.00466  -0.00000   0.00030  -0.00029   0.00001  -0.00466
   D28        3.13951  -0.00001   0.00077  -0.00109  -0.00032   3.13919
   D29        3.13586   0.00001  -0.00196   0.00204   0.00008   3.13595
   D30       -0.00314   0.00001  -0.00148   0.00124  -0.00025  -0.00339
   D31        1.06590  -0.00000  -0.00414   0.00062  -0.00352   1.06239
   D32       -1.07050  -0.00002  -0.00483   0.00098  -0.00385  -1.07435
   D33        3.13951   0.00001  -0.00425   0.00079  -0.00345   3.13606
   D34       -3.06885  -0.00001  -0.00009  -0.00069  -0.00078  -3.06962
   D35        1.10832  -0.00000   0.00015  -0.00078  -0.00064   1.10768
   D36       -1.00604   0.00001  -0.00006  -0.00055  -0.00061  -1.00665
   D37       -0.55828  -0.00001  -0.00056   0.00042  -0.00014  -0.55842
   D38       -2.66429  -0.00001  -0.00033   0.00033  -0.00000  -2.66430
   D39        1.50453   0.00000  -0.00054   0.00056   0.00002   1.50456
   D40        2.88771   0.00002  -0.00020   0.00031   0.00011   2.88782
   D41       -0.91335  -0.00004  -0.00628  -0.00022  -0.00650  -0.91985
   D42        0.34691  -0.00000  -0.00004  -0.00073  -0.00076   0.34615
   D43        2.82903  -0.00006  -0.00611  -0.00126  -0.00737   2.82166
   D44        0.55230  -0.00000   0.00075  -0.00011   0.00064   0.55294
   D45       -1.50133   0.00000   0.00100  -0.00022   0.00078  -1.50055
   D46        2.68063  -0.00000   0.00141  -0.00063   0.00078   2.68142
   D47        2.65854  -0.00001  -0.00034   0.00038   0.00004   2.65858
   D48        0.60491  -0.00000  -0.00009   0.00027   0.00018   0.60509
   D49       -1.49631  -0.00001   0.00032  -0.00014   0.00018  -1.49613
   D50       -1.52544  -0.00001   0.00033   0.00014   0.00048  -1.52496
   D51        2.70412  -0.00000   0.00058   0.00003   0.00061   2.70473
   D52        0.60290  -0.00000   0.00099  -0.00037   0.00062   0.60352
   D53        0.02296   0.00001   0.00045   0.00076   0.00121   0.02417
   D54       -2.06371  -0.00000   0.00070   0.00070   0.00141  -2.06231
   D55        2.14364   0.00001   0.00094   0.00078   0.00172   2.14537
   D56       -2.46390   0.00005   0.00632   0.00141   0.00772  -2.45618
   D57        1.73262   0.00004   0.00657   0.00135   0.00792   1.74054
   D58       -0.34321   0.00005   0.00681   0.00143   0.00824  -0.33498
   D59       -0.36833   0.00000  -0.00078  -0.00036  -0.00114  -0.36947
   D60        1.67909  -0.00000  -0.00116  -0.00013  -0.00129   1.67779
   D61       -2.50076  -0.00000  -0.00107  -0.00018  -0.00125  -2.50201
   D62        1.68770  -0.00000  -0.00152  -0.00010  -0.00161   1.68608
   D63       -2.54807  -0.00001  -0.00190   0.00013  -0.00177  -2.54984
   D64       -0.44473  -0.00001  -0.00181   0.00009  -0.00173  -0.44646
   D65       -2.46783   0.00002  -0.00136   0.00004  -0.00133  -2.46917
   D66       -0.42042   0.00001  -0.00175   0.00026  -0.00148  -0.42190
   D67        1.68292   0.00001  -0.00166   0.00022  -0.00144   1.68148
         Item               Value     Threshold  Converged?
 Maximum Force            0.000088     0.000450     YES
 RMS     Force            0.000024     0.000300     YES
 Maximum Displacement     0.006915     0.001800     NO 
 RMS     Displacement     0.001484     0.001200     NO 
 Predicted change in Energy=-1.325289D-06
 Lowest energy point so far.  Saving SCF results.
 GradGradGradGradGradGradGradGradGradGradGradGradGradGradGradGradGradGrad

 Leave Link  103 at Wed Jun 24 11:53:00 2026, MaxMem=  4026531840 cpu:               0.2 elap:               0.0
 (Enter /opt/packages/gaussian/g16RevC.01/g16/l202.exe)
                          Input orientation:                          
 ---------------------------------------------------------------------
 Center     Atomic      Atomic             Coordinates (Angstroms)
 Number     Number       Type             X           Y           Z
 ---------------------------------------------------------------------
      1          6           0        2.488430    0.184927    0.217911
      2          6           0        1.796883   -0.812545   -0.536098
      3          6           0        0.424810   -0.800682   -0.529627
      4          6           0       -0.320361    0.177579    0.207447
      5          6           0        0.392559    1.159253    0.952437
      6          6           0        1.763871    1.174661    0.962958
      7          1           0        2.331718    1.912584    1.520172
      8          1           0        2.344093   -1.559050   -1.099564
      9          1           0       -0.118759   -1.548686   -1.098922
     10          1           0       -0.166824    1.899414    1.516252
     11          8           0        3.795092    0.282912    0.296940
     12          6           0        4.679987   -0.643942   -0.389370
     13          1           0        4.507688   -0.583005   -1.466232
     14          1           0        4.507949   -1.654989   -0.013596
     15          1           0        5.682619   -0.302746   -0.137851
     16          6           0       -1.796877    0.155306    0.211870
     17          6           0       -2.595895   -0.984035    0.800097
     18          7           0       -2.476572    0.621343   -0.916529
     19          6           0       -3.895216    0.211257   -0.882389
     20          6           0       -4.039271   -0.555028    0.447243
     21          1           0       -2.440068   -1.096741    1.878116
     22          1           0       -2.347079   -1.950948    0.329505
     23          1           0       -4.104399   -0.431346   -1.746013
     24          1           0       -4.553970    1.083476   -0.940289
     25          1           0       -4.421688    0.114793    1.225849
     26          1           0       -4.721951   -1.406121    0.362791
     27          1           0       -2.253017    1.543200   -1.276101
 ---------------------------------------------------------------------
                    Distance matrix (angstroms):
                    1          2          3          4          5
     1  C    0.000000
     2  C    1.428887   0.000000
     3  C    2.405986   1.372140   0.000000
     4  C    2.808820   2.452739   1.433720   0.000000
     5  C    2.425184   2.841804   2.457417   1.423709   0.000000
     6  C    1.435150   2.489427   2.814761   2.430842   1.371439
     7  H    2.169157   3.455521   3.898691   3.430308   2.156426
     8  H    2.190440   1.083606   2.140934   3.438527   3.925349
     9  H    3.396601   2.127994   1.085852   2.174221   3.435470
    10  H    3.416948   3.927214   3.438920   2.168239   1.085650
    11  O    1.312711   2.426276   3.635408   4.117773   3.574197
    12  C    2.420482   2.891754   4.260372   5.102408   4.840868
    13  H    2.739244   2.875118   4.194581   5.166212   5.081310
    14  H    2.741777   2.886624   4.203350   5.169114   5.078347
    15  H    3.250728   3.939218   5.295846   6.032057   5.595615
    16  C    4.285414   3.796222   2.529748   1.476691   2.519916
    17  C    5.249360   4.594706   3.305517   2.622716   3.680727
    18  N    5.111620   4.523625   3.254208   2.471740   3.466164
    19  C    6.477831   5.793797   4.450964   3.737441   4.759233
    20  C    6.573508   5.924016   4.576313   3.797961   4.778608
    21  H    5.356215   4.884767   3.753985   2.984658   3.737668
    22  H    5.287396   4.383794   3.121632   2.941617   4.191301
    23  H    6.906677   6.036086   4.704225   4.301830   5.480353
    24  H    7.193346   6.640151   5.339189   4.478995   5.296820
    25  H    6.983594   6.529551   5.235297   4.226342   4.933824
    26  H    7.385257   6.607233   5.258527   4.680409   5.752133
    27  H    5.153475   4.743293   3.636174   2.793027   3.480355
                    6          7          8          9         10
     6  C    0.000000
     7  H    1.085112   0.000000
     8  H    3.473302   4.349185   0.000000
     9  H    3.900291   4.984465   2.462874   0.000000
    10  H    2.135178   2.498580   5.010805   4.327914   0.000000
    11  O    2.316172   2.508703   2.729184   4.541081   4.449335
    12  C    3.693215   3.961886   2.607335   4.934571   5.795829
    13  H    4.064343   4.458858   2.401719   4.740409   6.075251
    14  H    4.060854   4.451517   2.422974   4.753489   6.068584
    15  H    4.330254   4.345718   3.694448   6.010991   6.465412
    16  C    3.779173   4.673862   4.669744   2.727241   2.720368
    17  C    4.867654   5.761101   5.323799   3.171956   3.837649
    18  N    4.671187   5.542966   5.293999   3.209607   3.589822
    19  C    6.029819   6.887781   6.489232   4.172039   4.743866
    20  C    6.077355   6.915909   6.644397   4.329942   4.707750
    21  H    4.865170   5.652796   5.654069   3.802036   3.778297
    22  H    5.202941   6.183503   4.919645   2.677242   4.581175
    23  H    6.659908   7.588517   6.578196   4.189570   5.619548
    24  H    6.598923   7.358940   7.388612   5.159897   5.093859
    25  H    6.281208   6.994796   7.347454   5.165938   4.623102
    26  H    7.006177   7.880836   7.217398   4.831800   5.745104
    27  H    4.613523   5.382879   5.548742   3.761145   3.503759
                   11         12         13         14         15
    11  O    0.000000
    12  C    1.453657   0.000000
    13  H    2.089588   1.092260   0.000000
    14  H    2.088075   1.092254   1.805354   0.000000
    15  H    2.023560   1.088553   1.795439   1.795509   0.000000
    16  C    5.594071   6.553629   6.565719   6.563446   7.501665
    17  C    6.534756   7.380309   7.467126   7.181704   8.359288
    18  N    6.396938   7.286644   7.108623   7.401386   8.248192
    19  C    7.780539   8.631833   8.460527   8.651639   9.620471
    20  C    7.880481   8.759754   8.758578   8.630021   9.742748
    21  H    6.578812   7.486100   7.727865   7.222544   8.406699
    22  H    6.535858   7.183641   7.216908   6.869986   8.210422
    23  H    8.190591   8.891069   8.617965   8.869673   9.919095
    24  H    8.478117   9.410284   9.228620   9.511904  10.361142
    25  H    8.270828   9.274971   9.352431   9.187315  10.204461
    26  H    8.683155   9.462721   9.445055   9.240922  10.474882
    27  H    6.375140   7.323689   7.089713   7.585050   8.226630
                   16         17         18         19         20
    16  C    0.000000
    17  C    1.510808   0.000000
    18  N    1.397304   2.353355   0.000000
    19  C    2.367184   2.438794   1.477121   0.000000
    20  C    2.363960   1.546573   2.384481   1.541384   0.000000
    21  H    2.181214   1.095038   3.280729   3.383593   2.213210
    22  H    2.180106   1.103760   2.861127   2.922421   2.196809
    23  H    3.082551   3.010602   2.108559   1.096605   2.197706
    24  H    3.128982   3.337304   2.128312   1.094566   2.207907
    25  H    2.814148   2.173064   2.937660   2.175119   1.095960
    26  H    3.319170   2.211222   3.284661   2.202243   1.094323
    27  H    2.085275   3.288629   1.014440   2.150791   3.250105
                   21         22         23         24         25
    21  H    0.000000
    22  H    1.771019   0.000000
    23  H    4.043149   3.115307   0.000000
    24  H    4.143107   3.961120   1.773694   0.000000
    25  H    2.412485   3.061816   3.038240   2.376551   0.000000
    26  H    2.756613   2.436793   2.403873   2.815018   1.774319
    27  H    4.117446   3.846542   2.747229   2.370338   3.605999
                   26         27
    26  H    0.000000
    27  H    4.180920   0.000000
 Stoichiometry    C11H14NO(1+)
 Framework group  C1[X(C11H14NO)]
 Deg. of freedom    75
 Full point group                 C1      NOp   1
 RotChk:  IX=0 Diff= 1.49D-03
 Largest Abelian subgroup         C1      NOp   1
 Largest concise Abelian subgroup C1      NOp   1
                         Standard orientation:                         
 ---------------------------------------------------------------------
 Center     Atomic      Atomic             Coordinates (Angstroms)
 Number     Number       Type             X           Y           Z
 ---------------------------------------------------------------------
      1          6           0        2.485287    0.232182    0.008783
      2          6           0        1.775015   -1.005992   -0.055694
      3          6           0        0.403343   -0.972659   -0.042573
      4          6           0       -0.323277    0.260947    0.033537
      5          6           0        0.408115    1.480668    0.099084
      6          6           0        1.779480    1.479457    0.084920
      7          1           0        2.361161    2.394303    0.131536
      8          1           0        2.308055   -1.947600   -0.114388
      9          1           0       -0.154329   -1.902952   -0.093873
     10          1           0       -0.137130    2.417375    0.161722
     11          8           0        3.793673    0.338624    0.006289
     12          6           0        4.661165   -0.826057   -0.057694
     13          1           0        4.471241   -1.371756   -0.984609
     14          1           0        4.489153   -1.454774    0.818746
     15          1           0        5.669973   -0.417182   -0.048964
     16          6           0       -1.799622    0.266288    0.065036
     17          6           0       -2.595755   -0.341815    1.195931
     18          7           0       -2.495203    0.035916   -1.124735
     19          6           0       -3.915601   -0.265327   -0.853427
     20          6           0       -4.042139   -0.160621    0.679182
     21          1           0       -2.422602    0.161747    2.152776
     22          1           0       -2.360877   -1.410611    1.340131
     23          1           0       -4.143213   -1.276551   -1.211425
     24          1           0       -4.569791    0.436828   -1.379821
     25          1           0       -4.407287    0.834513    0.957578
     26          1           0       -4.731421   -0.904948    1.089559
     27          1           0       -2.271966    0.598780   -1.938638
 ---------------------------------------------------------------------
 Rotational constants (GHZ):           2.7030571           0.3412452           0.3294669
 Leave Link  202 at Wed Jun 24 11:53:00 2026, MaxMem=  4026531840 cpu:               0.0 elap:               0.0
 (Enter /opt/packages/gaussian/g16RevC.01/g16/l301.exe)
 Standard basis: 6-31+G(d) (6D, 7F)
 Ernie: Thresh=  0.10000D-02 Tol=  0.10000D-05 Strict=F.
 There are   275 symmetry adapted cartesian basis functions of A   symmetry.
 There are   275 symmetry adapted basis functions of A   symmetry.
   275 basis functions,   472 primitive gaussians,   275 cartesian basis functions
    47 alpha electrons       47 beta electrons
       nuclear repulsion energy       751.1344065474 Hartrees.
 IExCor=  402 DFT=T Ex+Corr=B3LYP ExCW=0 ScaHFX=  0.200000
 ScaDFX=  0.800000  0.720000  1.000000  0.810000 ScalE2=  1.000000  1.000000
 IRadAn=      5 IRanWt=     -1 IRanGd=            0 ICorTp=0 IEmpDi=  4
 NAtoms=   27 NActive=   27 NUniq=   27 SFac= 1.00D+00 NAtFMM=   60 NAOKFM=F Big=F
 Integral buffers will be    131072 words long.
 Regular integral format.
 Two-electron integral symmetry is turned on.
 ------------------------------------------------------------------------------
 Polarizable Continuum Model (PCM)
 =================================
 Model                : PCM.
 Atomic radii         : SMD-Coulomb.
 Polarization charges : Total charges.
 Charge compensation  : None.
 Solution method      : On-the-fly selection.
 Cavity type          : VdW (van der Waals Surface) (Alpha=1.000).
 Cavity algorithm     : GePol (No added spheres)
                        Default sphere list used, NSphG=   27.
                        Lebedev-Laikov grids with approx.  5.0 points / Ang**2.
                        Smoothing algorithm: York/Karplus (Gamma=1.0000).
                        Polarization charges: spherical gaussians, with
                                              point-specific exponents (IZeta= 3).
                        Self-potential: point-specific (ISelfS= 7).
                        Self-field    : sphere-specific E.n sum rule (ISelfD= 2).
 1st derivatives      : Analytical E(r).r(x)/FMM algorithm (CHGder, D1EAlg=3).
                        Cavity 1st derivative terms included.
 Solvent              : Methanol, Eps=  32.613000 Eps(inf)=   1.765709
 ------------------------------------------------------------------------------
 GePol: Number of generator spheres                  =      27
 GePol: Total number of spheres                      =      27
 GePol: Number of exposed spheres                    =      27 (100.00%)
 GePol: Number of points                             =    2016
 GePol: Average weight of points                     =       0.11
 GePol: Minimum weight of points                     =   0.22D-11
 GePol: Maximum weight of points                     =    0.21991
 GePol: Number of points with low weight             =     111
 GePol: Fraction of low-weight points (<1% of avg)   =       5.51%
 GePol: Cavity surface area                          =    220.839 Ang**2
 GePol: Cavity volume                                =    193.975 Ang**3
 ------------------------------------------------------------------------------
 Atomic radii for non-electrostatic terms: SMD-CDS.
 ------------------------------------------------------------------------------
 PCM non-electrostatic energy =        -0.0003308505 Hartrees.
 Nuclear repulsion after PCM non-electrostatic terms =      751.1340756968 Hartrees.
 Leave Link  301 at Wed Jun 24 11:53:00 2026, MaxMem=  4026531840 cpu:               0.3 elap:               0.1
 (Enter /opt/packages/gaussian/g16RevC.01/g16/l302.exe)
 NPDir=0 NMtPBC=     1 NCelOv=     1 NCel=       1 NClECP=     1 NCelD=      1
         NCelK=      1 NCelE2=     1 NClLst=     1 CellRange=     0.0.
 One-electron integrals computed using PRISM.
 One-electron integral symmetry used in STVInt
 NBasis=   275 RedAO= T EigKep=  1.39D-06  NBF=   275
 NBsUse=   275 1.00D-06 EigRej= -1.00D+00 NBFU=   275
 Precomputing XC quadrature grid using
 IXCGrd= 4 IRadAn=           5 IRanWt=          -1 IRanGd=           0 AccXCQ= 0.00D+00.
 Generated NRdTot=       0 NPtTot=           0 NUsed=           0 NTot=          32
 NSgBfM=   274   274   274   274   274 MxSgAt=    27 MxSgA2=    27.
 Leave Link  302 at Wed Jun 24 11:53:00 2026, MaxMem=  4026531840 cpu:               1.4 elap:               0.2
 (Enter /opt/packages/gaussian/g16RevC.01/g16/l303.exe)
 DipDrv:  MaxL=1.
 Leave Link  303 at Wed Jun 24 11:53:00 2026, MaxMem=  4026531840 cpu:               0.1 elap:               0.0
 (Enter /opt/packages/gaussian/g16RevC.01/g16/l308.exe)
 Leave Link  308 at Wed Jun 24 11:53:00 2026, MaxMem=  4026531840 cpu:               0.1 elap:               0.0
 (Enter /opt/packages/gaussian/g16RevC.01/g16/l401.exe)
 Initial guess from the checkpoint file:  "iminium_singlet.chk"
 B after Tr=     0.000000   -0.000000   -0.000000
         Rot=    1.000000    0.000509    0.000006   -0.000014 Ang=   0.06 deg.
 Guess basis will be translated and rotated to current coordinates.
 JPrj=2 DoOrth=T DoCkMO=T.
 Leave Link  401 at Wed Jun 24 11:53:00 2026, MaxMem=  4026531840 cpu:               0.6 elap:               0.1
 (Enter /opt/packages/gaussian/g16RevC.01/g16/l502.exe)
 Integral symmetry usage will be decided dynamically.
 Closed shell SCF:
 Using DIIS extrapolation, IDIIS=  1040.
 NGot=  4026531840 LenX=  4026374748 LenY=  4026298682
 Requested convergence on RMS density matrix=1.00D-08 within 128 cycles.
 Requested convergence on MAX density matrix=1.00D-06.
 Requested convergence on             energy=1.00D-06.
 No special actions if energy rises.
 Fock matrices will be formed incrementally for  20 cycles.

 Cycle   1  Pass 1  IDiag  1:
 FoFJK:  IHMeth= 1 ICntrl=       0 DoSepK=F KAlg= 0 I1Cent=           0 FoldK=F
 IRaf= 880000000 NMat=       1 IRICut=       1 DoRegI=T DoRafI=F ISym2E= 0 IDoP0=0 IntGTp=1.
 FoFCou: FMM=F IPFlag=           0 FMFlag=      100000 FMFlg1=           0
         NFxFlg=           0 DoJE=F BraDBF=F KetDBF=F FulRan=T
         wScrn=  0.000000 ICntrl=         0 IOpCl=  0 I1Cent=           0 NGrid=           0
         NMat0=    1 NMatS0=      1 NMatT0=    0 NMatD0=    1 NMtDS0=    0 NMtDT0=    0
 Symmetry not used in FoFCou.
 Inv3:  Mode=1 IEnd=    12192768.
 Iteration    1 A*A^-1 deviation from unit magnitude is 3.00D-15 for   1661.
 Iteration    1 A*A^-1 deviation from orthogonality  is 2.46D-15 for    974    238.
 Iteration    1 A^-1*A deviation from unit magnitude is 2.78D-15 for   1661.
 Iteration    1 A^-1*A deviation from orthogonality  is 1.36D-14 for    949    882.
 E= -557.408302117040    
 DIIS: error= 1.04D-04 at cycle   1 NSaved=   1.
 NSaved= 1 IEnMin= 1 EnMin= -557.408302117040     IErMin= 1 ErrMin= 1.04D-04
 ErrMax= 1.04D-04  0.00D+00 EMaxC= 1.00D-01 BMatC= 4.46D-06 BMatP= 4.46D-06
 IDIUse=3 WtCom= 9.99D-01 WtEn= 1.04D-03
 Coeff-Com:  0.100D+01
 Coeff-En:   0.100D+01
 Coeff:      0.100D+01
 Gap=     0.410 Goal=   None    Shift=    0.000
 RMSDP=3.17D-04 MaxDP=3.61D-02              OVMax= 8.04D-04

 Cycle   2  Pass 1  IDiag  1:
 RMSU=  3.04D-04    CP:  1.00D+00
 E= -557.408309963508     Delta-E=       -0.000007846469 Rises=F Damp=F
 DIIS: error= 1.24D-05 at cycle   2 NSaved=   2.
 NSaved= 2 IEnMin= 2 EnMin= -557.408309963508     IErMin= 2 ErrMin= 1.24D-05
 ErrMax= 1.24D-05  0.00D+00 EMaxC= 1.00D-01 BMatC= 9.22D-08 BMatP= 4.46D-06
 IDIUse=1 WtCom= 1.00D+00 WtEn= 0.00D+00
 Coeff-Com: -0.273D-01 0.103D+01
 Coeff:     -0.273D-01 0.103D+01
 Gap=     0.109 Goal=   None    Shift=    0.000
 RMSDP=2.55D-05 MaxDP=2.51D-03 DE=-7.85D-06 OVMax= 1.73D-04

 Cycle   3  Pass 1  IDiag  1:
 RMSU=  2.40D-05    CP:  1.00D+00  1.00D+00
 E= -557.408310021798     Delta-E=       -0.000000058290 Rises=F Damp=F
 DIIS: error= 1.81D-05 at cycle   3 NSaved=   3.
 NSaved= 3 IEnMin= 3 EnMin= -557.408310021798     IErMin= 2 ErrMin= 1.24D-05
 ErrMax= 1.81D-05  0.00D+00 EMaxC= 1.00D-01 BMatC= 8.74D-08 BMatP= 9.22D-08
 IDIUse=1 WtCom= 1.00D+00 WtEn= 0.00D+00
 Coeff-Com: -0.341D-01 0.520D+00 0.514D+00
 Coeff:     -0.341D-01 0.520D+00 0.514D+00
 Gap=     0.109 Goal=   None    Shift=    0.000
 RMSDP=1.30D-05 MaxDP=1.46D-03 DE=-5.83D-08 OVMax= 7.67D-05

 Cycle   4  Pass 1  IDiag  1:
 RMSU=  5.77D-06    CP:  1.00D+00  1.02D+00  6.85D-01
 E= -557.408310095242     Delta-E=       -0.000000073444 Rises=F Damp=F
 DIIS: error= 4.34D-06 at cycle   4 NSaved=   4.
 NSaved= 4 IEnMin= 4 EnMin= -557.408310095242     IErMin= 4 ErrMin= 4.34D-06
 ErrMax= 4.34D-06  0.00D+00 EMaxC= 1.00D-01 BMatC= 8.54D-09 BMatP= 8.74D-08
 IDIUse=1 WtCom= 1.00D+00 WtEn= 0.00D+00
 Coeff-Com: -0.146D-01 0.185D+00 0.279D+00 0.550D+00
 Coeff:     -0.146D-01 0.185D+00 0.279D+00 0.550D+00
 Gap=     0.109 Goal=   None    Shift=    0.000
 RMSDP=3.30D-06 MaxDP=2.44D-04 DE=-7.34D-08 OVMax= 4.45D-05

 Cycle   5  Pass 1  IDiag  1:
 RMSU=  2.37D-06    CP:  1.00D+00  1.01D+00  6.74D-01  8.45D-01
 E= -557.408310101549     Delta-E=       -0.000000006306 Rises=F Damp=F
 DIIS: error= 1.66D-06 at cycle   5 NSaved=   5.
 NSaved= 5 IEnMin= 5 EnMin= -557.408310101549     IErMin= 5 ErrMin= 1.66D-06
 ErrMax= 1.66D-06  0.00D+00 EMaxC= 1.00D-01 BMatC= 1.58D-09 BMatP= 8.54D-09
 IDIUse=1 WtCom= 1.00D+00 WtEn= 0.00D+00
 Coeff-Com: -0.579D-02 0.557D-01 0.116D+00 0.354D+00 0.481D+00
 Coeff:     -0.579D-02 0.557D-01 0.116D+00 0.354D+00 0.481D+00
 Gap=     0.109 Goal=   None    Shift=    0.000
 RMSDP=1.09D-06 MaxDP=6.39D-05 DE=-6.31D-09 OVMax= 1.45D-05

 Cycle   6  Pass 1  IDiag  1:
 RMSU=  8.59D-07    CP:  1.00D+00  1.02D+00  6.92D-01  8.41D-01  8.38D-01
 E= -557.408310102919     Delta-E=       -0.000000001370 Rises=F Damp=F
 DIIS: error= 3.54D-07 at cycle   6 NSaved=   6.
 NSaved= 6 IEnMin= 6 EnMin= -557.408310102919     IErMin= 6 ErrMin= 3.54D-07
 ErrMax= 3.54D-07  0.00D+00 EMaxC= 1.00D-01 BMatC= 8.67D-11 BMatP= 1.58D-09
 IDIUse=1 WtCom= 1.00D+00 WtEn= 0.00D+00
 Coeff-Com: -0.375D-03-0.147D-02 0.128D-01 0.921D-01 0.226D+00 0.671D+00
 Coeff:     -0.375D-03-0.147D-02 0.128D-01 0.921D-01 0.226D+00 0.671D+00
 Gap=     0.109 Goal=   None    Shift=    0.000
 RMSDP=3.32D-07 MaxDP=1.81D-05 DE=-1.37D-09 OVMax= 5.21D-06

 Cycle   7  Pass 1  IDiag  1:
 RMSU=  2.80D-07    CP:  1.00D+00  1.02D+00  6.93D-01  8.47D-01  8.37D-01
                    CP:  8.49D-01
 E= -557.408310103010     Delta-E=       -0.000000000090 Rises=F Damp=F
 DIIS: error= 2.05D-07 at cycle   7 NSaved=   7.
 NSaved= 7 IEnMin= 7 EnMin= -557.408310103010     IErMin= 7 ErrMin= 2.05D-07
 ErrMax= 2.05D-07  0.00D+00 EMaxC= 1.00D-01 BMatC= 2.48D-11 BMatP= 8.67D-11
 IDIUse=1 WtCom= 1.00D+00 WtEn= 0.00D+00
 Coeff-Com:  0.273D-03-0.581D-02-0.278D-02 0.260D-01 0.868D-01 0.417D+00
 Coeff-Com:  0.479D+00
 Coeff:      0.273D-03-0.581D-02-0.278D-02 0.260D-01 0.868D-01 0.417D+00
 Coeff:      0.479D+00
 Gap=     0.109 Goal=   None    Shift=    0.000
 RMSDP=1.23D-07 MaxDP=6.66D-06 DE=-9.04D-11 OVMax= 2.57D-06

 Cycle   8  Pass 1  IDiag  1:
 RMSU=  7.85D-08    CP:  1.00D+00  1.02D+00  6.94D-01  8.47D-01  8.26D-01
                    CP:  8.93D-01  8.22D-01
 E= -557.408310103033     Delta-E=       -0.000000000024 Rises=F Damp=F
 DIIS: error= 3.48D-08 at cycle   8 NSaved=   8.
 NSaved= 8 IEnMin= 8 EnMin= -557.408310103033     IErMin= 8 ErrMin= 3.48D-08
 ErrMax= 3.48D-08  0.00D+00 EMaxC= 1.00D-01 BMatC= 9.54D-13 BMatP= 2.48D-11
 IDIUse=1 WtCom= 1.00D+00 WtEn= 0.00D+00
 Coeff-Com:  0.157D-03-0.258D-02-0.253D-02 0.516D-02 0.158D-01 0.141D+00
 Coeff-Com:  0.212D+00 0.630D+00
 Coeff:      0.157D-03-0.258D-02-0.253D-02 0.516D-02 0.158D-01 0.141D+00
 Coeff:      0.212D+00 0.630D+00
 Gap=     0.109 Goal=   None    Shift=    0.000
 RMSDP=3.34D-08 MaxDP=2.37D-06 DE=-2.36D-11 OVMax= 4.23D-07

 Cycle   9  Pass 1  IDiag  1:
 RMSU=  2.22D-08    CP:  1.00D+00  1.02D+00  6.94D-01  8.48D-01  8.26D-01
                    CP:  9.01D-01  8.74D-01  9.20D-01
 E= -557.408310103033     Delta-E=       -0.000000000000 Rises=F Damp=F
 DIIS: error= 1.39D-08 at cycle   9 NSaved=   9.
 NSaved= 9 IEnMin= 9 EnMin= -557.408310103033     IErMin= 9 ErrMin= 1.39D-08
 ErrMax= 1.39D-08  0.00D+00 EMaxC= 1.00D-01 BMatC= 1.76D-13 BMatP= 9.54D-13
 IDIUse=1 WtCom= 1.00D+00 WtEn= 0.00D+00
 Coeff-Com:  0.571D-04-0.797D-03-0.120D-02 0.505D-04-0.310D-02 0.322D-01
 Coeff-Com:  0.598D-01 0.352D+00 0.561D+00
 Coeff:      0.571D-04-0.797D-03-0.120D-02 0.505D-04-0.310D-02 0.322D-01
 Coeff:      0.598D-01 0.352D+00 0.561D+00
 Gap=     0.109 Goal=   None    Shift=    0.000
 RMSDP=1.23D-08 MaxDP=7.13D-07 DE=-1.14D-13 OVMax= 1.23D-07

 Cycle  10  Pass 1  IDiag  1:
 RMSU=  5.95D-09    CP:  1.00D+00  1.02D+00  6.94D-01  8.48D-01  8.26D-01
                    CP:  9.07D-01  8.67D-01  9.56D-01  7.73D-01
 E= -557.408310103038     Delta-E=       -0.000000000005 Rises=F Damp=F
 DIIS: error= 3.94D-09 at cycle  10 NSaved=  10.
 NSaved=10 IEnMin=10 EnMin= -557.408310103038     IErMin=10 ErrMin= 3.94D-09
 ErrMax= 3.94D-09  0.00D+00 EMaxC= 1.00D-01 BMatC= 1.05D-14 BMatP= 1.76D-13
 IDIUse=1 WtCom= 1.00D+00 WtEn= 0.00D+00
 Coeff-Com:  0.804D-05-0.619D-04-0.252D-03-0.407D-03-0.358D-02-0.962D-03
 Coeff-Com:  0.125D-02 0.818D-01 0.235D+00 0.687D+00
 Coeff:      0.804D-05-0.619D-04-0.252D-03-0.407D-03-0.358D-02-0.962D-03
 Coeff:      0.125D-02 0.818D-01 0.235D+00 0.687D+00
 Gap=     0.109 Goal=   None    Shift=    0.000
 RMSDP=3.96D-09 MaxDP=2.46D-07 DE=-4.89D-12 OVMax= 4.60D-08

 Error on total polarization charges =  0.05314
 SCF Done:  E(RB3LYP) =  -557.408310103     A.U. after   10 cycles
            NFock= 10  Conv=0.40D-08     -V/T= 2.0103
 KE= 5.517063210358D+02 PE=-2.780211882649D+03 EE= 9.199631758133D+02
 SMD-CDS (non-electrostatic) energy       (kcal/mol) =      -0.21
 (included in total energy above)
 Leave Link  502 at Wed Jun 24 11:53:23 2026, MaxMem=  4026531840 cpu:             173.8 elap:              22.3
 (Enter /opt/packages/gaussian/g16RevC.01/g16/l801.exe)
 DoSCS=F DFT=T ScalE2(SS,OS)=  1.000000  1.000000
 ExpMin= 4.38D-02 ExpMax= 5.48D+03 ExpMxC= 8.25D+02 IAcc=3 IRadAn=         5 AccDes= 0.00D+00
 HarFok:  IExCor=  205 AccDes= 0.00D+00 IRadAn=         5 IDoV=-2 UseB2=F ITyADJ=14
 ICtDFT= 12500011 ScaDFX=  1.000000  1.000000  1.000000  1.000000
 Largest valence mixing into a core orbital is  5.71D-05
 Largest core mixing into a valence orbital is  1.22D-05
 Range of M.O.s used for correlation:    14   275
 NBasis=   275 NAE=    47 NBE=    47 NFC=    13 NFV=     0
 NROrb=    262 NOA=    34 NOB=    34 NVA=   228 NVB=   228

 **** Warning!!: The largest alpha MO coefficient is  0.23007681D+03

 Leave Link  801 at Wed Jun 24 11:53:23 2026, MaxMem=  4026531840 cpu:               0.7 elap:               0.1
 (Enter /opt/packages/gaussian/g16RevC.01/g16/l914.exe)
 RHF ground state
 Two-electron integrals replicated using symmetry.
 MDV=  4026531840 DFT=T DoStab=F Mixed=T DoRPA=T DoScal=F NonHer=T
 NEqPCM:  Using equilibrium solvation (IEInf=0, Eps=  32.6130, EpsInf=   1.7657)
 Making orbital integer symmetry assigments:
 Orbital symmetries:
       Occupied  (A) (A) (A) (A) (A) (A) (A) (A) (A) (A) (A) (A)
                 (A) (A) (A) (A) (A) (A) (A) (A) (A) (A) (A) (A)
                 (A) (A) (A) (A) (A) (A) (A) (A) (A) (A) (A) (A)
                 (A) (A) (A) (A) (A) (A) (A) (A) (A) (A) (A)
       Virtual   (A) (A) (A) (A) (A) (A) (A) (A) (A) (A) (A) (A)
                 (A) (A) (A) (A) (A) (A) (A) (A) (A) (A) (A) (A)
                 (A) (A) (A) (A) (A) (A) (A) (A) (A) (A) (A) (A)
                 (A) (A) (A) (A) (A) (A) (A) (A) (A) (A) (A) (A)
                 (A) (A) (A) (A) (A) (A) (A) (A) (A) (A) (A) (A)
                 (A) (A) (A) (A) (A) (A) (A) (A) (A) (A) (A) (A)
                 (A) (A) (A) (A) (A) (A) (A) (A) (A) (A) (A) (A)
                 (A) (A) (A) (A) (A) (A) (A) (A) (A) (A) (A) (A)
                 (A) (A) (A) (A) (A) (A) (A) (A) (A) (A) (A) (A)
                 (A) (A) (A) (A) (A) (A) (A) (A) (A) (A) (A) (A)
                 (A) (A) (A) (A) (A) (A) (A) (A) (A) (A) (A) (A)
                 (A) (A) (A) (A) (A) (A) (A) (A) (A) (A) (A) (A)
                 (A) (A) (A) (A) (A) (A) (A) (A) (A) (A) (A) (A)
                 (A) (A) (A) (A) (A) (A) (A) (A) (A) (A) (A) (A)
                 (A) (A) (A) (A) (A) (A) (A) (A) (A) (A) (A) (A)
                 (A) (A) (A) (A) (A) (A) (A) (A) (A) (A) (A) (A)
                 (A) (A) (A) (A) (A) (A) (A) (A) (A) (A) (A) (A)
                 (A) (A) (A) (A) (A) (A) (A) (A) (A) (A) (A) (A)
                 (A) (A) (A) (A) (A) (A) (A) (A) (A) (A) (A) (A)
 Generating guess from densities on rwf.
 Convergence on wavefunction:    0.000001000000000
 Davidson Disk Diagonalization:  ConvIn= 1.00D-06 SkipCon=T Conv= 1.00D-06.
 Max sub-space:  2000 roots to seek:     5 dimension of matrix:        15504
 Iteration     1 Dimension    10 NMult     0 NNew     10
 CISAX will form    10 AO SS matrices at one time.
 NMat=    10 NSing=    10 JSym2X= 0.
 FoFJK:  IHMeth= 1 ICntrl=       0 DoSepK=F KAlg= 0 I1Cent=           0 FoldK=F
 IRaf= 880000000 NMat=      20 IRICut=      25 DoRegI=T DoRafI=T ISym2E= 0 IDoP0=0 IntGTp=1.
 FoFCou: FMM=F IPFlag=           0 FMFlag=      100000 FMFlg1=           0
         NFxFlg=           0 DoJE=F BraDBF=F KetDBF=F FulRan=T
         wScrn=  0.000000 ICntrl=         0 IOpCl=  0 I1Cent=           0 NGrid=           0
         NMat0=   20 NMatS0=     10 NMatT0=    0 NMatD0=   20 NMtDS0=    0 NMtDT0=    0
 Symmetry not used in FoFCou.
 Raff kept on since  88.29% of shell-pairs survive, threshold=   0.20 IRatSp=88.
 Excitation Energies [eV] at current iteration:
 Root      1 :     2.031608740955365
 Root      2 :     3.345965691509430
 Root      3 :     4.742228792559633
 Root      4 :     4.783104561243974
 Root      5 :     5.001124016657865
 Iteration     2 Dimension    20 NMult    10 NNew     10
 CISAX will form    10 AO SS matrices at one time.
 NMat=    10 NSing=    10 JSym2X= 0.
 Root      1 not converged, maximum delta is    0.000540813103640
 Root      2 not converged, maximum delta is    0.000555037754400
 Root      3 not converged, maximum delta is    0.000641715703456
 Root      4 not converged, maximum delta is    0.000348393553657
 Root      5 not converged, maximum delta is    0.001518907358470
 Excitation Energies [eV] at current iteration:
 Root      1 :     2.031544242053419   Change is   -0.000064498901946
 Root      2 :     3.345895726165570   Change is   -0.000069965343860
 Root      3 :     4.742148116903119   Change is   -0.000080675656513
 Root      4 :     4.783086298677956   Change is   -0.000018262566018
 Root      5 :     5.001056110521246   Change is   -0.000067906136619
 Iteration     3 Dimension    30 NMult    20 NNew     10
 CISAX will form    10 AO SS matrices at one time.
 NMat=    10 NSing=    10 JSym2X= 0.
 Root      1 not converged, maximum delta is    0.000045463437378
 Root      2 not converged, maximum delta is    0.000043533350075
 Root      3 not converged, maximum delta is    0.000280650837630
 Root      4 not converged, maximum delta is    0.000269823071813
 Root      5 not converged, maximum delta is    0.003858964539914
 Excitation Energies [eV] at current iteration:
 Root      1 :     2.031543832633781   Change is   -0.000000409419638
 Root      2 :     3.345895417997517   Change is   -0.000000308168054
 Root      3 :     4.742146806042136   Change is   -0.000001310860983
 Root      4 :     4.783085970454487   Change is   -0.000000328223468
 Root      5 :     5.001046998081105   Change is   -0.000009112440142
 Iteration     4 Dimension    40 NMult    30 NNew     10
 CISAX will form    10 AO SS matrices at one time.
 NMat=    10 NSing=    10 JSym2X= 0.
 Root      1 not converged, maximum delta is    0.000007393017003
 Root      2 not converged, maximum delta is    0.000007730190556
 Root      3 not converged, maximum delta is    0.000136848472914
 Root      4 not converged, maximum delta is    0.000069847243238
 Root      5 not converged, maximum delta is    0.002239690666808
 Excitation Energies [eV] at current iteration:
 Root      1 :     2.031543808190046   Change is   -0.000000024443735
 Root      2 :     3.345895404028584   Change is   -0.000000013968933
 Root      3 :     4.742146580691834   Change is   -0.000000225350302
 Root      4 :     4.783085908180757   Change is   -0.000000062273730
 Root      5 :     5.001042437737940   Change is   -0.000004560343164
 Iteration     5 Dimension    50 NMult    40 NNew     10
 CISAX will form    10 AO SS matrices at one time.
 NMat=    10 NSing=    10 JSym2X= 0.
 Root      1 not converged, maximum delta is    0.000001211308533
 Root      2 not converged, maximum delta is    0.000001479572547
 Root      3 not converged, maximum delta is    0.000030070565222
 Root      4 not converged, maximum delta is    0.000012853827081
 Root      5 not converged, maximum delta is    0.000312428156531
 Excitation Energies [eV] at current iteration:
 Root      1 :     2.031543807415171   Change is   -0.000000000774874
 Root      2 :     3.345895403454735   Change is   -0.000000000573849
 Root      3 :     4.742146556938723   Change is   -0.000000023753112
 Root      4 :     4.783085901455279   Change is   -0.000000006725478
 Root      5 :     5.001041909360779   Change is   -0.000000528377160
 Iteration     6 Dimension    60 NMult    50 NNew     10
 CISAX will form    10 AO SS matrices at one time.
 NMat=    10 NSing=    10 JSym2X= 0.
 Root      1 has converged.
 Root      2 has converged.
 Root      3 not converged, maximum delta is    0.000006704827850
 Root      4 not converged, maximum delta is    0.000002483485285
 Root      5 not converged, maximum delta is    0.000115444646033
 Excitation Energies [eV] at current iteration:
 Root      1 :     2.031543807373249   Change is   -0.000000000041922
 Root      2 :     3.345895403428862   Change is   -0.000000000025872
 Root      3 :     4.742146553052206   Change is   -0.000000003886517
 Root      4 :     4.783085900784534   Change is   -0.000000000670745
 Root      5 :     5.001041830354528   Change is   -0.000000079006252
 Iteration     7 Dimension    66 NMult    60 NNew      6
 CISAX will form     6 AO SS matrices at one time.
 NMat=     6 NSing=     6 JSym2X= 0.
 Root      1 has converged.
 Root      2 has converged.
 Root      3 not converged, maximum delta is    0.000001783687184
 Root      4 has converged.
 Root      5 not converged, maximum delta is    0.000038703651508
 Excitation Energies [eV] at current iteration:
 Root      1 :     2.031543807372965   Change is   -0.000000000000283
 Root      2 :     3.345895403428199   Change is   -0.000000000000663
 Root      3 :     4.742146552689373   Change is   -0.000000000362832
 Root      4 :     4.783085900725634   Change is   -0.000000000058900
 Root      5 :     5.001041819304967   Change is   -0.000000011049561
 Iteration     8 Dimension    70 NMult    66 NNew      4
 CISAX will form     4 AO SS matrices at one time.
 NMat=     4 NSing=     4 JSym2X= 0.
 Root      1 has converged.
 Root      2 has converged.
 Root      3 has converged.
 Root      4 has converged.
 Root      5 not converged, maximum delta is    0.000012229322770
 Excitation Energies [eV] at current iteration:
 Root      1 :     2.031543807372844   Change is   -0.000000000000122
 Root      2 :     3.345895403428101   Change is   -0.000000000000098
 Root      3 :     4.742146552649832   Change is   -0.000000000039542
 Root      4 :     4.783085900725239   Change is   -0.000000000000395
 Root      5 :     5.001041817539221   Change is   -0.000000001765746
 Iteration     9 Dimension    72 NMult    70 NNew      2
 CISAX will form     2 AO SS matrices at one time.
 NMat=     2 NSing=     2 JSym2X= 0.
 Root      1 has converged.
 Root      2 has converged.
 Root      3 has converged.
 Root      4 has converged.
 Root      5 not converged, maximum delta is    0.000001724629261
 Excitation Energies [eV] at current iteration:
 Root      1 :     2.031543807372844   Change is    0.000000000000000
 Root      2 :     3.345895403427929   Change is   -0.000000000000172
 Root      3 :     4.742146552646156   Change is   -0.000000000003675
 Root      4 :     4.783085900725291   Change is    0.000000000000051
 Root      5 :     5.001041817291253   Change is   -0.000000000247968
 Iteration    10 Dimension    74 NMult    72 NNew      2
 CISAX will form     2 AO SS matrices at one time.
 NMat=     2 NSing=     2 JSym2X= 0.
 Root      1 has converged.
 Root      2 has converged.
 Root      3 has converged.
 Root      4 has converged.
 Root      5 has converged.
 Excitation Energies [eV] at current iteration:
 Root      1 :     2.031543807372885   Change is    0.000000000000040
 Root      2 :     3.345895403428051   Change is    0.000000000000123
 Root      3 :     4.742146552645827   Change is   -0.000000000000330
 Root      4 :     4.783085900725153   Change is   -0.000000000000137
 Root      5 :     5.001041817253561   Change is   -0.000000000037692
 Convergence achieved on expansion vectors.
 ***********************************************************************
 Excited states from <AA,BB:AA,BB> singles matrix:
 ***********************************************************************
 
 1PDM for each excited state written to RWF  633
 Ground to excited state transition densities written to RWF  633
 Ground to excited state transition electric dipole moments (Au):
       state          X           Y           Z        Dip. S.      Osc.
         1        -0.0053     -0.0348     -0.0088      0.0013      0.0001
         2         0.1259      0.0081     -0.0096      0.0160      0.0013
         3        -1.0657      0.0419     -0.8102      1.7939      0.2084
         4        -0.4100      1.0029      0.1558      1.1981      0.1404
         5         0.1282      0.0668      0.1616      0.0470      0.0058
 Ground to excited state transition velocity dipole moments (Au):
       state          X           Y           Z        Dip. S.      Osc.
         1        -0.0004      0.0006     -0.0018      0.0000      0.0000
         2        -0.0142     -0.0010      0.0043      0.0002      0.0012
         3         0.1816     -0.0090      0.1395      0.0525      0.2009
         4         0.0741     -0.1760     -0.0274      0.0372      0.1412
         5        -0.0228     -0.0120     -0.0320      0.0017      0.0061
 Ground to excited state transition magnetic dipole moments (Au):
       state          X           Y           Z
         1         0.1473      0.0724      0.0859
         2         0.0809      0.0624      0.0182
         3         0.2006      0.0456     -0.1601
         4        -0.0005     -0.0014      0.0160
         5        -0.2787     -0.1044     -0.2253
 Ground to excited state transition velocity quadrupole moments (Au):
       state          XX          YY          ZZ          XY          XZ          YZ
         1         0.0009      0.0013      0.0100      0.0234      0.0149      0.0024
         2        -0.0312     -0.0058      0.0071     -0.0013     -0.0470      0.0046
         3        -0.7982      0.1595     -0.1263     -0.1612     -0.7563     -0.1208
         4         0.4777     -0.1825      0.0001     -0.5058      0.0653      0.0139
         5         0.3543     -0.0601     -0.0005      0.0081      0.1073      0.0542
 <0|del|b> * <b|rxdel|0> + <0|del|b> * <b|delr+rdel|0>
 Rotatory Strengths (R) in cgs (10**-40 erg-esu-cm/Gauss)
       state          XX          YY          ZZ    R(velocity)    E-M Angle
         1        -0.7780     -0.8278     -0.0334     -0.5464      118.53
         2        -0.0964     -3.2543     -3.1650     -2.1719      137.10
         3      -105.5786     29.7011    131.4280     18.5169       76.75
         4        50.5861    -26.7152    -24.7745     -0.3012       94.16
         5        18.2594     24.2257     14.5644     19.0165       14.87
 1/2[<0|r|b>*<b|rxdel|0> + (<0|rxdel|b>*<b|r|0>)*]
 Rotatory Strengths (R) in cgs (10**-40 erg-esu-cm/Gauss)
       state          XX          YY          ZZ     R(length)
         1         0.5505      1.7790      0.5317      0.9537
         2        -7.2060     -0.3580      0.1236     -2.4801
         3       151.1825     -1.3509    -91.7506     19.3603
         4        -0.1437      1.0047     -1.7613     -0.3001
         5        25.2663      4.9308     25.7501     18.6491
  1/2[<0|del|b>*<b|r|0> + (<0|r|b>*<b|del|0>)*] (Au)
       state          X           Y           Z        Dip. S.   Osc.(frdel)
         1         0.0000     -0.0000      0.0000      0.0000      0.0000
         2        -0.0018     -0.0000     -0.0000      0.0018      0.0012
         3        -0.1936     -0.0004     -0.1130      0.3069      0.2046
         4        -0.0304     -0.1766     -0.0043      0.2112      0.1408
         5        -0.0029     -0.0008     -0.0052      0.0089      0.0059

 Excitation energies and oscillator strengths:
 
 Excited State   1:      Singlet-A      2.0315 eV  610.30 nm  f=0.0001  <S**2>=0.000
      47 -> 48         0.70357
 This state for optimization and/or second-order correction.
 Total Energy, E(TD-HF/TD-DFT) =  -557.333652242    
 Copying the excited state density for this state as the 1-particle RhoCI density.
 
 Excited State   2:      Singlet-A      3.3459 eV  370.56 nm  f=0.0013  <S**2>=0.000
      46 -> 48         0.70679
 
 Excited State   3:      Singlet-A      4.7421 eV  261.45 nm  f=0.2084  <S**2>=0.000
      45 -> 48        -0.68481
      47 -> 49         0.10576
 
 Excited State   4:      Singlet-A      4.7831 eV  259.21 nm  f=0.1404  <S**2>=0.000
      46 -> 49         0.15382
      46 -> 50        -0.11282
      47 -> 49         0.53641
      47 -> 50         0.39919
 
 Excited State   5:      Singlet-A      5.0010 eV  247.92 nm  f=0.0058  <S**2>=0.000
      43 -> 48        -0.62003
      44 -> 48        -0.28969
 SavETr:  write IOETrn=   770 NScale= 10 NData=  16 NLR=1 NState=    5 LETran=     100.
 The selected state is a singlet.
 CISGrd: IGrad=2 NXY=2 DFT=T
 CISAX will form     1 AO SS matrices at one time.
 NMat=     1 NSing=     1 JSym2X= 0.
 GePol: Maximum number of non-zero 1st derivatives   =     253
 Leave Link  914 at Wed Jun 24 11:55:25 2026, MaxMem=  4026531840 cpu:             974.1 elap:             122.4
 (Enter /opt/packages/gaussian/g16RevC.01/g16/l1002.exe)
 Minotr:  Closed shell wavefunction.
          Computing CIS/TDA/TD derivatives.
          Using Z-Vector for PSCF gradient.
          Skipping F1 and S1 gradient terms here.
          IDoAtm=111111111111111111111111111
 NEqPCM:  Using equilibrium solvation (IEInf=0, Eps=  32.6130, EpsInf=   1.7657)
          Frozen-core window.
          Direct CPHF calculation.
          Differentiating once with respect to electric field.
                with respect to dipole field.
          Differentiating once with respect to nuclear coordinates.
          Requested convergence is 1.0D-10 RMS, and 1.0D-09 maximum.
          NewPWx=F KeepS1=T KeepF1=T KeepIn=T MapXYZ=F SortEE=F KeepMc=T.
 Keep R1 ints in memory in canonical form, NReq=730638089.
 FoFCou: FMM=F IPFlag=           0 FMFlag=           0 FMFlg1=           0
         NFxFlg=           0 DoJE=F BraDBF=F KetDBF=F FulRan=T
         wScrn=  0.000000 ICntrl=       600 IOpCl=  0 I1Cent=           0 NGrid=           0
         NMat0=    1 NMatS0=  37950 NMatT0=    0 NMatD0=    1 NMtDS0=    0 NMtDT0=    0
 Symmetry not used in FoFCou.
 Two-electron integral symmetry not used.
          MDV=    4026531840 using IRadAn=       5.
          Solving linear equations separately, MaxMat=       0.
          There are     1 degrees of freedom in the 1st order CPHF.  IDoFFX=0 NUNeed=     1.
 LinEq1:  Iter=  0 NonCon=     1 RMS=1.16D-02 Max=2.70D-01 NDo=     1
 AX will form     1 AO Fock derivatives at one time.
 LinEq1:  Iter=  1 NonCon=     1 RMS=3.40D-03 Max=1.77D-01 NDo=     1
 LinEq1:  Iter=  2 NonCon=     1 RMS=2.39D-03 Max=4.73D-02 NDo=     1
 LinEq1:  Iter=  3 NonCon=     1 RMS=1.02D-03 Max=3.45D-02 NDo=     1
 LinEq1:  Iter=  4 NonCon=     1 RMS=9.71D-04 Max=4.40D-02 NDo=     1
 LinEq1:  Iter=  5 NonCon=     1 RMS=4.97D-04 Max=1.26D-02 NDo=     1
 LinEq1:  Iter=  6 NonCon=     1 RMS=3.02D-04 Max=1.27D-02 NDo=     1
 LinEq1:  Iter=  7 NonCon=     1 RMS=1.38D-04 Max=5.72D-03 NDo=     1
 LinEq1:  Iter=  8 NonCon=     1 RMS=8.79D-05 Max=4.23D-03 NDo=     1
 LinEq1:  Iter=  9 NonCon=     1 RMS=4.27D-05 Max=1.86D-03 NDo=     1
 LinEq1:  Iter= 10 NonCon=     1 RMS=2.35D-05 Max=6.27D-04 NDo=     1
 LinEq1:  Iter= 11 NonCon=     1 RMS=1.03D-05 Max=2.17D-04 NDo=     1
 LinEq1:  Iter= 12 NonCon=     1 RMS=4.90D-06 Max=1.19D-04 NDo=     1
 LinEq1:  Iter= 13 NonCon=     1 RMS=1.49D-06 Max=3.47D-05 NDo=     1
 LinEq1:  Iter= 14 NonCon=     1 RMS=9.30D-07 Max=2.08D-05 NDo=     1
 LinEq1:  Iter= 15 NonCon=     1 RMS=3.46D-07 Max=1.39D-05 NDo=     1
 LinEq1:  Iter= 16 NonCon=     1 RMS=2.02D-07 Max=5.83D-06 NDo=     1
 LinEq1:  Iter= 17 NonCon=     1 RMS=8.69D-08 Max=2.34D-06 NDo=     1
 LinEq1:  Iter= 18 NonCon=     1 RMS=3.54D-08 Max=5.62D-07 NDo=     1
 LinEq1:  Iter= 19 NonCon=     1 RMS=1.38D-08 Max=2.09D-07 NDo=     1
 LinEq1:  Iter= 20 NonCon=     1 RMS=3.69D-09 Max=8.11D-08 NDo=     1
 LinEq1:  Iter= 21 NonCon=     1 RMS=2.30D-09 Max=3.90D-08 NDo=     1
 LinEq1:  Iter= 22 NonCon=     1 RMS=5.58D-10 Max=1.46D-08 NDo=     1
 LinEq1:  Iter= 23 NonCon=     1 RMS=1.30D-10 Max=3.10D-09 NDo=     1
 LinEq1:  Iter= 24 NonCon=     1 RMS=7.24D-11 Max=1.50D-09 NDo=     1
 LinEq1:  Iter= 25 NonCon=     0 RMS=2.30D-11 Max=4.91D-10 NDo=     1
 Linear equations converged to 1.000D-10 1.000D-09 after    25 iterations.
 End of Minotr F.D. properties file   721 does not exist.
 End of Minotr F.D. properties file   722 does not exist.
 End of Minotr F.D. properties file   788 does not exist.
 Leave Link 1002 at Wed Jun 24 11:56:14 2026, MaxMem=  4026531840 cpu:             311.7 elap:              49.1
 (Enter /opt/packages/gaussian/g16RevC.01/g16/l701.exe)
 ... and contract with generalized density number  6.
 Compute integral first derivatives.
 D1PCM: PCM CHGder 1st derivatives, ID1Alg=3 FixD1E=F DoIter=F DoCFld=F I1PDM=6.
 Leave Link  701 at Wed Jun 24 11:56:16 2026, MaxMem=  4026531840 cpu:              13.4 elap:               1.7
 (Enter /opt/packages/gaussian/g16RevC.01/g16/l702.exe)
 L702 exits ... SP integral derivatives will be done elsewhere.
 Leave Link  702 at Wed Jun 24 11:56:16 2026, MaxMem=  4026531840 cpu:               0.1 elap:               0.0
 (Enter /opt/packages/gaussian/g16RevC.01/g16/l703.exe)
 Integral derivatives from FoFJK, PRISM(SPDF).
 Compute integral first derivatives, UseDBF=F ICtDFT=           0.
 Calling FoFJK, ICntrl=  10005127 FMM=F ISym2X=0 I1Cent= 0 IOpClX= 0 NMat=1 NMatS=1 NMatT=0.
 FoFJK:  IHMeth= 1 ICntrl=10005127 DoSepK=F KAlg= 0 I1Cent=           0 FoldK=F
 IRaf=         0 NMat=       1 IRICut=       1 DoRegI=T DoRafI=F ISym2E= 0 IDoP0=0 IntGTp=1.
 FoFCou: FMM=F IPFlag=           0 FMFlag=      100000 FMFlg1=         800
         NFxFlg=           0 DoJE=F BraDBF=F KetDBF=F FulRan=T
         wScrn=  0.000000 ICntrl=  10005127 IOpCl=  0 I1Cent=           0 NGrid=           0
         NMat0=    1 NMatS0=      1 NMatT0=    0 NMatD0=    1 NMtDS0=    0 NMtDT0=    0
 Symmetry not used in FoFCou.
 Leave Link  703 at Wed Jun 24 11:56:22 2026, MaxMem=  4026531840 cpu:              49.7 elap:               6.2
 (Enter /opt/packages/gaussian/g16RevC.01/g16/l716.exe)
 Dipole        = 2.36678421D+00-4.91447274D-01-3.65815789D-01
 ***** Axes restored to original set *****
 -------------------------------------------------------------------
 Center     Atomic                   Forces (Hartrees/Bohr)
 Number     Number              X              Y              Z
 -------------------------------------------------------------------
      1        6          -0.000061345    0.000019898    0.000024819
      2        6           0.000000197   -0.000005209    0.000034608
      3        6          -0.000074754    0.000034531   -0.000053710
      4        6          -0.000089117   -0.000084735   -0.000016951
      5        6           0.000057840    0.000036901    0.000086869
      6        6           0.000013832    0.000018249   -0.000000256
      7        1          -0.000014342   -0.000029323   -0.000015324
      8        1           0.000021883    0.000017244   -0.000016787
      9        1           0.000008450   -0.000001249    0.000037750
     10        1           0.000023870   -0.000018360   -0.000044953
     11        8           0.000087931   -0.000035373   -0.000053911
     12        6          -0.000037271   -0.000004743    0.000030286
     13        1          -0.000030061    0.000018875    0.000016131
     14        1           0.000007819    0.000027967   -0.000021502
     15        1           0.000006459    0.000005640    0.000014670
     16        6          -0.000054811   -0.000085471   -0.000164187
     17        6           0.000090453    0.000105490   -0.000052351
     18        7           0.000125728    0.000036732    0.000040147
     19        6          -0.000048955   -0.000043729    0.000054599
     20        6          -0.000038170    0.000048816    0.000008577
     21        1          -0.000003055   -0.000028372    0.000021834
     22        1           0.000000863    0.000013912    0.000028972
     23        1           0.000001639   -0.000007150    0.000025948
     24        1           0.000027460   -0.000003523   -0.000022024
     25        1           0.000007532   -0.000019275   -0.000012092
     26        1           0.000002899    0.000008860   -0.000015641
     27        1          -0.000032972   -0.000026605    0.000064478
 -------------------------------------------------------------------
 Cartesian Forces:  Max     0.000164187 RMS     0.000045599
 Leave Link  716 at Wed Jun 24 11:56:22 2026, MaxMem=  4026531840 cpu:               0.1 elap:               0.0
 (Enter /opt/packages/gaussian/g16RevC.01/g16/l103.exe)

 GradGradGradGradGradGradGradGradGradGradGradGradGradGradGradGradGradGrad
 Berny optimization.
 Using GEDIIS/GDIIS optimizer.
 FormGI is forming the generalized inverse of G from B-inverse, IUseBI=4.
 GSVD:  received Info=                   1 from GESDD.
 Internal  Forces:  Max     0.000126508 RMS     0.000024937
 Search for a local minimum.
 Step number   6 out of a maximum of  154
 All quantities printed in internal units (Hartrees-Bohrs-Radians)
 RMS Force = .24937D-04 SwitMx=.10000D-02 MixMth= 2
 Mixed Optimization -- En-DIIS/RFO-DIIS
 Swapping is turned off.
 Update second derivatives using D2CorX and points    1    2    3    4    5
                                                      6
 DE= -1.49D-06 DEPred=-1.33D-06 R= 1.12D+00
 TightC=F SS=  1.41D+00  RLast= 1.96D-02 DXNew= 6.2456D-01 5.8805D-02
 Trust test= 1.12D+00 RLast= 1.96D-02 DXMaxT set to 3.71D-01
 ITU=  1  1  1  1  0  0
     Eigenvalues ---    0.00287   0.00554   0.00956   0.01172   0.01495
     Eigenvalues ---    0.01543   0.01702   0.01838   0.01937   0.01969
     Eigenvalues ---    0.02008   0.02105   0.02199   0.02263   0.02780
     Eigenvalues ---    0.03307   0.03490   0.03916   0.04975   0.05253
     Eigenvalues ---    0.05785   0.06083   0.06905   0.07143   0.07844
     Eigenvalues ---    0.08405   0.09299   0.10179   0.10752   0.10800
     Eigenvalues ---    0.12642   0.15699   0.15999   0.16000   0.16001
     Eigenvalues ---    0.16035   0.16072   0.17591   0.20124   0.21691
     Eigenvalues ---    0.21965   0.22130   0.22963   0.23853   0.24890
     Eigenvalues ---    0.25135   0.26532   0.26966   0.27550   0.30198
     Eigenvalues ---    0.33197   0.33405   0.33993   0.34082   0.34186
     Eigenvalues ---    0.34266   0.34292   0.34491   0.34559   0.34905
     Eigenvalues ---    0.34992   0.35214   0.35248   0.35608   0.35873
     Eigenvalues ---    0.37829   0.39375   0.39814   0.40875   0.41989
     Eigenvalues ---    0.44931   0.47047   0.49786   0.50725   0.64304
 En-DIIS/RFO-DIIS/Sim-DIIS IScMMF=       -3 using points:     6    5    4    3    2    1
 RFO step:  Lambda=-9.41728869D-07.
 NNeg= 0 NGDIIS= 6 SimSw=  2.50D-01 Rises=F DC= -1.49D-06 SmlDif=  1.00D-05
 NRisDI= 0 DoIntr=F SqrtH=F CThrHd= 10.0 CDAdj=  3.0
 RMS Error=  0.1078194484D-02 NUsed= 6 OKEnD=F EnDIS=F
 InvSVX:  RCond= 5.94D-07 Info=           0 Equed=N FErr=  2.57D-13 BErr=  6.32D-17
 DidBck=F Rises=F RFO-DIIS coefs:    1.69309   -0.67479   -0.08210    0.02633    0.01754
                  RFO-DIIS coefs:    0.01993
 Iteration  1 RMS(Cart)=  0.00151949 RMS(Int)=  0.00000167
 Iteration  2 RMS(Cart)=  0.00000161 RMS(Int)=  0.00000116
 Iteration  3 RMS(Cart)=  0.00000000 RMS(Int)=  0.00000116
 ITry= 1 IFail=0 DXMaxC= 5.49D-03 DCOld= 1.00D+10 DXMaxT= 3.71D-01 DXLimC= 3.00D+00 Rises=F
 Variable       Old X    -DE/DX   Delta X   Delta X   Delta X     New X
                                 (Linear)    (Quad)   (Total)
    R1        2.70020   0.00000   0.00007  -0.00006   0.00001   2.70021
    R2        2.71204  -0.00005   0.00004  -0.00010  -0.00006   2.71198
    R3        2.48066   0.00004  -0.00000   0.00004   0.00003   2.48070
    R4        2.59297   0.00003   0.00004   0.00002   0.00006   2.59303
    R5        2.04772   0.00001  -0.00003   0.00005   0.00002   2.04774
    R6        2.70934  -0.00005  -0.00006  -0.00004  -0.00010   2.70924
    R7        2.05196  -0.00002   0.00002  -0.00007  -0.00004   2.05192
    R8        2.69042   0.00007  -0.00020   0.00027   0.00007   2.69049
    R9        2.79054  -0.00008   0.00017  -0.00027  -0.00010   2.79044
   R10        2.59164  -0.00004   0.00013  -0.00013  -0.00001   2.59164
   R11        2.05158  -0.00005   0.00005  -0.00013  -0.00007   2.05151
   R12        2.05057  -0.00004   0.00004  -0.00009  -0.00006   2.05051
   R13        2.74701  -0.00008   0.00012  -0.00020  -0.00008   2.74694
   R14        2.06407  -0.00001  -0.00004  -0.00000  -0.00005   2.06403
   R15        2.06406  -0.00003   0.00004  -0.00008  -0.00005   2.06402
   R16        2.05707   0.00001   0.00004  -0.00001   0.00003   2.05710
   R17        2.85501  -0.00009  -0.00008  -0.00024  -0.00031   2.85470
   R18        2.64052  -0.00013   0.00042  -0.00037   0.00005   2.64057
   R19        2.92260   0.00002  -0.00008   0.00009   0.00001   2.92261
   R20        2.06932   0.00002   0.00003   0.00003   0.00007   2.06939
   R21        2.08580  -0.00003  -0.00003  -0.00003  -0.00006   2.08575
   R22        2.79135   0.00002   0.00054  -0.00011   0.00042   2.79178
   R23        1.91701  -0.00005   0.00018  -0.00015   0.00003   1.91705
   R24        2.91279  -0.00006  -0.00014  -0.00007  -0.00021   2.91259
   R25        2.07228  -0.00002   0.00001  -0.00005  -0.00004   2.07224
   R26        2.06843  -0.00002  -0.00007  -0.00001  -0.00008   2.06835
   R27        2.07106  -0.00002   0.00008  -0.00010  -0.00002   2.07104
   R28        2.06797  -0.00001   0.00003  -0.00003  -0.00000   2.06797
    A1        2.10717   0.00001   0.00003   0.00002   0.00005   2.10722
    A2        2.17198  -0.00001   0.00005  -0.00012  -0.00007   2.17191
    A3        2.00403   0.00000  -0.00008   0.00011   0.00003   2.00406
    A4        2.06625   0.00002   0.00001   0.00005   0.00006   2.06630
    A5        2.10703  -0.00003   0.00002  -0.00015  -0.00013   2.10690
    A6        2.10991   0.00001  -0.00003   0.00010   0.00008   2.10998
    A7        2.12709  -0.00003  -0.00013   0.00001  -0.00012   2.12697
    A8        2.08534   0.00002   0.00001   0.00004   0.00005   2.08540
    A9        2.07075   0.00001   0.00011  -0.00005   0.00007   2.07081
   A10        2.07057  -0.00000   0.00021  -0.00014   0.00007   2.07065
   A11        2.10707   0.00001  -0.00006   0.00005  -0.00001   2.10706
   A12        2.10543  -0.00001  -0.00015   0.00009  -0.00006   2.10537
   A13        2.10885   0.00002  -0.00006   0.00008   0.00002   2.10887
   A14        2.07583  -0.00001  -0.00010   0.00006  -0.00004   2.07578
   A15        2.09851  -0.00001   0.00016  -0.00014   0.00002   2.09853
   A16        2.08643  -0.00002  -0.00007  -0.00001  -0.00008   2.08635
   A17        2.06164   0.00000   0.00002  -0.00001   0.00001   2.06165
   A18        2.13511   0.00001   0.00005   0.00002   0.00007   2.13518
   A19        2.12930  -0.00002   0.00014  -0.00019  -0.00004   2.12926
   A20        1.91121  -0.00006   0.00013  -0.00028  -0.00015   1.91106
   A21        1.90910   0.00002  -0.00012   0.00017   0.00005   1.90915
   A22        1.82528  -0.00001   0.00005  -0.00005   0.00000   1.82529
   A23        1.94548   0.00001   0.00034  -0.00024   0.00010   1.94558
   A24        1.93436   0.00003  -0.00015   0.00022   0.00007   1.93443
   A25        1.93448   0.00000  -0.00027   0.00019  -0.00008   1.93440
   A26        2.14283  -0.00002   0.00026   0.00009   0.00036   2.14319
   A27        2.07023  -0.00001   0.00004   0.00022   0.00027   2.07049
   A28        1.88460   0.00004   0.00049   0.00014   0.00063   1.88523
   A29        1.76762  -0.00000  -0.00003  -0.00003  -0.00006   1.76756
   A30        1.96671   0.00002  -0.00061   0.00052  -0.00009   1.96662
   A31        1.95563  -0.00000   0.00036  -0.00016   0.00020   1.95584
   A32        1.96705  -0.00001  -0.00001  -0.00000  -0.00001   1.96704
   A33        1.93490   0.00001   0.00014  -0.00004   0.00011   1.93500
   A34        1.87285  -0.00001   0.00015  -0.00028  -0.00013   1.87272
   A35        1.93469  -0.00001  -0.00065   0.00008  -0.00057   1.93412
   A36        2.07388   0.00001  -0.00078   0.00001  -0.00077   2.07311
   A37        2.06250  -0.00001  -0.00109   0.00022  -0.00087   2.06163
   A38        1.82112  -0.00000   0.00030  -0.00005   0.00024   1.82136
   A39        1.90465   0.00001  -0.00038   0.00017  -0.00021   1.90444
   A40        1.93431  -0.00001  -0.00014  -0.00010  -0.00024   1.93407
   A41        1.95002  -0.00000  -0.00007  -0.00012  -0.00020   1.94983
   A42        1.96659   0.00001   0.00014   0.00018   0.00033   1.96691
   A43        1.88651  -0.00000   0.00012  -0.00007   0.00005   1.88656
   A44        1.82088  -0.00002  -0.00007  -0.00012  -0.00019   1.82070
   A45        1.91038   0.00000  -0.00000   0.00005   0.00005   1.91043
   A46        1.96501   0.00002   0.00003   0.00002   0.00005   1.96506
   A47        1.91942   0.00001  -0.00004   0.00018   0.00014   1.91956
   A48        1.95884  -0.00000   0.00014  -0.00022  -0.00008   1.95876
   A49        1.88860  -0.00000  -0.00006   0.00009   0.00003   1.88863
    D1       -0.00036   0.00000  -0.00024   0.00019  -0.00005  -0.00041
    D2        3.14029  -0.00001  -0.00010  -0.00012  -0.00022   3.14007
    D3        3.13959   0.00001  -0.00078   0.00098   0.00020   3.13978
    D4       -0.00294  -0.00000  -0.00065   0.00067   0.00003  -0.00292
    D5        0.00276  -0.00000  -0.00008  -0.00013  -0.00021   0.00255
    D6       -3.14099   0.00000   0.00008   0.00002   0.00010  -3.14089
    D7       -3.13734  -0.00001   0.00041  -0.00085  -0.00043  -3.13777
    D8        0.00209  -0.00000   0.00058  -0.00070  -0.00012   0.00197
    D9       -0.00531   0.00001   0.00208  -0.00056   0.00152  -0.00379
   D10        3.13472   0.00002   0.00157   0.00019   0.00175   3.13648
   D11       -0.00011  -0.00000   0.00056  -0.00024   0.00032   0.00021
   D12        3.13837   0.00001   0.00015   0.00028   0.00042   3.13879
   D13       -3.14076   0.00001   0.00043   0.00006   0.00049  -3.14027
   D14       -0.00228   0.00002   0.00001   0.00058   0.00059  -0.00169
   D15       -0.00172  -0.00000  -0.00057   0.00024  -0.00033  -0.00205
   D16       -3.12656  -0.00001  -0.00040  -0.00040  -0.00080  -3.12736
   D17       -3.14022  -0.00001  -0.00016  -0.00028  -0.00043  -3.14066
   D18        0.01812  -0.00002   0.00001  -0.00092  -0.00091   0.01721
   D19        0.00416   0.00000   0.00023  -0.00018   0.00006   0.00422
   D20       -3.13645  -0.00001   0.00027  -0.00062  -0.00036  -3.13681
   D21        3.12902   0.00001   0.00007   0.00047   0.00053   3.12955
   D22       -0.01160  -0.00001   0.00010   0.00002   0.00012  -0.01148
   D23        1.11814   0.00003   0.00137   0.00072   0.00209   1.12023
   D24       -1.33067  -0.00000  -0.00014  -0.00007  -0.00021  -1.33088
   D25       -2.00637   0.00002   0.00154   0.00007   0.00160  -2.00476
   D26        1.82801  -0.00001   0.00003  -0.00073  -0.00070   1.82731
   D27       -0.00466   0.00000   0.00008   0.00012   0.00020  -0.00446
   D28        3.13919  -0.00000  -0.00009  -0.00003  -0.00013   3.13906
   D29        3.13595   0.00002   0.00004   0.00058   0.00062   3.13657
   D30       -0.00339   0.00001  -0.00013   0.00042   0.00029  -0.00310
   D31        1.06239  -0.00000  -0.00153   0.00055  -0.00098   1.06141
   D32       -1.07435   0.00001  -0.00196   0.00092  -0.00104  -1.07538
   D33        3.13606   0.00000  -0.00161   0.00065  -0.00096   3.13509
   D34       -3.06962  -0.00002  -0.00091  -0.00053  -0.00144  -3.07107
   D35        1.10768  -0.00001  -0.00059  -0.00076  -0.00135   1.10633
   D36       -1.00665  -0.00001  -0.00060  -0.00066  -0.00127  -1.00791
   D37       -0.55842  -0.00000   0.00032   0.00022   0.00054  -0.55788
   D38       -2.66430   0.00000   0.00064  -0.00001   0.00063  -2.66366
   D39        1.50456   0.00001   0.00063   0.00009   0.00072   1.50527
   D40        2.88782   0.00001   0.00032   0.00013   0.00045   2.88827
   D41       -0.91985  -0.00001  -0.00348   0.00063  -0.00286  -0.92271
   D42        0.34615  -0.00000  -0.00093  -0.00053  -0.00147   0.34468
   D43        2.82166  -0.00002  -0.00474  -0.00003  -0.00477   2.81689
   D44        0.55294  -0.00000   0.00019   0.00012   0.00031   0.55325
   D45       -1.50055  -0.00000   0.00027  -0.00004   0.00022  -1.50033
   D46        2.68142  -0.00001   0.00033  -0.00021   0.00012   2.68154
   D47        2.65858   0.00001  -0.00056   0.00072   0.00016   2.65874
   D48        0.60509   0.00001  -0.00048   0.00056   0.00008   0.60516
   D49       -1.49613  -0.00000  -0.00042   0.00039  -0.00003  -1.49615
   D50       -1.52496  -0.00000  -0.00027   0.00033   0.00006  -1.52490
   D51        2.70473  -0.00000  -0.00019   0.00017  -0.00002   2.70471
   D52        0.60352  -0.00001  -0.00013   0.00001  -0.00013   0.60339
   D53        0.02417   0.00002   0.00109   0.00065   0.00173   0.02590
   D54       -2.06231   0.00002   0.00120   0.00074   0.00193  -2.06037
   D55        2.14537   0.00002   0.00136   0.00078   0.00214   2.14751
   D56       -2.45618   0.00002   0.00474   0.00024   0.00498  -2.45120
   D57        1.74054   0.00002   0.00485   0.00033   0.00518   1.74571
   D58       -0.33498   0.00003   0.00502   0.00037   0.00539  -0.32959
   D59       -0.36947  -0.00000  -0.00076  -0.00044  -0.00120  -0.37067
   D60        1.67779  -0.00001  -0.00082  -0.00036  -0.00118   1.67661
   D61       -2.50201  -0.00000  -0.00083  -0.00027  -0.00110  -2.50311
   D62        1.68608   0.00000  -0.00107  -0.00033  -0.00141   1.68468
   D63       -2.54984  -0.00000  -0.00113  -0.00026  -0.00139  -2.55122
   D64       -0.44646   0.00000  -0.00114  -0.00016  -0.00130  -0.44776
   D65       -2.46917   0.00001  -0.00086  -0.00038  -0.00124  -2.47041
   D66       -0.42190   0.00001  -0.00091  -0.00031  -0.00122  -0.42312
   D67        1.68148   0.00001  -0.00093  -0.00021  -0.00114   1.68034
         Item               Value     Threshold  Converged?
 Maximum Force            0.000127     0.000450     YES
 RMS     Force            0.000025     0.000300     YES
 Maximum Displacement     0.005486     0.001800     NO 
 RMS     Displacement     0.001519     0.001200     NO 
 Predicted change in Energy=-4.645410D-07
 Lowest energy point so far.  Saving SCF results.
 GradGradGradGradGradGradGradGradGradGradGradGradGradGradGradGradGradGrad

 Leave Link  103 at Wed Jun 24 11:56:22 2026, MaxMem=  4026531840 cpu:               0.2 elap:               0.0
 (Enter /opt/packages/gaussian/g16RevC.01/g16/l202.exe)
                          Input orientation:                          
 ---------------------------------------------------------------------
 Center     Atomic      Atomic             Coordinates (Angstroms)
 Number     Number       Type             X           Y           Z
 ---------------------------------------------------------------------
      1          6           0        2.488480    0.184155    0.218771
      2          6           0        1.797340   -0.813315   -0.535622
      3          6           0        0.425230   -0.801917   -0.529406
      4          6           0       -0.320233    0.176157    0.207518
      5          6           0        0.392289    1.157856    0.952924
      6          6           0        1.763592    1.173512    0.963934
      7          1           0        2.331156    1.911469    1.521334
      8          1           0        2.344985   -1.559359   -1.099298
      9          1           0       -0.118021   -1.550151   -1.098659
     10          1           0       -0.167429    1.898030    1.516317
     11          8           0        3.795129    0.282555    0.297802
     12          6           0        4.680253   -0.642626   -0.390379
     13          1           0        4.506947   -0.580338   -1.466977
     14          1           0        4.509461   -1.654290   -0.015770
     15          1           0        5.682807   -0.300898   -0.139198
     16          6           0       -1.796704    0.154124    0.210947
     17          6           0       -2.596681   -0.983703    0.800372
     18          7           0       -2.475912    0.620871   -0.917483
     19          6           0       -3.894823    0.210918   -0.883129
     20          6           0       -4.039665   -0.553456    0.447391
     21          1           0       -2.440732   -1.095417    1.878513
     22          1           0       -2.348997   -1.951422    0.330914
     23          1           0       -4.103566   -0.433032   -1.745830
     24          1           0       -4.553240    1.083216   -0.942880
     25          1           0       -4.421159    0.117696    1.225284
     26          1           0       -4.723354   -1.403842    0.363982
     27          1           0       -2.253404    1.544047   -1.274363
 ---------------------------------------------------------------------
                    Distance matrix (angstroms):
                    1          2          3          4          5
     1  C    0.000000
     2  C    1.428891   0.000000
     3  C    2.406057   1.372172   0.000000
     4  C    2.808747   2.452638   1.433667   0.000000
     5  C    2.425096   2.841735   2.457458   1.423746   0.000000
     6  C    1.435116   2.489435   2.814888   2.430886   1.371436
     7  H    2.169110   3.455500   3.898789   3.430348   2.156438
     8  H    2.190374   1.083617   2.141017   3.438484   3.925289
     9  H    3.396658   2.128038   1.085829   2.174196   3.435508
    10  H    3.416847   3.927106   3.438886   2.168213   1.085612
    11  O    1.312730   2.426249   3.635460   4.117727   3.574165
    12  C    2.420434   2.891612   4.260273   5.102230   4.840747
    13  H    2.738687   2.874660   4.193871   5.165065   5.080123
    14  H    2.742126   2.886708   4.203726   5.169753   5.079137
    15  H    3.250714   3.939108   5.295791   6.031939   5.595558
    16  C    4.285296   3.796111   2.529650   1.476639   2.519861
    17  C    5.249859   4.595796   3.306554   2.622778   3.680149
    18  N    5.111456   4.523648   3.254466   2.471912   3.466028
    19  C    6.477766   5.794009   4.451270   3.737433   4.758898
    20  C    6.573661   5.924903   4.577243   3.797900   4.777696
    21  H    5.356228   4.885579   3.754724   2.984231   3.736303
    22  H    5.289088   4.386147   3.123755   2.942397   4.191558
    23  H    6.906204   6.035720   4.703802   4.301196   5.479682
    24  H    7.193300   6.640223   5.339462   4.479344   5.296972
    25  H    6.982879   6.529725   5.235658   4.225737   4.932079
    26  H    7.386025   6.608893   5.260073   4.680635   5.751431
    27  H    5.154049   4.744621   3.637800   2.793608   3.479892
                    6          7          8          9         10
     6  C    0.000000
     7  H    1.085083   0.000000
     8  H    3.473259   4.349087   0.000000
     9  H    3.900397   4.984541   2.463023   0.000000
    10  H    2.135157   2.498626   5.010709   4.327874   0.000000
    11  O    2.316177   2.508707   2.729002   4.541107   4.449315
    12  C    3.693160   3.961857   2.606999   4.934440   5.795726
    13  H    4.063412   4.457934   2.401614   4.739886   6.073891
    14  H    4.061537   4.452229   2.422396   4.753639   6.069561
    15  H    4.330246   4.345745   3.694127   6.010890   6.465390
    16  C    3.779133   4.673821   4.669728   2.727197   2.720245
    17  C    4.867475   5.760676   5.325429   3.173474   3.836434
    18  N    4.671031   5.542686   5.294101   3.210267   3.589374
    19  C    6.029584   6.887389   6.489669   4.172775   4.743116
    20  C    6.076761   6.914953   6.645889   4.331624   4.706017
    21  H    4.864240   5.651535   5.655589   3.803331   3.776216
    22  H    5.203779   6.184081   4.922671   2.679917   4.580687
    23  H    6.659380   7.587930   6.578026   4.189434   5.618596
    24  H    6.598974   7.358890   7.388720   5.160432   5.093811
    25  H    6.279665   6.992784   7.348259   5.167149   4.620444
    26  H    7.005937   7.880156   7.219888   4.834234   5.743403
    27  H    4.613407   5.382296   5.550402   3.763615   3.502069
                   11         12         13         14         15
    11  O    0.000000
    12  C    1.453616   0.000000
    13  H    2.089430   1.092236   0.000000
    14  H    2.088053   1.092230   1.805376   0.000000
    15  H    2.023540   1.088570   1.795475   1.795451   0.000000
    16  C    5.593981   6.553425   6.564365   6.564258   7.501515
    17  C    6.535382   7.381598   7.467604   7.184221   8.360558
    18  N    6.396665   7.285943   7.106699   7.401681   8.247428
    19  C    7.780429   8.631528   8.459120   8.652358   9.620103
    20  C    7.880691   8.760524   8.758431   8.632144   9.743425
    21  H    6.579013   7.487411   7.728380   7.225360   8.407990
    22  H    6.537739   7.186346   7.219159   6.873640   8.213106
    23  H    8.190108   8.890256   8.616287   8.869545   9.918257
    24  H    8.477949   9.409633   9.226543   9.512415  10.360422
    25  H    8.270114   9.274921   9.351289   9.188914  10.204272
    26  H    8.684058   9.464478   9.446112   9.244015  10.476538
    27  H    6.375564   7.323836   7.088897   7.586156   8.226534
                   16         17         18         19         20
    16  C    0.000000
    17  C    1.510641   0.000000
    18  N    1.397330   2.353778   0.000000
    19  C    2.366924   2.438538   1.477346   0.000000
    20  C    2.363779   1.546581   2.384796   1.541275   0.000000
    21  H    2.181032   1.095074   3.280926   3.383423   2.213237
    22  H    2.180079   1.103729   2.862044   2.922190   2.196869
    23  H    3.081451   3.009499   2.108585   1.096584   2.197453
    24  H    3.129381   3.337545   2.128310   1.094526   2.208010
    25  H    2.813889   2.173097   2.937452   2.175115   1.095948
    26  H    3.319030   2.211264   3.285211   2.202090   1.094323
    27  H    2.084851   3.288143   1.014458   2.150477   3.248797
                   21         22         23         24         25
    21  H    0.000000
    22  H    1.770938   0.000000
    23  H    4.042231   3.113983   0.000000
    24  H    4.143596   3.961095   1.773680   0.000000
    25  H    2.412560   3.061863   3.038368   2.377101   0.000000
    26  H    2.756681   2.436905   2.403729   2.814656   1.774329
    27  H    4.116125   3.847643   2.748494   2.368858   3.603036
                   26         27
    26  H    0.000000
    27  H    4.180296   0.000000
 Stoichiometry    C11H14NO(1+)
 Framework group  C1[X(C11H14NO)]
 Deg. of freedom    75
 Full point group                 C1      NOp   1
 RotChk:  IX=0 Diff= 2.51D-03
 Largest Abelian subgroup         C1      NOp   1
 Largest concise Abelian subgroup C1      NOp   1
                         Standard orientation:                         
 ---------------------------------------------------------------------
 Center     Atomic      Atomic             Coordinates (Angstroms)
 Number     Number       Type             X           Y           Z
 ---------------------------------------------------------------------
      1          6           0        2.485294    0.232292    0.009195
      2          6           0        1.775428   -1.006217   -0.053378
      3          6           0        0.403712   -0.973397   -0.040212
      4          6           0       -0.323209    0.260103    0.033719
      5          6           0        0.407787    1.480202    0.097405
      6          6           0        1.779152    1.479452    0.083455
      7          1           0        2.360549    2.394520    0.128561
      8          1           0        2.308907   -1.947665   -0.110856
      9          1           0       -0.153637   -1.903955   -0.089678
     10          1           0       -0.137804    2.416794    0.158049
     11          8           0        3.793669    0.339085    0.006230
     12          6           0        4.661374   -0.825360   -0.058208
     13          1           0        4.470422   -1.371424   -0.984669
     14          1           0        4.490625   -1.453701    0.818718
     15          1           0        5.670099   -0.416210   -0.050821
     16          6           0       -1.799522    0.265135    0.064309
     17          6           0       -2.596535   -0.339026    1.196474
     18          7           0       -2.494659    0.033210   -1.125450
     19          6           0       -3.915307   -0.267327   -0.853444
     20          6           0       -4.042543   -0.157808    0.678661
     21          1           0       -2.423217    0.167126    2.151963
     22          1           0       -2.362762   -1.407583    1.343966
     23          1           0       -4.142479   -1.279795   -1.208124
     24          1           0       -4.569216    0.432916   -1.382642
     25          1           0       -4.406768    0.838512    0.953961
     26          1           0       -4.732791   -0.900226    1.090870
     27          1           0       -2.272453    0.597240   -1.938850
 ---------------------------------------------------------------------
 Rotational constants (GHZ):           2.7034717           0.3412264           0.3294629
 Leave Link  202 at Wed Jun 24 11:56:24 2026, MaxMem=  4026531840 cpu:               0.0 elap:               0.0
 (Enter /opt/packages/gaussian/g16RevC.01/g16/l301.exe)
 Standard basis: 6-31+G(d) (6D, 7F)
 Ernie: Thresh=  0.10000D-02 Tol=  0.10000D-05 Strict=F.
 There are   275 symmetry adapted cartesian basis functions of A   symmetry.
 There are   275 symmetry adapted basis functions of A   symmetry.
   275 basis functions,   472 primitive gaussians,   275 cartesian basis functions
    47 alpha electrons       47 beta electrons
       nuclear repulsion energy       751.1327484456 Hartrees.
 IExCor=  402 DFT=T Ex+Corr=B3LYP ExCW=0 ScaHFX=  0.200000
 ScaDFX=  0.800000  0.720000  1.000000  0.810000 ScalE2=  1.000000  1.000000
 IRadAn=      5 IRanWt=     -1 IRanGd=            0 ICorTp=0 IEmpDi=  4
 NAtoms=   27 NActive=   27 NUniq=   27 SFac= 1.00D+00 NAtFMM=   60 NAOKFM=F Big=F
 Integral buffers will be    131072 words long.
 Regular integral format.
 Two-electron integral symmetry is turned on.
 ------------------------------------------------------------------------------
 Polarizable Continuum Model (PCM)
 =================================
 Model                : PCM.
 Atomic radii         : SMD-Coulomb.
 Polarization charges : Total charges.
 Charge compensation  : None.
 Solution method      : On-the-fly selection.
 Cavity type          : VdW (van der Waals Surface) (Alpha=1.000).
 Cavity algorithm     : GePol (No added spheres)
                        Default sphere list used, NSphG=   27.
                        Lebedev-Laikov grids with approx.  5.0 points / Ang**2.
                        Smoothing algorithm: York/Karplus (Gamma=1.0000).
                        Polarization charges: spherical gaussians, with
                                              point-specific exponents (IZeta= 3).
                        Self-potential: point-specific (ISelfS= 7).
                        Self-field    : sphere-specific E.n sum rule (ISelfD= 2).
 1st derivatives      : Analytical E(r).r(x)/FMM algorithm (CHGder, D1EAlg=3).
                        Cavity 1st derivative terms included.
 Solvent              : Methanol, Eps=  32.613000 Eps(inf)=   1.765709
 ------------------------------------------------------------------------------
 GePol: Number of generator spheres                  =      27
 GePol: Total number of spheres                      =      27
 GePol: Number of exposed spheres                    =      27 (100.00%)
 GePol: Number of points                             =    2017
 GePol: Average weight of points                     =       0.11
 GePol: Minimum weight of points                     =   0.92D-09
 GePol: Maximum weight of points                     =    0.21991
 GePol: Number of points with low weight             =     116
 GePol: Fraction of low-weight points (<1% of avg)   =       5.75%
 GePol: Cavity surface area                          =    220.836 Ang**2
 GePol: Cavity volume                                =    193.973 Ang**3
 ------------------------------------------------------------------------------
 Atomic radii for non-electrostatic terms: SMD-CDS.
 ------------------------------------------------------------------------------
 PCM non-electrostatic energy =        -0.0003320532 Hartrees.
 Nuclear repulsion after PCM non-electrostatic terms =      751.1324163924 Hartrees.
 Leave Link  301 at Wed Jun 24 11:56:24 2026, MaxMem=  4026531840 cpu:               0.3 elap:               0.1
 (Enter /opt/packages/gaussian/g16RevC.01/g16/l302.exe)
 NPDir=0 NMtPBC=     1 NCelOv=     1 NCel=       1 NClECP=     1 NCelD=      1
         NCelK=      1 NCelE2=     1 NClLst=     1 CellRange=     0.0.
 One-electron integrals computed using PRISM.
 One-electron integral symmetry used in STVInt
 NBasis=   275 RedAO= T EigKep=  1.38D-06  NBF=   275
 NBsUse=   275 1.00D-06 EigRej= -1.00D+00 NBFU=   275
 Precomputing XC quadrature grid using
 IXCGrd= 4 IRadAn=           5 IRanWt=          -1 IRanGd=           0 AccXCQ= 0.00D+00.
 Generated NRdTot=       0 NPtTot=           0 NUsed=           0 NTot=          32
 NSgBfM=   274   274   274   274   274 MxSgAt=    27 MxSgA2=    27.
 Leave Link  302 at Wed Jun 24 11:56:24 2026, MaxMem=  4026531840 cpu:               1.4 elap:               0.2
 (Enter /opt/packages/gaussian/g16RevC.01/g16/l303.exe)
 DipDrv:  MaxL=1.
 Leave Link  303 at Wed Jun 24 11:56:24 2026, MaxMem=  4026531840 cpu:               0.1 elap:               0.0
 (Enter /opt/packages/gaussian/g16RevC.01/g16/l308.exe)
 Leave Link  308 at Wed Jun 24 11:56:24 2026, MaxMem=  4026531840 cpu:               0.1 elap:               0.0
 (Enter /opt/packages/gaussian/g16RevC.01/g16/l401.exe)
 Initial guess from the checkpoint file:  "iminium_singlet.chk"
 B after Tr=    -0.000000   -0.000000    0.000000
         Rot=    1.000000    0.000855    0.000021   -0.000015 Ang=   0.10 deg.
 Guess basis will be translated and rotated to current coordinates.
 JPrj=2 DoOrth=T DoCkMO=T.
 Leave Link  401 at Wed Jun 24 11:56:24 2026, MaxMem=  4026531840 cpu:               0.5 elap:               0.1
 (Enter /opt/packages/gaussian/g16RevC.01/g16/l502.exe)
 Integral symmetry usage will be decided dynamically.
 Closed shell SCF:
 Using DIIS extrapolation, IDIIS=  1040.
 NGot=  4026531840 LenX=  4026374748 LenY=  4026298682
 Requested convergence on RMS density matrix=1.00D-08 within 128 cycles.
 Requested convergence on MAX density matrix=1.00D-06.
 Requested convergence on             energy=1.00D-06.
 No special actions if energy rises.
 Fock matrices will be formed incrementally for  20 cycles.

 Cycle   1  Pass 1  IDiag  1:
 FoFJK:  IHMeth= 1 ICntrl=       0 DoSepK=F KAlg= 0 I1Cent=           0 FoldK=F
 IRaf= 880000000 NMat=       1 IRICut=       1 DoRegI=T DoRafI=F ISym2E= 0 IDoP0=0 IntGTp=1.
 FoFCou: FMM=F IPFlag=           0 FMFlag=      100000 FMFlg1=           0
         NFxFlg=           0 DoJE=F BraDBF=F KetDBF=F FulRan=T
         wScrn=  0.000000 ICntrl=         0 IOpCl=  0 I1Cent=           0 NGrid=           0
         NMat0=    1 NMatS0=      1 NMatT0=    0 NMatD0=    1 NMtDS0=    0 NMtDT0=    0
 Symmetry not used in FoFCou.
 Inv3:  Mode=1 IEnd=    12204867.
 Iteration    1 A*A^-1 deviation from unit magnitude is 3.22D-15 for   1901.
 Iteration    1 A*A^-1 deviation from orthogonality  is 1.58D-15 for    977    240.
 Iteration    1 A^-1*A deviation from unit magnitude is 3.11D-15 for   1635.
 Iteration    1 A^-1*A deviation from orthogonality  is 6.84D-15 for    951    884.
 E= -557.408303249684    
 DIIS: error= 1.00D-04 at cycle   1 NSaved=   1.
 NSaved= 1 IEnMin= 1 EnMin= -557.408303249684     IErMin= 1 ErrMin= 1.00D-04
 ErrMax= 1.00D-04  0.00D+00 EMaxC= 1.00D-01 BMatC= 4.29D-06 BMatP= 4.29D-06
 IDIUse=3 WtCom= 9.99D-01 WtEn= 1.00D-03
 Coeff-Com:  0.100D+01
 Coeff-En:   0.100D+01
 Coeff:      0.100D+01
 Gap=     0.410 Goal=   None    Shift=    0.000
 RMSDP=3.07D-04 MaxDP=2.78D-02              OVMax= 6.19D-04

 Cycle   2  Pass 1  IDiag  1:
 RMSU=  3.04D-04    CP:  1.00D+00
 E= -557.408310307017     Delta-E=       -0.000007057334 Rises=F Damp=F
 DIIS: error= 1.13D-05 at cycle   2 NSaved=   2.
 NSaved= 2 IEnMin= 2 EnMin= -557.408310307017     IErMin= 2 ErrMin= 1.13D-05
 ErrMax= 1.13D-05  0.00D+00 EMaxC= 1.00D-01 BMatC= 4.68D-08 BMatP= 4.29D-06
 IDIUse=1 WtCom= 1.00D+00 WtEn= 0.00D+00
 Coeff-Com: -0.404D-01 0.104D+01
 Coeff:     -0.404D-01 0.104D+01
 Gap=     0.109 Goal=   None    Shift=    0.000
 RMSDP=1.76D-05 MaxDP=1.19D-03 DE=-7.06D-06 OVMax= 9.94D-05

 Cycle   3  Pass 1  IDiag  1:
 RMSU=  1.45D-05    CP:  1.00D+00  1.03D+00
 E= -557.408310348374     Delta-E=       -0.000000041357 Rises=F Damp=F
 DIIS: error= 7.25D-06 at cycle   3 NSaved=   3.
 NSaved= 3 IEnMin= 3 EnMin= -557.408310348374     IErMin= 3 ErrMin= 7.25D-06
 ErrMax= 7.25D-06  0.00D+00 EMaxC= 1.00D-01 BMatC= 4.03D-08 BMatP= 4.68D-08
 IDIUse=1 WtCom= 1.00D+00 WtEn= 0.00D+00
 Coeff-Com: -0.266D-01 0.524D+00 0.503D+00
 Coeff:     -0.266D-01 0.524D+00 0.503D+00
 Gap=     0.109 Goal=   None    Shift=    0.000
 RMSDP=6.70D-06 MaxDP=3.31D-04 DE=-4.14D-08 OVMax= 8.82D-05

 Cycle   4  Pass 1  IDiag  1:
 RMSU=  5.94D-06    CP:  1.00D+00  1.03D+00  8.38D-01
 E= -557.408310379188     Delta-E=       -0.000000030814 Rises=F Damp=F
 DIIS: error= 3.41D-06 at cycle   4 NSaved=   4.
 NSaved= 4 IEnMin= 4 EnMin= -557.408310379188     IErMin= 4 ErrMin= 3.41D-06
 ErrMax= 3.41D-06  0.00D+00 EMaxC= 1.00D-01 BMatC= 8.19D-09 BMatP= 4.03D-08
 IDIUse=1 WtCom= 1.00D+00 WtEn= 0.00D+00
 Coeff-Com: -0.107D-01 0.156D+00 0.320D+00 0.535D+00
 Coeff:     -0.107D-01 0.156D+00 0.320D+00 0.535D+00
 Gap=     0.109 Goal=   None    Shift=    0.000
 RMSDP=3.43D-06 MaxDP=2.19D-04 DE=-3.08D-08 OVMax= 3.08D-05

 Cycle   5  Pass 1  IDiag  1:
 RMSU=  2.42D-06    CP:  1.00D+00  1.04D+00  8.70D-01  8.96D-01
 E= -557.408310386302     Delta-E=       -0.000000007115 Rises=F Damp=F
 DIIS: error= 9.54D-07 at cycle   5 NSaved=   5.
 NSaved= 5 IEnMin= 5 EnMin= -557.408310386302     IErMin= 5 ErrMin= 9.54D-07
 ErrMax= 9.54D-07  0.00D+00 EMaxC= 1.00D-01 BMatC= 6.48D-10 BMatP= 8.19D-09
 IDIUse=1 WtCom= 1.00D+00 WtEn= 0.00D+00
 Coeff-Com: -0.286D-02 0.334D-01 0.124D+00 0.288D+00 0.557D+00
 Coeff:     -0.286D-02 0.334D-01 0.124D+00 0.288D+00 0.557D+00
 Gap=     0.109 Goal=   None    Shift=    0.000
 RMSDP=1.02D-06 MaxDP=6.18D-05 DE=-7.11D-09 OVMax= 1.25D-05

 Cycle   6  Pass 1  IDiag  1:
 RMSU=  6.31D-07    CP:  1.00D+00  1.03D+00  8.61D-01  8.91D-01  8.49D-01
 E= -557.408310386824     Delta-E=       -0.000000000522 Rises=F Damp=F
 DIIS: error= 4.16D-07 at cycle   6 NSaved=   6.
 NSaved= 6 IEnMin= 6 EnMin= -557.408310386824     IErMin= 6 ErrMin= 4.16D-07
 ErrMax= 4.16D-07  0.00D+00 EMaxC= 1.00D-01 BMatC= 1.45D-10 BMatP= 6.48D-10
 IDIUse=1 WtCom= 1.00D+00 WtEn= 0.00D+00
 Coeff-Com: -0.431D-04-0.657D-02 0.244D-01 0.866D-01 0.357D+00 0.538D+00
 Coeff:     -0.431D-04-0.657D-02 0.244D-01 0.866D-01 0.357D+00 0.538D+00
 Gap=     0.109 Goal=   None    Shift=    0.000
 RMSDP=3.39D-07 MaxDP=1.88D-05 DE=-5.22D-10 OVMax= 3.31D-06

 Cycle   7  Pass 1  IDiag  1:
 RMSU=  2.30D-07    CP:  1.00D+00  1.03D+00  8.66D-01  8.86D-01  8.13D-01
                    CP:  7.31D-01
 E= -557.408310386956     Delta-E=       -0.000000000132 Rises=F Damp=F
 DIIS: error= 9.93D-08 at cycle   7 NSaved=   7.
 NSaved= 7 IEnMin= 7 EnMin= -557.408310386956     IErMin= 7 ErrMin= 9.93D-08
 ErrMax= 9.93D-08  0.00D+00 EMaxC= 1.00D-01 BMatC= 6.65D-12 BMatP= 1.45D-10
 IDIUse=1 WtCom= 1.00D+00 WtEn= 0.00D+00
 Coeff-Com:  0.169D-03-0.565D-02 0.543D-02 0.255D-01 0.161D+00 0.275D+00
 Coeff-Com:  0.538D+00
 Coeff:      0.169D-03-0.565D-02 0.543D-02 0.255D-01 0.161D+00 0.275D+00
 Coeff:      0.538D+00
 Gap=     0.109 Goal=   None    Shift=    0.000
 RMSDP=1.11D-07 MaxDP=6.34D-06 DE=-1.32D-10 OVMax= 1.04D-06

 Cycle   8  Pass 1  IDiag  1:
 RMSU=  6.57D-08    CP:  1.00D+00  1.03D+00  8.69D-01  8.92D-01  8.29D-01
                    CP:  6.89D-01  8.62D-01
 E= -557.408310386960     Delta-E=       -0.000000000004 Rises=F Damp=F
 DIIS: error= 2.37D-08 at cycle   8 NSaved=   8.
 NSaved= 8 IEnMin= 8 EnMin= -557.408310386960     IErMin= 8 ErrMin= 2.37D-08
 ErrMax= 2.37D-08  0.00D+00 EMaxC= 1.00D-01 BMatC= 5.58D-13 BMatP= 6.65D-12
 IDIUse=1 WtCom= 1.00D+00 WtEn= 0.00D+00
 Coeff-Com:  0.796D-04-0.197D-02 0.210D-03 0.173D-02 0.398D-01 0.608D-01
 Coeff-Com:  0.243D+00 0.657D+00
 Coeff:      0.796D-04-0.197D-02 0.210D-03 0.173D-02 0.398D-01 0.608D-01
 Coeff:      0.243D+00 0.657D+00
 Gap=     0.109 Goal=   None    Shift=    0.000
 RMSDP=3.29D-08 MaxDP=3.10D-06 DE=-4.09D-12 OVMax= 4.00D-07

 Cycle   9  Pass 1  IDiag  1:
 RMSU=  1.69D-08    CP:  1.00D+00  1.03D+00  8.69D-01  8.92D-01  8.33D-01
                    CP:  7.01D-01  9.09D-01  9.35D-01
 E= -557.408310386960     Delta-E=        0.000000000001 Rises=F Damp=F
 DIIS: error= 1.18D-08 at cycle   9 NSaved=   9.
 NSaved= 9 IEnMin= 8 EnMin= -557.408310386960     IErMin= 9 ErrMin= 1.18D-08
 ErrMax= 1.18D-08  0.00D+00 EMaxC= 1.00D-01 BMatC= 8.87D-14 BMatP= 5.58D-13
 IDIUse=1 WtCom= 1.00D+00 WtEn= 0.00D+00
 Coeff-Com:  0.225D-04-0.372D-03-0.391D-03-0.223D-02 0.369D-02-0.198D-02
 Coeff-Com:  0.709D-01 0.355D+00 0.576D+00
 Coeff:      0.225D-04-0.372D-03-0.391D-03-0.223D-02 0.369D-02-0.198D-02
 Coeff:      0.709D-01 0.355D+00 0.576D+00
 Gap=     0.109 Goal=   None    Shift=    0.000
 RMSDP=1.02D-08 MaxDP=7.48D-07 DE= 6.82D-13 OVMax= 2.10D-07

 Cycle  10  Pass 1  IDiag  1:
 RMSU=  6.17D-09    CP:  1.00D+00  1.03D+00  8.69D-01  8.91D-01  8.33D-01
                    CP:  7.04D-01  9.31D-01  9.44D-01  1.00D+00
 E= -557.408310386948     Delta-E=        0.000000000011 Rises=F Damp=F
 DIIS: error= 3.40D-09 at cycle  10 NSaved=  10.
 NSaved=10 IEnMin= 8 EnMin= -557.408310386960     IErMin=10 ErrMin= 3.40D-09
 ErrMax= 3.40D-09  0.00D+00 EMaxC= 1.00D-01 BMatC= 7.34D-15 BMatP= 8.87D-14
 IDIUse=1 WtCom= 1.00D+00 WtEn= 0.00D+00
 Coeff-Com: -0.321D-06 0.957D-04-0.168D-03-0.126D-02-0.338D-02-0.992D-02
 Coeff-Com: -0.120D-02 0.636D-01 0.257D+00 0.696D+00
 Coeff:     -0.321D-06 0.957D-04-0.168D-03-0.126D-02-0.338D-02-0.992D-02
 Coeff:     -0.120D-02 0.636D-01 0.257D+00 0.696D+00
 Gap=     0.109 Goal=   None    Shift=    0.000
 RMSDP=4.00D-09 MaxDP=2.42D-07 DE= 1.15D-11 OVMax= 9.69D-08

 Error on total polarization charges =  0.05314
 SCF Done:  E(RB3LYP) =  -557.408310387     A.U. after   10 cycles
            NFock= 10  Conv=0.40D-08     -V/T= 2.0103
 KE= 5.517068840813D+02 PE=-2.780208494452D+03 EE= 9.199608835916D+02
 SMD-CDS (non-electrostatic) energy       (kcal/mol) =      -0.21
 (included in total energy above)
 Leave Link  502 at Wed Jun 24 11:56:46 2026, MaxMem=  4026531840 cpu:             167.7 elap:              21.4
 (Enter /opt/packages/gaussian/g16RevC.01/g16/l801.exe)
 DoSCS=F DFT=T ScalE2(SS,OS)=  1.000000  1.000000
 ExpMin= 4.38D-02 ExpMax= 5.48D+03 ExpMxC= 8.25D+02 IAcc=3 IRadAn=         5 AccDes= 0.00D+00
 HarFok:  IExCor=  205 AccDes= 0.00D+00 IRadAn=         5 IDoV=-2 UseB2=F ITyADJ=14
 ICtDFT= 12500011 ScaDFX=  1.000000  1.000000  1.000000  1.000000
 Largest valence mixing into a core orbital is  5.71D-05
 Largest core mixing into a valence orbital is  1.21D-05
 Range of M.O.s used for correlation:    14   275
 NBasis=   275 NAE=    47 NBE=    47 NFC=    13 NFV=     0
 NROrb=    262 NOA=    34 NOB=    34 NVA=   228 NVB=   228

 **** Warning!!: The largest alpha MO coefficient is  0.23159773D+03

 Leave Link  801 at Wed Jun 24 11:56:46 2026, MaxMem=  4026531840 cpu:               0.7 elap:               0.1
 (Enter /opt/packages/gaussian/g16RevC.01/g16/l914.exe)
 RHF ground state
 Two-electron integrals replicated using symmetry.
 MDV=  4026531840 DFT=T DoStab=F Mixed=T DoRPA=T DoScal=F NonHer=T
 NEqPCM:  Using equilibrium solvation (IEInf=0, Eps=  32.6130, EpsInf=   1.7657)
 Making orbital integer symmetry assigments:
 Orbital symmetries:
       Occupied  (A) (A) (A) (A) (A) (A) (A) (A) (A) (A) (A) (A)
                 (A) (A) (A) (A) (A) (A) (A) (A) (A) (A) (A) (A)
                 (A) (A) (A) (A) (A) (A) (A) (A) (A) (A) (A) (A)
                 (A) (A) (A) (A) (A) (A) (A) (A) (A) (A) (A)
       Virtual   (A) (A) (A) (A) (A) (A) (A) (A) (A) (A) (A) (A)
                 (A) (A) (A) (A) (A) (A) (A) (A) (A) (A) (A) (A)
                 (A) (A) (A) (A) (A) (A) (A) (A) (A) (A) (A) (A)
                 (A) (A) (A) (A) (A) (A) (A) (A) (A) (A) (A) (A)
                 (A) (A) (A) (A) (A) (A) (A) (A) (A) (A) (A) (A)
                 (A) (A) (A) (A) (A) (A) (A) (A) (A) (A) (A) (A)
                 (A) (A) (A) (A) (A) (A) (A) (A) (A) (A) (A) (A)
                 (A) (A) (A) (A) (A) (A) (A) (A) (A) (A) (A) (A)
                 (A) (A) (A) (A) (A) (A) (A) (A) (A) (A) (A) (A)
                 (A) (A) (A) (A) (A) (A) (A) (A) (A) (A) (A) (A)
                 (A) (A) (A) (A) (A) (A) (A) (A) (A) (A) (A) (A)
                 (A) (A) (A) (A) (A) (A) (A) (A) (A) (A) (A) (A)
                 (A) (A) (A) (A) (A) (A) (A) (A) (A) (A) (A) (A)
                 (A) (A) (A) (A) (A) (A) (A) (A) (A) (A) (A) (A)
                 (A) (A) (A) (A) (A) (A) (A) (A) (A) (A) (A) (A)
                 (A) (A) (A) (A) (A) (A) (A) (A) (A) (A) (A) (A)
                 (A) (A) (A) (A) (A) (A) (A) (A) (A) (A) (A) (A)
                 (A) (A) (A) (A) (A) (A) (A) (A) (A) (A) (A) (A)
                 (A) (A) (A) (A) (A) (A) (A) (A) (A) (A) (A) (A)
 Generating guess from densities on rwf.
 Convergence on wavefunction:    0.000001000000000
 Davidson Disk Diagonalization:  ConvIn= 1.00D-06 SkipCon=T Conv= 1.00D-06.
 Max sub-space:  2000 roots to seek:     5 dimension of matrix:        15504
 Iteration     1 Dimension    10 NMult     0 NNew     10
 CISAX will form    10 AO SS matrices at one time.
 NMat=    10 NSing=    10 JSym2X= 0.
 FoFJK:  IHMeth= 1 ICntrl=       0 DoSepK=F KAlg= 0 I1Cent=           0 FoldK=F
 IRaf= 880000000 NMat=      20 IRICut=      25 DoRegI=T DoRafI=T ISym2E= 0 IDoP0=0 IntGTp=1.
 FoFCou: FMM=F IPFlag=           0 FMFlag=      100000 FMFlg1=           0
         NFxFlg=           0 DoJE=F BraDBF=F KetDBF=F FulRan=T
         wScrn=  0.000000 ICntrl=         0 IOpCl=  0 I1Cent=           0 NGrid=           0
         NMat0=   20 NMatS0=     10 NMatT0=    0 NMatD0=   20 NMtDS0=    0 NMtDT0=    0
 Symmetry not used in FoFCou.
 Raff kept on since  88.29% of shell-pairs survive, threshold=   0.20 IRatSp=88.
 Excitation Energies [eV] at current iteration:
 Root      1 :     2.031664905152986
 Root      2 :     3.345880758229070
 Root      3 :     4.742536711702056
 Root      4 :     4.783148833727280
 Root      5 :     5.001097716347595
 Iteration     2 Dimension    20 NMult    10 NNew     10
 CISAX will form    10 AO SS matrices at one time.
 NMat=    10 NSing=    10 JSym2X= 0.
 Root      1 not converged, maximum delta is    0.000898438083054
 Root      2 not converged, maximum delta is    0.000910554566043
 Root      3 not converged, maximum delta is    0.001019609965756
 Root      4 not converged, maximum delta is    0.000371057189716
 Root      5 not converged, maximum delta is    0.000820966720824
 Excitation Energies [eV] at current iteration:
 Root      1 :     2.031537326601223   Change is   -0.000127578551763
 Root      2 :     3.345733914718050   Change is   -0.000146843511021
 Root      3 :     4.742387772926715   Change is   -0.000148938775341
 Root      4 :     4.783112740160049   Change is   -0.000036093567231
 Root      5 :     5.000976219189353   Change is   -0.000121497158243
 Iteration     3 Dimension    30 NMult    20 NNew     10
 CISAX will form    10 AO SS matrices at one time.
 NMat=    10 NSing=    10 JSym2X= 0.
 Root      1 not converged, maximum delta is    0.000055825797903
 Root      2 not converged, maximum delta is    0.000081271863901
 Root      3 not converged, maximum delta is    0.000089653701836
 Root      4 not converged, maximum delta is    0.000037528449562
 Root      5 not converged, maximum delta is    0.000463920365203
 Excitation Energies [eV] at current iteration:
 Root      1 :     2.031536670179993   Change is   -0.000000656421230
 Root      2 :     3.345733231969675   Change is   -0.000000682748375
 Root      3 :     4.742386666290094   Change is   -0.000001106636621
 Root      4 :     4.783112413622775   Change is   -0.000000326537274
 Root      5 :     5.000974939181341   Change is   -0.000001280008012
 Iteration     4 Dimension    40 NMult    30 NNew     10
 CISAX will form    10 AO SS matrices at one time.
 NMat=    10 NSing=    10 JSym2X= 0.
 Root      1 not converged, maximum delta is    0.000006042471936
 Root      2 not converged, maximum delta is    0.000015129685009
 Root      3 not converged, maximum delta is    0.000033796985558
 Root      4 not converged, maximum delta is    0.000049040847339
 Root      5 not converged, maximum delta is    0.000953222948917
 Excitation Energies [eV] at current iteration:
 Root      1 :     2.031536627520626   Change is   -0.000000042659367
 Root      2 :     3.345733190082220   Change is   -0.000000041887455
 Root      3 :     4.742386544454949   Change is   -0.000000121835145
 Root      4 :     4.783112365248664   Change is   -0.000000048374111
 Root      5 :     5.000974298161309   Change is   -0.000000641020032
 Iteration     5 Dimension    50 NMult    40 NNew     10
 CISAX will form    10 AO SS matrices at one time.
 NMat=    10 NSing=    10 JSym2X= 0.
 Root      1 not converged, maximum delta is    0.000001608212146
 Root      2 not converged, maximum delta is    0.000002152845654
 Root      3 not converged, maximum delta is    0.000015787421124
 Root      4 not converged, maximum delta is    0.000041986709939
 Root      5 not converged, maximum delta is    0.000403593533001
 Excitation Energies [eV] at current iteration:
 Root      1 :     2.031536626387020   Change is   -0.000000001133605
 Root      2 :     3.345733188512388   Change is   -0.000000001569832
 Root      3 :     4.742386529671873   Change is   -0.000000014783077
 Root      4 :     4.783112353226231   Change is   -0.000000012022434
 Root      5 :     5.000974092453274   Change is   -0.000000205708035
 Iteration     6 Dimension    60 NMult    50 NNew     10
 CISAX will form    10 AO SS matrices at one time.
 NMat=    10 NSing=    10 JSym2X= 0.
 Root      1 has converged.
 Root      2 has converged.
 Root      3 not converged, maximum delta is    0.000006076789925
 Root      4 not converged, maximum delta is    0.000015493301965
 Root      5 not converged, maximum delta is    0.000079061903008
 Excitation Energies [eV] at current iteration:
 Root      1 :     2.031536626353151   Change is   -0.000000000033870
 Root      2 :     3.345733188430641   Change is   -0.000000000081747
 Root      3 :     4.742386527935047   Change is   -0.000000001736826
 Root      4 :     4.783112351116316   Change is   -0.000000002109915
 Root      5 :     5.000974064011890   Change is   -0.000000028441384
 Iteration     7 Dimension    66 NMult    60 NNew      6
 CISAX will form     6 AO SS matrices at one time.
 NMat=     6 NSing=     6 JSym2X= 0.
 Root      1 has converged.
 Root      2 has converged.
 Root      3 not converged, maximum delta is    0.000001656493951
 Root      4 not converged, maximum delta is    0.000002003384164
 Root      5 not converged, maximum delta is    0.000018644295539
 Excitation Energies [eV] at current iteration:
 Root      1 :     2.031536626352827   Change is   -0.000000000000324
 Root      2 :     3.345733188429536   Change is   -0.000000000001106
 Root      3 :     4.742386527778307   Change is   -0.000000000156740
 Root      4 :     4.783112350899159   Change is   -0.000000000217158
 Root      5 :     5.000974059359702   Change is   -0.000000004652187
 Iteration     8 Dimension    72 NMult    66 NNew      6
 CISAX will form     6 AO SS matrices at one time.
 NMat=     6 NSing=     6 JSym2X= 0.
 Root      1 has converged.
 Root      2 has converged.
 Root      3 has converged.
 Root      4 has converged.
 Root      5 not converged, maximum delta is    0.000003164739155
 Excitation Energies [eV] at current iteration:
 Root      1 :     2.031536626352787   Change is   -0.000000000000040
 Root      2 :     3.345733188429069   Change is   -0.000000000000467
 Root      3 :     4.742386527765168   Change is   -0.000000000013139
 Root      4 :     4.783112350874306   Change is   -0.000000000024853
 Root      5 :     5.000974058875070   Change is   -0.000000000484633
 Iteration     9 Dimension    74 NMult    72 NNew      2
 CISAX will form     2 AO SS matrices at one time.
 NMat=     2 NSing=     2 JSym2X= 0.
 Root      1 has converged.
 Root      2 has converged.
 Root      3 has converged.
 Root      4 has converged.
 Root      5 has converged.
 Excitation Energies [eV] at current iteration:
 Root      1 :     2.031536626352867   Change is    0.000000000000081
 Root      2 :     3.345733188429044   Change is   -0.000000000000025
 Root      3 :     4.742386527764872   Change is   -0.000000000000295
 Root      4 :     4.783112350873137   Change is   -0.000000000001168
 Root      5 :     5.000974058826904   Change is   -0.000000000048164
 Convergence achieved on expansion vectors.
 ***********************************************************************
 Excited states from <AA,BB:AA,BB> singles matrix:
 ***********************************************************************
 
 1PDM for each excited state written to RWF  633
 Ground to excited state transition densities written to RWF  633
 Ground to excited state transition electric dipole moments (Au):
       state          X           Y           Z        Dip. S.      Osc.
         1        -0.0072     -0.0346     -0.0087      0.0013      0.0001
         2         0.1252      0.0078     -0.0096      0.0158      0.0013
         3        -1.0651      0.0413     -0.8104      1.7930      0.2083
         4        -0.4087      1.0029      0.1553      1.1968      0.1403
         5         0.1285      0.0673      0.1622      0.0473      0.0058
 Ground to excited state transition velocity dipole moments (Au):
       state          X           Y           Z        Dip. S.      Osc.
         1        -0.0003      0.0006     -0.0018      0.0000      0.0000
         2        -0.0141     -0.0009      0.0043      0.0002      0.0012
         3         0.1815     -0.0089      0.1395      0.0525      0.2008
         4         0.0739     -0.1760     -0.0273      0.0372      0.1411
         5        -0.0229     -0.0121     -0.0321      0.0017      0.0062
 Ground to excited state transition magnetic dipole moments (Au):
       state          X           Y           Z
         1         0.1474      0.0725      0.0856
         2         0.0807      0.0625      0.0182
         3         0.2010      0.0453     -0.1592
         4        -0.0007     -0.0011      0.0166
         5        -0.2789     -0.1047     -0.2239
 Ground to excited state transition velocity quadrupole moments (Au):
       state          XX          YY          ZZ          XY          XZ          YZ
         1         0.0007      0.0014      0.0099      0.0233      0.0149      0.0025
         2        -0.0312     -0.0058      0.0071     -0.0014     -0.0470      0.0046
         3        -0.7954      0.1585     -0.1259     -0.1632     -0.7556     -0.1217
         4         0.4779     -0.1823      0.0003     -0.5053      0.0667      0.0141
         5         0.3550     -0.0598     -0.0008      0.0080      0.1076      0.0545
 <0|del|b> * <b|rxdel|0> + <0|del|b> * <b|delr+rdel|0>
 Rotatory Strengths (R) in cgs (10**-40 erg-esu-cm/Gauss)
       state          XX          YY          ZZ    R(velocity)    E-M Angle
         1        -0.7774     -0.7272      0.0565     -0.4827      115.35
         2        -0.0845     -3.2260     -3.1390     -2.1498      136.84
         3      -105.7138     30.3626    131.6706     18.7731       76.54
         4        50.8033    -26.6266    -25.4513     -0.4249       95.67
         5        18.2685     24.1876     14.6187     19.0249       15.06
 1/2[<0|r|b>*<b|rxdel|0> + (<0|rxdel|b>*<b|r|0>)*]
 Rotatory Strengths (R) in cgs (10**-40 erg-esu-cm/Gauss)
       state          XX          YY          ZZ     R(length)
         1         0.7497      1.7741      0.5290      1.0176
         2        -7.1511     -0.3469      0.1234     -2.4582
         3       151.3981     -1.3210    -91.2262     19.6170
         4        -0.1979      0.7496     -1.8219     -0.4234
         5        25.3409      4.9787     25.6760     18.6652
  1/2[<0|del|b>*<b|r|0> + (<0|r|b>*<b|del|0>)*] (Au)
       state          X           Y           Z        Dip. S.   Osc.(frdel)
         1         0.0000     -0.0000      0.0000      0.0000      0.0000
         2        -0.0018     -0.0000     -0.0000      0.0018      0.0012
         3        -0.1934     -0.0004     -0.1130      0.3068      0.2045
         4        -0.0302     -0.1765     -0.0042      0.2110      0.1406
         5        -0.0029     -0.0008     -0.0052      0.0090      0.0060

 Excitation energies and oscillator strengths:
 
 Excited State   1:      Singlet-A      2.0315 eV  610.30 nm  f=0.0001  <S**2>=0.000
      47 -> 48         0.70357
 This state for optimization and/or second-order correction.
 Total Energy, E(TD-HF/TD-DFT) =  -557.333652790    
 Copying the excited state density for this state as the 1-particle RhoCI density.
 
 Excited State   2:      Singlet-A      3.3457 eV  370.57 nm  f=0.0013  <S**2>=0.000
      46 -> 48         0.70679
 
 Excited State   3:      Singlet-A      4.7424 eV  261.44 nm  f=0.2083  <S**2>=0.000
      45 -> 48        -0.68472
      47 -> 49         0.10632
 
 Excited State   4:      Singlet-A      4.7831 eV  259.21 nm  f=0.1403  <S**2>=0.000
      46 -> 49         0.15375
      46 -> 50        -0.11290
      47 -> 49         0.53630
      47 -> 50         0.39913
 
 Excited State   5:      Singlet-A      5.0010 eV  247.92 nm  f=0.0058  <S**2>=0.000
      43 -> 48        -0.62322
      44 -> 48        -0.28280
 SavETr:  write IOETrn=   770 NScale= 10 NData=  16 NLR=1 NState=    5 LETran=     100.
 The selected state is a singlet.
 CISGrd: IGrad=2 NXY=2 DFT=T
 CISAX will form     1 AO SS matrices at one time.
 NMat=     1 NSing=     1 JSym2X= 0.
 GePol: Maximum number of non-zero 1st derivatives   =     253
 Leave Link  914 at Wed Jun 24 11:58:40 2026, MaxMem=  4026531840 cpu:             912.8 elap:             114.6
 (Enter /opt/packages/gaussian/g16RevC.01/g16/l1002.exe)
 Minotr:  Closed shell wavefunction.
          Computing CIS/TDA/TD derivatives.
          Using Z-Vector for PSCF gradient.
          Skipping F1 and S1 gradient terms here.
          IDoAtm=111111111111111111111111111
 NEqPCM:  Using equilibrium solvation (IEInf=0, Eps=  32.6130, EpsInf=   1.7657)
          Frozen-core window.
          Direct CPHF calculation.
          Differentiating once with respect to electric field.
                with respect to dipole field.
          Differentiating once with respect to nuclear coordinates.
          Requested convergence is 1.0D-10 RMS, and 1.0D-09 maximum.
          NewPWx=F KeepS1=T KeepF1=T KeepIn=T MapXYZ=F SortEE=F KeepMc=T.
 Keep R1 ints in memory in canonical form, NReq=730638089.
 FoFCou: FMM=F IPFlag=           0 FMFlag=           0 FMFlg1=           0
         NFxFlg=           0 DoJE=F BraDBF=F KetDBF=F FulRan=T
         wScrn=  0.000000 ICntrl=       600 IOpCl=  0 I1Cent=           0 NGrid=           0
         NMat0=    1 NMatS0=  37950 NMatT0=    0 NMatD0=    1 NMtDS0=    0 NMtDT0=    0
 Symmetry not used in FoFCou.
 Two-electron integral symmetry not used.
          MDV=    4026531840 using IRadAn=       5.
          Solving linear equations separately, MaxMat=       0.
          There are     1 degrees of freedom in the 1st order CPHF.  IDoFFX=0 NUNeed=     1.
 LinEq1:  Iter=  0 NonCon=     1 RMS=1.16D-02 Max=2.71D-01 NDo=     1
 AX will form     1 AO Fock derivatives at one time.
 LinEq1:  Iter=  1 NonCon=     1 RMS=3.40D-03 Max=1.77D-01 NDo=     1
 LinEq1:  Iter=  2 NonCon=     1 RMS=2.39D-03 Max=4.74D-02 NDo=     1
 LinEq1:  Iter=  3 NonCon=     1 RMS=1.02D-03 Max=3.46D-02 NDo=     1
 LinEq1:  Iter=  4 NonCon=     1 RMS=9.75D-04 Max=4.42D-02 NDo=     1
 LinEq1:  Iter=  5 NonCon=     1 RMS=4.98D-04 Max=1.29D-02 NDo=     1
 LinEq1:  Iter=  6 NonCon=     1 RMS=3.03D-04 Max=1.30D-02 NDo=     1
 LinEq1:  Iter=  7 NonCon=     1 RMS=1.38D-04 Max=5.77D-03 NDo=     1
 LinEq1:  Iter=  8 NonCon=     1 RMS=8.85D-05 Max=4.23D-03 NDo=     1
 LinEq1:  Iter=  9 NonCon=     1 RMS=4.28D-05 Max=1.88D-03 NDo=     1
 LinEq1:  Iter= 10 NonCon=     1 RMS=2.36D-05 Max=6.31D-04 NDo=     1
 LinEq1:  Iter= 11 NonCon=     1 RMS=1.03D-05 Max=2.18D-04 NDo=     1
 LinEq1:  Iter= 12 NonCon=     1 RMS=4.91D-06 Max=1.19D-04 NDo=     1
 LinEq1:  Iter= 13 NonCon=     1 RMS=1.49D-06 Max=3.47D-05 NDo=     1
 LinEq1:  Iter= 14 NonCon=     1 RMS=9.29D-07 Max=2.08D-05 NDo=     1
 LinEq1:  Iter= 15 NonCon=     1 RMS=3.46D-07 Max=1.38D-05 NDo=     1
 LinEq1:  Iter= 16 NonCon=     1 RMS=2.01D-07 Max=5.81D-06 NDo=     1
 LinEq1:  Iter= 17 NonCon=     1 RMS=8.68D-08 Max=2.33D-06 NDo=     1
 LinEq1:  Iter= 18 NonCon=     1 RMS=3.53D-08 Max=5.62D-07 NDo=     1
 LinEq1:  Iter= 19 NonCon=     1 RMS=1.38D-08 Max=2.09D-07 NDo=     1
 LinEq1:  Iter= 20 NonCon=     1 RMS=3.69D-09 Max=8.10D-08 NDo=     1
 LinEq1:  Iter= 21 NonCon=     1 RMS=2.30D-09 Max=3.91D-08 NDo=     1
 LinEq1:  Iter= 22 NonCon=     1 RMS=5.59D-10 Max=1.46D-08 NDo=     1
 LinEq1:  Iter= 23 NonCon=     1 RMS=1.30D-10 Max=3.08D-09 NDo=     1
 LinEq1:  Iter= 24 NonCon=     1 RMS=7.24D-11 Max=1.48D-09 NDo=     1
 LinEq1:  Iter= 25 NonCon=     0 RMS=2.29D-11 Max=4.78D-10 NDo=     1
 Linear equations converged to 1.000D-10 1.000D-09 after    25 iterations.
 End of Minotr F.D. properties file   721 does not exist.
 End of Minotr F.D. properties file   722 does not exist.
 End of Minotr F.D. properties file   788 does not exist.
 Leave Link 1002 at Wed Jun 24 11:59:29 2026, MaxMem=  4026531840 cpu:             311.3 elap:              48.7
 (Enter /opt/packages/gaussian/g16RevC.01/g16/l701.exe)
 ... and contract with generalized density number  6.
 Compute integral first derivatives.
 D1PCM: PCM CHGder 1st derivatives, ID1Alg=3 FixD1E=F DoIter=F DoCFld=F I1PDM=6.
 Leave Link  701 at Wed Jun 24 11:59:31 2026, MaxMem=  4026531840 cpu:              13.5 elap:               1.7
 (Enter /opt/packages/gaussian/g16RevC.01/g16/l702.exe)
 L702 exits ... SP integral derivatives will be done elsewhere.
 Leave Link  702 at Wed Jun 24 11:59:31 2026, MaxMem=  4026531840 cpu:               0.1 elap:               0.0
 (Enter /opt/packages/gaussian/g16RevC.01/g16/l703.exe)
 Integral derivatives from FoFJK, PRISM(SPDF).
 Compute integral first derivatives, UseDBF=F ICtDFT=           0.
 Calling FoFJK, ICntrl=  10005127 FMM=F ISym2X=0 I1Cent= 0 IOpClX= 0 NMat=1 NMatS=1 NMatT=0.
 FoFJK:  IHMeth= 1 ICntrl=10005127 DoSepK=F KAlg= 0 I1Cent=           0 FoldK=F
 IRaf=         0 NMat=       1 IRICut=       1 DoRegI=T DoRafI=F ISym2E= 0 IDoP0=0 IntGTp=1.
 FoFCou: FMM=F IPFlag=           0 FMFlag=      100000 FMFlg1=         800
         NFxFlg=           0 DoJE=F BraDBF=F KetDBF=F FulRan=T
         wScrn=  0.000000 ICntrl=  10005127 IOpCl=  0 I1Cent=           0 NGrid=           0
         NMat0=    1 NMatS0=      1 NMatT0=    0 NMatD0=    1 NMtDS0=    0 NMtDT0=    0
 Symmetry not used in FoFCou.
 Leave Link  703 at Wed Jun 24 11:59:37 2026, MaxMem=  4026531840 cpu:              49.9 elap:               6.3
 (Enter /opt/packages/gaussian/g16RevC.01/g16/l716.exe)
 Dipole        = 2.36651099D+00-4.89248255D-01-3.63708050D-01
 ***** Axes restored to original set *****
 -------------------------------------------------------------------
 Center     Atomic                   Forces (Hartrees/Bohr)
 Number     Number              X              Y              Z
 -------------------------------------------------------------------
      1        6          -0.000036505    0.000020512    0.000004066
      2        6          -0.000009567   -0.000008857    0.000016256
      3        6          -0.000016764    0.000017636   -0.000017841
      4        6          -0.000112102   -0.000050226   -0.000026200
      5        6           0.000071795    0.000030055    0.000055206
      6        6          -0.000009847   -0.000001948    0.000007884
      7        1          -0.000007043   -0.000014655   -0.000002947
      8        1           0.000009752    0.000006037   -0.000005724
      9        1           0.000000910   -0.000000446    0.000017112
     10        1           0.000012607   -0.000007839   -0.000020513
     11        8           0.000058075   -0.000010325   -0.000054973
     12        6          -0.000016809    0.000006053    0.000049434
     13        1          -0.000018665    0.000008557    0.000001304
     14        1           0.000002642    0.000009731   -0.000022671
     15        1          -0.000001933    0.000004343    0.000007528
     16        6          -0.000005123   -0.000052438   -0.000114091
     17        6           0.000070040    0.000086319   -0.000021995
     18        7           0.000028550    0.000028203    0.000060117
     19        6           0.000013161   -0.000015365    0.000027659
     20        6          -0.000034498    0.000021334    0.000007087
     21        1          -0.000004699   -0.000026944    0.000006900
     22        1          -0.000001011   -0.000007226    0.000010809
     23        1          -0.000005616   -0.000009988    0.000015803
     24        1           0.000009697   -0.000000796   -0.000014647
     25        1           0.000007735   -0.000009911   -0.000005233
     26        1           0.000001706    0.000003926   -0.000009538
     27        1          -0.000006487   -0.000025742    0.000029212
 -------------------------------------------------------------------
 Cartesian Forces:  Max     0.000114091 RMS     0.000031456
 Leave Link  716 at Wed Jun 24 11:59:37 2026, MaxMem=  4026531840 cpu:               0.1 elap:               0.0
 (Enter /opt/packages/gaussian/g16RevC.01/g16/l103.exe)

 GradGradGradGradGradGradGradGradGradGradGradGradGradGradGradGradGradGrad
 Berny optimization.
 Using GEDIIS/GDIIS optimizer.
 FormGI is forming the generalized inverse of G from B-inverse, IUseBI=4.
 GSVD:  received Info=                   1 from GESDD.
 Internal  Forces:  Max     0.000085705 RMS     0.000016620
 Search for a local minimum.
 Step number   7 out of a maximum of  154
 All quantities printed in internal units (Hartrees-Bohrs-Radians)
 RMS Force = .16620D-04 SwitMx=.10000D-02 MixMth= 2
 Mixed Optimization -- En-DIIS/RFO-DIIS
 Swapping is turned off.
 Update second derivatives using D2CorX and points    1    2    3    4    5
                                                      6    7
 DE= -5.48D-07 DEPred=-4.65D-07 R= 1.18D+00
 Trust test= 1.18D+00 RLast= 1.30D-02 DXMaxT set to 3.71D-01
 ITU=  0  1  1  1  1  0  0
     Eigenvalues ---    0.00230   0.00572   0.00913   0.01144   0.01426
     Eigenvalues ---    0.01555   0.01702   0.01832   0.01942   0.01993
     Eigenvalues ---    0.02010   0.02107   0.02189   0.02207   0.02821
     Eigenvalues ---    0.03284   0.03520   0.03912   0.04999   0.05266
     Eigenvalues ---    0.05766   0.06074   0.06897   0.07136   0.07857
     Eigenvalues ---    0.08410   0.09304   0.10179   0.10720   0.10806
     Eigenvalues ---    0.12587   0.15657   0.16000   0.16000   0.16004
     Eigenvalues ---    0.16008   0.16150   0.17443   0.20119   0.21678
     Eigenvalues ---    0.21929   0.22046   0.23013   0.23902   0.24876
     Eigenvalues ---    0.25202   0.26682   0.26965   0.27531   0.29713
     Eigenvalues ---    0.33307   0.33547   0.33993   0.34077   0.34172
     Eigenvalues ---    0.34266   0.34294   0.34491   0.34585   0.34933
     Eigenvalues ---    0.35068   0.35216   0.35243   0.35489   0.35631
     Eigenvalues ---    0.37867   0.39013   0.39698   0.40549   0.41661
     Eigenvalues ---    0.44400   0.45430   0.47720   0.50583   0.64262
 En-DIIS/RFO-DIIS/Sim-DIIS IScMMF=       -3 using points:     7    6    5    4    3    2    1
 RFO step:  Lambda=-4.56784715D-07.
 NNeg= 0 NGDIIS= 7 SimSw=  2.50D-01 Rises=F DC= -5.48D-07 SmlDif=  1.00D-05
 NRisDI= 0 DoIntr=F SqrtH=F CThrHd= 10.0 CDAdj=  3.0
 RMS Error=  0.8359397788D-03 NUsed= 7 OKEnD=F EnDIS=F
 InvSVX:  RCond= 1.28D-07 Info=           0 Equed=N FErr=  1.02D-12 BErr=  6.93D-17
 DidBck=F Rises=F RFO-DIIS coefs:    1.88960   -0.85984   -0.20247    0.23161   -0.03593
                  RFO-DIIS coefs:   -0.01534   -0.00762
 Iteration  1 RMS(Cart)=  0.00127025 RMS(Int)=  0.00000107
 Iteration  2 RMS(Cart)=  0.00000108 RMS(Int)=  0.00000081
 Iteration  3 RMS(Cart)=  0.00000000 RMS(Int)=  0.00000081
 ITry= 1 IFail=0 DXMaxC= 5.22D-03 DCOld= 1.00D+10 DXMaxT= 3.71D-01 DXLimC= 3.00D+00 Rises=F
 Variable       Old X    -DE/DX   Delta X   Delta X   Delta X     New X
                                 (Linear)    (Quad)   (Total)
    R1        2.70021   0.00001   0.00003  -0.00000   0.00002   2.70023
    R2        2.71198  -0.00003  -0.00009  -0.00000  -0.00009   2.71189
    R3        2.48070   0.00002   0.00010  -0.00005   0.00005   2.48075
    R4        2.59303   0.00001   0.00008  -0.00004   0.00004   2.59307
    R5        2.04774   0.00000   0.00002   0.00001   0.00002   2.04776
    R6        2.70924  -0.00002  -0.00010   0.00002  -0.00008   2.70916
    R7        2.05192  -0.00001  -0.00006   0.00003  -0.00003   2.05189
    R8        2.69049   0.00007   0.00012   0.00009   0.00021   2.69070
    R9        2.79044  -0.00007  -0.00014  -0.00013  -0.00027   2.79017
   R10        2.59164  -0.00004  -0.00004  -0.00005  -0.00009   2.59155
   R11        2.05151  -0.00002  -0.00011   0.00005  -0.00006   2.05145
   R12        2.05051  -0.00002  -0.00008   0.00005  -0.00004   2.05047
   R13        2.74694  -0.00006  -0.00002  -0.00015  -0.00017   2.74676
   R14        2.06403  -0.00000  -0.00005   0.00005  -0.00000   2.06402
   R15        2.06402  -0.00002  -0.00008   0.00004  -0.00004   2.06397
   R16        2.05710   0.00000   0.00001  -0.00001   0.00001   2.05711
   R17        2.85470  -0.00006  -0.00027  -0.00009  -0.00036   2.85434
   R18        2.64057  -0.00009  -0.00012  -0.00002  -0.00014   2.64043
   R19        2.92261   0.00002   0.00001   0.00007   0.00009   2.92270
   R20        2.06939   0.00001   0.00007  -0.00003   0.00004   2.06943
   R21        2.08575   0.00000  -0.00008   0.00009   0.00002   2.08576
   R22        2.79178  -0.00001   0.00025  -0.00007   0.00018   2.79196
   R23        1.91705  -0.00003  -0.00003  -0.00000  -0.00003   1.91702
   R24        2.91259  -0.00003  -0.00014  -0.00003  -0.00017   2.91242
   R25        2.07224  -0.00000  -0.00006   0.00004  -0.00002   2.07223
   R26        2.06835  -0.00001  -0.00006   0.00002  -0.00004   2.06831
   R27        2.07104  -0.00001  -0.00006   0.00003  -0.00003   2.07101
   R28        2.06797  -0.00000  -0.00000  -0.00000  -0.00000   2.06797
    A1        2.10722   0.00001  -0.00002   0.00007   0.00005   2.10727
    A2        2.17191   0.00000   0.00003  -0.00006  -0.00003   2.17188
    A3        2.00406  -0.00001  -0.00001  -0.00001  -0.00002   2.00404
    A4        2.06630   0.00001   0.00009  -0.00004   0.00005   2.06635
    A5        2.10690  -0.00001  -0.00013   0.00001  -0.00012   2.10678
    A6        2.10998   0.00001   0.00005   0.00003   0.00007   2.11006
    A7        2.12697  -0.00001  -0.00009   0.00002  -0.00006   2.12691
    A8        2.08540   0.00001   0.00007  -0.00002   0.00005   2.08545
    A9        2.07081   0.00000   0.00002   0.00000   0.00002   2.07083
   A10        2.07065  -0.00001  -0.00000  -0.00003  -0.00003   2.07061
   A11        2.10706   0.00001   0.00002   0.00005   0.00007   2.10712
   A12        2.10537  -0.00000  -0.00001  -0.00002  -0.00003   2.10533
   A13        2.10887   0.00001   0.00005   0.00002   0.00007   2.10894
   A14        2.07578  -0.00001  -0.00002  -0.00003  -0.00005   2.07573
   A15        2.09853  -0.00001  -0.00003   0.00001  -0.00002   2.09852
   A16        2.08635  -0.00001  -0.00003  -0.00004  -0.00007   2.08628
   A17        2.06165   0.00000  -0.00002   0.00005   0.00003   2.06168
   A18        2.13518   0.00000   0.00005  -0.00001   0.00004   2.13522
   A19        2.12926   0.00000   0.00014  -0.00012   0.00002   2.12927
   A20        1.91106  -0.00003   0.00009  -0.00032  -0.00023   1.91083
   A21        1.90915   0.00002  -0.00004   0.00025   0.00022   1.90936
   A22        1.82529  -0.00001   0.00008  -0.00012  -0.00004   1.82525
   A23        1.94558  -0.00000  -0.00004  -0.00001  -0.00005   1.94554
   A24        1.93443   0.00002  -0.00000   0.00011   0.00010   1.93453
   A25        1.93440   0.00000  -0.00008   0.00007  -0.00001   1.93439
   A26        2.14319  -0.00002   0.00031   0.00002   0.00033   2.14352
   A27        2.07049   0.00000   0.00024   0.00017   0.00040   2.07090
   A28        1.88523   0.00002   0.00055  -0.00006   0.00049   1.88572
   A29        1.76756  -0.00000  -0.00002  -0.00007  -0.00009   1.76747
   A30        1.96662   0.00002   0.00017  -0.00002   0.00015   1.96677
   A31        1.95584   0.00000   0.00005   0.00017   0.00022   1.95605
   A32        1.96704  -0.00001  -0.00000  -0.00003  -0.00003   1.96701
   A33        1.93500   0.00001   0.00002  -0.00002   0.00000   1.93501
   A34        1.87272  -0.00001  -0.00020  -0.00003  -0.00023   1.87249
   A35        1.93412   0.00001  -0.00042   0.00007  -0.00034   1.93377
   A36        2.07311  -0.00000  -0.00053   0.00013  -0.00040   2.07271
   A37        2.06163  -0.00000  -0.00052   0.00016  -0.00035   2.06128
   A38        1.82136  -0.00000   0.00022  -0.00009   0.00012   1.82148
   A39        1.90444   0.00001  -0.00017   0.00015  -0.00002   1.90442
   A40        1.93407  -0.00001  -0.00024   0.00008  -0.00016   1.93391
   A41        1.94983  -0.00001  -0.00016  -0.00011  -0.00027   1.94955
   A42        1.96691   0.00001   0.00032   0.00000   0.00032   1.96724
   A43        1.88656  -0.00000   0.00002  -0.00002  -0.00000   1.88656
   A44        1.82070  -0.00002  -0.00018  -0.00008  -0.00026   1.82044
   A45        1.91043   0.00000  -0.00001   0.00006   0.00005   1.91048
   A46        1.96506   0.00001   0.00007  -0.00001   0.00005   1.96511
   A47        1.91956   0.00001   0.00016   0.00000   0.00017   1.91973
   A48        1.95876  -0.00000  -0.00009  -0.00002  -0.00011   1.95865
   A49        1.88863  -0.00000   0.00005   0.00005   0.00010   1.88872
    D1       -0.00041   0.00001   0.00018   0.00039   0.00057   0.00015
    D2        3.14007   0.00000  -0.00002   0.00034   0.00032   3.14040
    D3        3.13978   0.00000   0.00025   0.00002   0.00027   3.14005
    D4       -0.00292  -0.00000   0.00005  -0.00003   0.00002  -0.00289
    D5        0.00255  -0.00001  -0.00036  -0.00036  -0.00072   0.00183
    D6       -3.14089  -0.00000  -0.00006  -0.00038  -0.00043  -3.14132
    D7       -3.13777  -0.00000  -0.00043  -0.00002  -0.00045  -3.13822
    D8        0.00197  -0.00000  -0.00012  -0.00004  -0.00016   0.00181
    D9       -0.00379  -0.00000   0.00133  -0.00054   0.00079  -0.00301
   D10        3.13648  -0.00000   0.00140  -0.00089   0.00051   3.13698
   D11        0.00021  -0.00000   0.00020  -0.00013   0.00007   0.00028
   D12        3.13879   0.00000   0.00040  -0.00016   0.00024   3.13903
   D13       -3.14027   0.00000   0.00040  -0.00009   0.00032  -3.13996
   D14       -0.00169   0.00001   0.00060  -0.00012   0.00048  -0.00121
   D15       -0.00205  -0.00000  -0.00040  -0.00016  -0.00055  -0.00261
   D16       -3.12736  -0.00000  -0.00057   0.00001  -0.00055  -3.12792
   D17       -3.14066  -0.00001  -0.00059  -0.00013  -0.00072  -3.14138
   D18        0.01721  -0.00001  -0.00076   0.00004  -0.00072   0.01650
   D19        0.00422   0.00000   0.00021   0.00019   0.00040   0.00462
   D20       -3.13681  -0.00000  -0.00030   0.00027  -0.00003  -3.13684
   D21        3.12955   0.00000   0.00037   0.00002   0.00040   3.12995
   D22       -0.01148  -0.00000  -0.00013   0.00010  -0.00003  -0.01151
   D23        1.12023   0.00001   0.00166  -0.00004   0.00162   1.12185
   D24       -1.33088  -0.00001  -0.00034  -0.00024  -0.00058  -1.33146
   D25       -2.00476   0.00001   0.00149   0.00013   0.00162  -2.00314
   D26        1.82731  -0.00001  -0.00051  -0.00007  -0.00058   1.82673
   D27       -0.00446   0.00000   0.00016   0.00006   0.00022  -0.00423
   D28        3.13906  -0.00000  -0.00016   0.00008  -0.00008   3.13899
   D29        3.13657   0.00001   0.00068  -0.00002   0.00065   3.13722
   D30       -0.00310   0.00001   0.00035  -0.00000   0.00035  -0.00274
   D31        1.06141   0.00000  -0.00008   0.00034   0.00025   1.06167
   D32       -1.07538   0.00001  -0.00007   0.00039   0.00032  -1.07506
   D33        3.13509   0.00000   0.00000   0.00024   0.00024   3.13534
   D34       -3.07107  -0.00001  -0.00114  -0.00044  -0.00158  -3.07264
   D35        1.10633  -0.00001  -0.00121  -0.00035  -0.00156   1.10477
   D36       -1.00791  -0.00001  -0.00111  -0.00042  -0.00153  -1.00944
   D37       -0.55788  -0.00000   0.00059  -0.00018   0.00041  -0.55747
   D38       -2.66366   0.00000   0.00052  -0.00010   0.00042  -2.66324
   D39        1.50527   0.00000   0.00062  -0.00017   0.00045   1.50573
   D40        2.88827   0.00000   0.00037   0.00007   0.00044   2.88871
   D41       -0.92271   0.00001  -0.00179   0.00063  -0.00116  -0.92387
   D42        0.34468  -0.00000  -0.00130  -0.00012  -0.00141   0.34327
   D43        2.81689   0.00000  -0.00346   0.00044  -0.00301   2.81387
   D44        0.55325  -0.00000   0.00009   0.00043   0.00052   0.55377
   D45       -1.50033  -0.00000  -0.00000   0.00044   0.00044  -1.49989
   D46        2.68154  -0.00001  -0.00010   0.00035   0.00025   2.68179
   D47        2.65874   0.00001   0.00027   0.00036   0.00063   2.65937
   D48        0.60516   0.00001   0.00018   0.00037   0.00055   0.60572
   D49       -1.49615   0.00000   0.00008   0.00028   0.00036  -1.49579
   D50       -1.52490  -0.00000   0.00004   0.00028   0.00032  -1.52458
   D51        2.70471  -0.00000  -0.00006   0.00030   0.00024   2.70495
   D52        0.60339  -0.00001  -0.00015   0.00020   0.00005   0.60344
   D53        0.02590   0.00001   0.00142   0.00039   0.00181   0.02772
   D54       -2.06037   0.00002   0.00157   0.00050   0.00208  -2.05830
   D55        2.14751   0.00002   0.00181   0.00038   0.00219   2.14970
   D56       -2.45120   0.00001   0.00357  -0.00015   0.00342  -2.44778
   D57        1.74571   0.00001   0.00372  -0.00004   0.00368   1.74940
   D58       -0.32959   0.00001   0.00395  -0.00016   0.00380  -0.32579
   D59       -0.37067  -0.00000  -0.00089  -0.00049  -0.00137  -0.37204
   D60        1.67661  -0.00001  -0.00091  -0.00046  -0.00137   1.67524
   D61       -2.50311  -0.00000  -0.00080  -0.00041  -0.00121  -2.50432
   D62        1.68468   0.00000  -0.00104  -0.00042  -0.00146   1.68321
   D63       -2.55122   0.00000  -0.00107  -0.00039  -0.00146  -2.55269
   D64       -0.44776   0.00000  -0.00096  -0.00034  -0.00130  -0.44906
   D65       -2.47041   0.00000  -0.00091  -0.00052  -0.00143  -2.47184
   D66       -0.42312  -0.00000  -0.00093  -0.00050  -0.00143  -0.42455
   D67        1.68034   0.00000  -0.00082  -0.00045  -0.00127   1.67907
         Item               Value     Threshold  Converged?
 Maximum Force            0.000086     0.000450     YES
 RMS     Force            0.000017     0.000300     YES
 Maximum Displacement     0.005224     0.001800     NO 
 RMS     Displacement     0.001270     0.001200     NO 
 Predicted change in Energy=-2.249285D-07
 Lowest energy point so far.  Saving SCF results.
 GradGradGradGradGradGradGradGradGradGradGradGradGradGradGradGradGradGrad

 Leave Link  103 at Wed Jun 24 11:59:37 2026, MaxMem=  4026531840 cpu:               0.2 elap:               0.0
 (Enter /opt/packages/gaussian/g16RevC.01/g16/l202.exe)
                          Input orientation:                          
 ---------------------------------------------------------------------
 Center     Atomic      Atomic             Coordinates (Angstroms)
 Number     Number       Type             X           Y           Z
 ---------------------------------------------------------------------
      1          6           0        2.488490    0.183761    0.219090
      2          6           0        1.797748   -0.813942   -0.535379
      3          6           0        0.425613   -0.802973   -0.529433
      4          6           0       -0.320201    0.174965    0.207237
      5          6           0        0.392041    1.156580    0.953236
      6          6           0        1.763288    1.172527    0.964640
      7          1           0        2.330559    1.910411    1.522394
      8          1           0        2.345811   -1.559679   -1.099076
      9          1           0       -0.117330   -1.551508   -1.098555
     10          1           0       -0.167967    1.896654    1.516410
     11          8           0        3.795130    0.282668    0.298083
     12          6           0        4.680558   -0.641455   -0.390933
     13          1           0        4.507138   -0.577949   -1.467441
     14          1           0        4.510195   -1.653630   -0.017574
     15          1           0        5.682967   -0.299614   -0.139313
     16          6           0       -1.796531    0.153045    0.209933
     17          6           0       -2.597216   -0.983494    0.800399
     18          7           0       -2.475612    0.620553   -0.918169
     19          6           0       -3.894646    0.210709   -0.883541
     20          6           0       -4.039953   -0.551923    0.447822
     21          1           0       -2.440933   -1.094815    1.878556
     22          1           0       -2.350845   -1.951870    0.331582
     23          1           0       -4.103186   -0.434552   -1.745301
     24          1           0       -4.552842    1.083034   -0.944928
     25          1           0       -4.420251    0.120461    1.225213
     26          1           0       -4.724678   -1.401577    0.365488
     27          1           0       -2.253597    1.544455   -1.273430
 ---------------------------------------------------------------------
                    Distance matrix (angstroms):
                    1          2          3          4          5
     1  C    0.000000
     2  C    1.428902   0.000000
     3  C    2.406116   1.372192   0.000000
     4  C    2.808730   2.452575   1.433626   0.000000
     5  C    2.424963   2.841644   2.457495   1.423858   0.000000
     6  C    1.435068   2.489438   2.815001   2.430991   1.371387
     7  H    2.169070   3.455491   3.898881   3.430444   2.156399
     8  H    2.190320   1.083629   2.141088   3.438468   3.925208
     9  H    3.396711   2.128073   1.085814   2.174157   3.435556
    10  H    3.416695   3.926984   3.438866   2.168254   1.085580
    11  O    1.312756   2.426262   3.635525   4.117742   3.574068
    12  C    2.420387   2.891576   4.260262   5.102151   4.840568
    13  H    2.738526   2.874931   4.193965   5.164748   5.079595
    14  H    2.742136   2.886273   4.203502   5.169819   5.079267
    15  H    3.250660   3.939078   5.295785   6.031862   5.595361
    16  C    4.285141   3.795971   2.529536   1.476495   2.519807
    17  C    5.250221   4.596603   3.307346   2.622721   3.679529
    18  N    5.111404   4.523926   3.254942   2.472020   3.465965
    19  C    6.477728   5.794349   4.451694   3.737343   4.758582
    20  C    6.573745   5.925714   4.578136   3.797736   4.776714
    21  H    5.356099   4.885937   3.755085   2.983815   3.735068
    22  H    5.290817   4.388317   3.125704   2.943196   4.191937
    23  H    6.905891   6.035633   4.703624   4.300568   5.479130
    24  H    7.193329   6.640499   5.339912   4.479656   5.297197
    25  H    6.981904   6.529647   5.235829   4.224884   4.930077
    26  H    7.386780   6.610515   5.261625   4.680805   5.750689
    27  H    5.154269   4.745539   3.638971   2.793902   3.479638
                    6          7          8          9         10
     6  C    0.000000
     7  H    1.085062   0.000000
     8  H    3.473213   4.349007   0.000000
     9  H    3.900495   4.984618   2.463154   0.000000
    10  H    2.135077   2.498571   5.010597   4.327867   0.000000
    11  O    2.316145   2.508676   2.728886   4.541160   4.449203
    12  C    3.693044   3.961734   2.606846   4.934435   5.795529
    13  H    4.062991   4.457414   2.402253   4.740210   6.073189
    14  H    4.061701   4.452494   2.421370   4.753203   6.069829
    15  H    4.330104   4.345587   3.693985   6.010893   6.465172
    16  C    3.779052   4.673732   4.669681   2.727152   2.720162
    17  C    4.867175   5.760116   5.326679   3.174666   3.835255
    18  N    4.670965   5.542505   5.294549   3.211212   3.588988
    19  C    6.029352   6.886995   6.490303   4.173699   4.742396
    20  C    6.076054   6.913843   6.647288   4.333293   4.704221
    21  H    4.863286   5.650254   5.656439   3.804062   3.774442
    22  H    5.204681   6.184723   4.925360   2.682196   4.580384
    23  H    6.658978   7.587474   6.578227   4.189620   5.617761
    24  H    6.599087   7.358902   7.389120   5.161219   5.093849
    25  H    6.277809   6.990399   7.348794   5.168221   4.617529
    26  H    7.005618   7.879344   7.222309   4.836689   5.741652
    27  H    4.613312   5.381918   5.551629   3.765528   3.501015
                   11         12         13         14         15
    11  O    0.000000
    12  C    1.453523   0.000000
    13  H    2.089184   1.092234   0.000000
    14  H    2.088111   1.092208   1.805329   0.000000
    15  H    2.023437   1.088574   1.795541   1.795432   0.000000
    16  C    5.593858   6.553240   6.563853   6.564345   7.501318
    17  C    6.535868   7.382565   7.468561   7.185643   8.361351
    18  N    6.396533   7.285699   7.106117   7.401654   8.247165
    19  C    7.780364   8.631511   8.458894   8.652573   9.620030
    20  C    7.880830   8.761212   8.759090   8.633388   9.743899
    21  H    6.579045   7.488107   7.729070   7.226740   8.408442
    22  H    6.539670   7.188870   7.221916   6.876389   8.215463
    23  H    8.189823   8.889954   8.615999   8.869133   9.917973
    24  H    8.477870   9.409380   9.225785   9.512515  10.360141
    25  H    8.269120   9.274544   9.350744   9.189384  10.203598
    26  H    8.684949   9.466172   9.447984   9.246250  10.477987
    27  H    6.375645   7.323899   7.088707   7.586422   8.226534
                   16         17         18         19         20
    16  C    0.000000
    17  C    1.510453   0.000000
    18  N    1.397258   2.353982   0.000000
    19  C    2.366664   2.438257   1.477440   0.000000
    20  C    2.363580   1.546626   2.384910   1.541185   0.000000
    21  H    2.180988   1.095098   3.281061   3.383320   2.213277
    22  H    2.180075   1.103739   2.862657   2.921745   2.196918
    23  H    3.080400   3.008300   2.108647   1.096577   2.197171
    24  H    3.129829   3.337839   2.128259   1.094504   2.208142
    25  H    2.813496   2.173163   2.936971   2.175143   1.095930
    26  H    3.318899   2.211341   3.285588   2.201930   1.094321
    27  H    2.084537   3.287759   1.014443   2.150333   3.247857
                   21         22         23         24         25
    21  H    0.000000
    22  H    1.770815   0.000000
    23  H    4.041208   3.112297   0.000000
    24  H    4.144302   3.960923   1.773656   0.000000
    25  H    2.412768   3.061955   3.038506   2.377738   0.000000
    26  H    2.756622   2.437017   2.403502   2.814251   1.774374
    27  H    4.115319   3.848351   2.749566   2.367984   3.600744
                   26         27
    26  H    0.000000
    27  H    4.179880   0.000000
 Stoichiometry    C11H14NO(1+)
 Framework group  C1[X(C11H14NO)]
 Deg. of freedom    75
 Full point group                 C1      NOp   1
 RotChk:  IX=0 Diff= 1.89D-03
 Largest Abelian subgroup         C1      NOp   1
 Largest concise Abelian subgroup C1      NOp   1
                         Standard orientation:                         
 ---------------------------------------------------------------------
 Center     Atomic      Atomic             Coordinates (Angstroms)
 Number     Number       Type             X           Y           Z
 ---------------------------------------------------------------------
      1          6           0        2.485281    0.232385    0.009253
      2          6           0        1.775824   -1.006456   -0.051597
      3          6           0        0.404076   -0.974141   -0.038445
      4          6           0       -0.323215    0.259199    0.033716
      5          6           0        0.407497    1.479655    0.096308
      6          6           0        1.778815    1.479365    0.082511
      7          1           0        2.359915    2.394640    0.126727
      8          1           0        2.309732   -1.947737   -0.108017
      9          1           0       -0.152955   -1.904951   -0.086390
     10          1           0       -0.138397    2.416121    0.155585
     11          8           0        3.793648    0.339588    0.005817
     12          6           0        4.661663   -0.824526   -0.058362
     13          1           0        4.470602   -1.370765   -0.984696
     14          1           0        4.491335   -1.452827    0.818648
     15          1           0        5.670247   -0.415014   -0.051230
     16          6           0       -1.799399    0.263936    0.063642
     17          6           0       -2.597075   -0.337062    1.196772
     18          7           0       -2.494407    0.031228   -1.125954
     19          6           0       -3.915167   -0.268716   -0.853365
     20          6           0       -4.042828   -0.155231    0.678325
     21          1           0       -2.423416    0.170697    2.151373
     22          1           0       -2.364595   -1.405586    1.346600
     23          1           0       -4.142120   -1.282224   -1.205180
     24          1           0       -4.568895    0.429918   -1.384864
     25          1           0       -4.405867    0.842174    0.951181
     26          1           0       -4.734077   -0.895884    1.092025
     27          1           0       -2.272677    0.595689   -1.939166
 ---------------------------------------------------------------------
 Rotational constants (GHZ):           2.7040796           0.3412068           0.3294570
 Leave Link  202 at Wed Jun 24 11:59:38 2026, MaxMem=  4026531840 cpu:               0.0 elap:               0.0
 (Enter /opt/packages/gaussian/g16RevC.01/g16/l301.exe)
 Standard basis: 6-31+G(d) (6D, 7F)
 Ernie: Thresh=  0.10000D-02 Tol=  0.10000D-05 Strict=F.
 There are   275 symmetry adapted cartesian basis functions of A   symmetry.
 There are   275 symmetry adapted basis functions of A   symmetry.
   275 basis functions,   472 primitive gaussians,   275 cartesian basis functions
    47 alpha electrons       47 beta electrons
       nuclear repulsion energy       751.1366536619 Hartrees.
 IExCor=  402 DFT=T Ex+Corr=B3LYP ExCW=0 ScaHFX=  0.200000
 ScaDFX=  0.800000  0.720000  1.000000  0.810000 ScalE2=  1.000000  1.000000
 IRadAn=      5 IRanWt=     -1 IRanGd=            0 ICorTp=0 IEmpDi=  4
 NAtoms=   27 NActive=   27 NUniq=   27 SFac= 1.00D+00 NAtFMM=   60 NAOKFM=F Big=F
 Integral buffers will be    131072 words long.
 Regular integral format.
 Two-electron integral symmetry is turned on.
 ------------------------------------------------------------------------------
 Polarizable Continuum Model (PCM)
 =================================
 Model                : PCM.
 Atomic radii         : SMD-Coulomb.
 Polarization charges : Total charges.
 Charge compensation  : None.
 Solution method      : On-the-fly selection.
 Cavity type          : VdW (van der Waals Surface) (Alpha=1.000).
 Cavity algorithm     : GePol (No added spheres)
                        Default sphere list used, NSphG=   27.
                        Lebedev-Laikov grids with approx.  5.0 points / Ang**2.
                        Smoothing algorithm: York/Karplus (Gamma=1.0000).
                        Polarization charges: spherical gaussians, with
                                              point-specific exponents (IZeta= 3).
                        Self-potential: point-specific (ISelfS= 7).
                        Self-field    : sphere-specific E.n sum rule (ISelfD= 2).
 1st derivatives      : Analytical E(r).r(x)/FMM algorithm (CHGder, D1EAlg=3).
                        Cavity 1st derivative terms included.
 Solvent              : Methanol, Eps=  32.613000 Eps(inf)=   1.765709
 ------------------------------------------------------------------------------
 GePol: Number of generator spheres                  =      27
 GePol: Total number of spheres                      =      27
 GePol: Number of exposed spheres                    =      27 (100.00%)
 GePol: Number of points                             =    2019
 GePol: Average weight of points                     =       0.11
 GePol: Minimum weight of points                     =   0.97D-10
 GePol: Maximum weight of points                     =    0.21991
 GePol: Number of points with low weight             =     113
 GePol: Fraction of low-weight points (<1% of avg)   =       5.60%
 GePol: Cavity surface area                          =    220.828 Ang**2
 GePol: Cavity volume                                =    193.970 Ang**3
 ------------------------------------------------------------------------------
 Atomic radii for non-electrostatic terms: SMD-CDS.
 ------------------------------------------------------------------------------
 PCM non-electrostatic energy =        -0.0003332582 Hartrees.
 Nuclear repulsion after PCM non-electrostatic terms =      751.1363204037 Hartrees.
 Leave Link  301 at Wed Jun 24 11:59:38 2026, MaxMem=  4026531840 cpu:               0.3 elap:               0.1
 (Enter /opt/packages/gaussian/g16RevC.01/g16/l302.exe)
 NPDir=0 NMtPBC=     1 NCelOv=     1 NCel=       1 NClECP=     1 NCelD=      1
         NCelK=      1 NCelE2=     1 NClLst=     1 CellRange=     0.0.
 One-electron integrals computed using PRISM.
 One-electron integral symmetry used in STVInt
 NBasis=   275 RedAO= T EigKep=  1.38D-06  NBF=   275
 NBsUse=   275 1.00D-06 EigRej= -1.00D+00 NBFU=   275
 Precomputing XC quadrature grid using
 IXCGrd= 4 IRadAn=           5 IRanWt=          -1 IRanGd=           0 AccXCQ= 0.00D+00.
 Generated NRdTot=       0 NPtTot=           0 NUsed=           0 NTot=          32
 NSgBfM=   274   274   274   274   274 MxSgAt=    27 MxSgA2=    27.
 Leave Link  302 at Wed Jun 24 11:59:38 2026, MaxMem=  4026531840 cpu:               1.5 elap:               0.2
 (Enter /opt/packages/gaussian/g16RevC.01/g16/l303.exe)
 DipDrv:  MaxL=1.
 Leave Link  303 at Wed Jun 24 11:59:38 2026, MaxMem=  4026531840 cpu:               0.1 elap:               0.0
 (Enter /opt/packages/gaussian/g16RevC.01/g16/l308.exe)
 Leave Link  308 at Wed Jun 24 11:59:38 2026, MaxMem=  4026531840 cpu:               0.1 elap:               0.0
 (Enter /opt/packages/gaussian/g16RevC.01/g16/l401.exe)
 Initial guess from the checkpoint file:  "iminium_singlet.chk"
 B after Tr=     0.000000    0.000000    0.000000
         Rot=    1.000000    0.000644    0.000014   -0.000015 Ang=   0.07 deg.
 Guess basis will be translated and rotated to current coordinates.
 JPrj=2 DoOrth=T DoCkMO=T.
 Leave Link  401 at Wed Jun 24 11:59:38 2026, MaxMem=  4026531840 cpu:               0.6 elap:               0.1
 (Enter /opt/packages/gaussian/g16RevC.01/g16/l502.exe)
 Integral symmetry usage will be decided dynamically.
 Closed shell SCF:
 Using DIIS extrapolation, IDIIS=  1040.
 NGot=  4026531840 LenX=  4026374748 LenY=  4026298682
 Requested convergence on RMS density matrix=1.00D-08 within 128 cycles.
 Requested convergence on MAX density matrix=1.00D-06.
 Requested convergence on             energy=1.00D-06.
 No special actions if energy rises.
 Fock matrices will be formed incrementally for  20 cycles.

 Cycle   1  Pass 1  IDiag  1:
 FoFJK:  IHMeth= 1 ICntrl=       0 DoSepK=F KAlg= 0 I1Cent=           0 FoldK=F
 IRaf= 880000000 NMat=       1 IRICut=       1 DoRegI=T DoRafI=F ISym2E= 0 IDoP0=0 IntGTp=1.
 FoFCou: FMM=F IPFlag=           0 FMFlag=      100000 FMFlg1=           0
         NFxFlg=           0 DoJE=F BraDBF=F KetDBF=F FulRan=T
         wScrn=  0.000000 ICntrl=         0 IOpCl=  0 I1Cent=           0 NGrid=           0
         NMat0=    1 NMatS0=      1 NMatT0=    0 NMatD0=    1 NMtDS0=    0 NMtDT0=    0
 Symmetry not used in FoFCou.
 Inv3:  Mode=1 IEnd=    12229083.
 Iteration    1 A*A^-1 deviation from unit magnitude is 3.00D-15 for   1132.
 Iteration    1 A*A^-1 deviation from orthogonality  is 2.38D-15 for    747    633.
 Iteration    1 A^-1*A deviation from unit magnitude is 3.33D-15 for     80.
 Iteration    1 A^-1*A deviation from orthogonality  is 5.46D-15 for    925    885.
 E= -557.408355917094    
 DIIS: error= 8.76D-05 at cycle   1 NSaved=   1.
 NSaved= 1 IEnMin= 1 EnMin= -557.408355917094     IErMin= 1 ErrMin= 8.76D-05
 ErrMax= 8.76D-05  0.00D+00 EMaxC= 1.00D-01 BMatC= 2.84D-06 BMatP= 2.84D-06
 IDIUse=1 WtCom= 1.00D+00 WtEn= 0.00D+00
 Coeff-Com:  0.100D+01
 Coeff:      0.100D+01
 Gap=     0.410 Goal=   None    Shift=    0.000
 RMSDP=2.73D-04 MaxDP=2.43D-02              OVMax= 4.84D-04

 Cycle   2  Pass 1  IDiag  1:
 RMSU=  2.68D-04    CP:  1.00D+00
 E= -557.408360614982     Delta-E=       -0.000004697888 Rises=F Damp=F
 DIIS: error= 9.04D-06 at cycle   2 NSaved=   2.
 NSaved= 2 IEnMin= 2 EnMin= -557.408360614982     IErMin= 2 ErrMin= 9.04D-06
 ErrMax= 9.04D-06  0.00D+00 EMaxC= 1.00D-01 BMatC= 3.93D-08 BMatP= 2.84D-06
 IDIUse=1 WtCom= 1.00D+00 WtEn= 0.00D+00
 Coeff-Com: -0.352D-01 0.104D+01
 Coeff:     -0.352D-01 0.104D+01
 Gap=     0.109 Goal=   None    Shift=    0.000
 RMSDP=1.38D-05 MaxDP=7.34D-04 DE=-4.70D-06 OVMax= 8.60D-05

 Cycle   3  Pass 1  IDiag  1:
 RMSU=  1.03D-05    CP:  1.00D+00  1.03D+00
 E= -557.408360628781     Delta-E=       -0.000000013799 Rises=F Damp=F
 DIIS: error= 7.24D-06 at cycle   3 NSaved=   3.
 NSaved= 3 IEnMin= 3 EnMin= -557.408360628781     IErMin= 3 ErrMin= 7.24D-06
 ErrMax= 7.24D-06  0.00D+00 EMaxC= 1.00D-01 BMatC= 5.09D-08 BMatP= 3.93D-08
 IDIUse=1 WtCom= 1.00D+00 WtEn= 0.00D+00
 Coeff-Com: -0.290D-01 0.573D+00 0.456D+00
 Coeff:     -0.290D-01 0.573D+00 0.456D+00
 Gap=     0.109 Goal=   None    Shift=    0.000
 RMSDP=7.96D-06 MaxDP=4.21D-04 DE=-1.38D-08 OVMax= 7.28D-05

 Cycle   4  Pass 1  IDiag  1:
 RMSU=  6.48D-06    CP:  1.00D+00  1.03D+00  7.00D-01
 E= -557.408360671781     Delta-E=       -0.000000043000 Rises=F Damp=F
 DIIS: error= 2.48D-06 at cycle   4 NSaved=   4.
 NSaved= 4 IEnMin= 4 EnMin= -557.408360671781     IErMin= 4 ErrMin= 2.48D-06
 ErrMax= 2.48D-06  0.00D+00 EMaxC= 1.00D-01 BMatC= 4.54D-09 BMatP= 3.93D-08
 IDIUse=1 WtCom= 1.00D+00 WtEn= 0.00D+00
 Coeff-Com: -0.124D-01 0.192D+00 0.259D+00 0.562D+00
 Coeff:     -0.124D-01 0.192D+00 0.259D+00 0.562D+00
 Gap=     0.109 Goal=   None    Shift=    0.000
 RMSDP=3.08D-06 MaxDP=1.92D-04 DE=-4.30D-08 OVMax= 2.85D-05

 Cycle   5  Pass 1  IDiag  1:
 RMSU=  2.18D-06    CP:  1.00D+00  1.04D+00  7.35D-01  1.05D+00
 E= -557.408360675232     Delta-E=       -0.000000003451 Rises=F Damp=F
 DIIS: error= 1.04D-06 at cycle   5 NSaved=   5.
 NSaved= 5 IEnMin= 5 EnMin= -557.408360675232     IErMin= 5 ErrMin= 1.04D-06
 ErrMax= 1.04D-06  0.00D+00 EMaxC= 1.00D-01 BMatC= 7.72D-10 BMatP= 4.54D-09
 IDIUse=1 WtCom= 1.00D+00 WtEn= 0.00D+00
 Coeff-Com: -0.306D-02 0.355D-01 0.917D-01 0.340D+00 0.536D+00
 Coeff:     -0.306D-02 0.355D-01 0.917D-01 0.340D+00 0.536D+00
 Gap=     0.109 Goal=   None    Shift=    0.000
 RMSDP=1.01D-06 MaxDP=6.18D-05 DE=-3.45D-09 OVMax= 1.19D-05

 Cycle   6  Pass 1  IDiag  1:
 RMSU=  7.66D-07    CP:  1.00D+00  1.03D+00  7.40D-01  1.02D+00  8.04D-01
 E= -557.408360675967     Delta-E=       -0.000000000735 Rises=F Damp=F
 DIIS: error= 3.34D-07 at cycle   6 NSaved=   6.
 NSaved= 6 IEnMin= 6 EnMin= -557.408360675967     IErMin= 6 ErrMin= 3.34D-07
 ErrMax= 3.34D-07  0.00D+00 EMaxC= 1.00D-01 BMatC= 7.93D-11 BMatP= 7.72D-10
 IDIUse=1 WtCom= 1.00D+00 WtEn= 0.00D+00
 Coeff-Com: -0.216D-03-0.456D-02 0.195D-01 0.116D+00 0.304D+00 0.565D+00
 Coeff:     -0.216D-03-0.456D-02 0.195D-01 0.116D+00 0.304D+00 0.565D+00
 Gap=     0.109 Goal=   None    Shift=    0.000
 RMSDP=2.65D-07 MaxDP=2.10D-05 DE=-7.35D-10 OVMax= 2.56D-06

 Cycle   7  Pass 1  IDiag  1:
 RMSU=  1.89D-07    CP:  1.00D+00  1.04D+00  7.44D-01  1.02D+00  7.82D-01
                    CP:  8.23D-01
 E= -557.408360676027     Delta-E=       -0.000000000060 Rises=F Damp=F
 DIIS: error= 9.61D-08 at cycle   7 NSaved=   7.
 NSaved= 7 IEnMin= 7 EnMin= -557.408360676027     IErMin= 7 ErrMin= 9.61D-08
 ErrMax= 9.61D-08  0.00D+00 EMaxC= 1.00D-01 BMatC= 6.50D-12 BMatP= 7.93D-11
 IDIUse=1 WtCom= 1.00D+00 WtEn= 0.00D+00
 Coeff-Com:  0.158D-03-0.572D-02 0.260D-02 0.305D-01 0.123D+00 0.302D+00
 Coeff-Com:  0.548D+00
 Coeff:      0.158D-03-0.572D-02 0.260D-02 0.305D-01 0.123D+00 0.302D+00
 Coeff:      0.548D+00
 Gap=     0.109 Goal=   None    Shift=    0.000
 RMSDP=1.04D-07 MaxDP=6.16D-06 DE=-5.98D-11 OVMax= 7.97D-07

 Cycle   8  Pass 1  IDiag  1:
 RMSU=  5.50D-08    CP:  1.00D+00  1.03D+00  7.45D-01  1.03D+00  7.96D-01
                    CP:  7.76D-01  8.39D-01
 E= -557.408360676039     Delta-E=       -0.000000000012 Rises=F Damp=F
 DIIS: error= 2.59D-08 at cycle   8 NSaved=   8.
 NSaved= 8 IEnMin= 8 EnMin= -557.408360676039     IErMin= 8 ErrMin= 2.59D-08
 ErrMax= 2.59D-08  0.00D+00 EMaxC= 1.00D-01 BMatC= 3.94D-13 BMatP= 6.50D-12
 IDIUse=1 WtCom= 1.00D+00 WtEn= 0.00D+00
 Coeff-Com:  0.911D-04-0.247D-02-0.290D-04 0.537D-02 0.398D-01 0.992D-01
 Coeff-Com:  0.255D+00 0.603D+00
 Coeff:      0.911D-04-0.247D-02-0.290D-04 0.537D-02 0.398D-01 0.992D-01
 Coeff:      0.255D+00 0.603D+00
 Gap=     0.109 Goal=   None    Shift=    0.000
 RMSDP=2.96D-08 MaxDP=2.94D-06 DE=-1.24D-11 OVMax= 2.15D-07

 Cycle   9  Pass 1  IDiag  1:
 RMSU=  1.28D-08    CP:  1.00D+00  1.03D+00  7.45D-01  1.03D+00  8.00D-01
                    CP:  7.88D-01  8.61D-01  9.44D-01
 E= -557.408360676029     Delta-E=        0.000000000010 Rises=F Damp=F
 DIIS: error= 9.91D-09 at cycle   9 NSaved=   9.
 NSaved= 9 IEnMin= 8 EnMin= -557.408360676039     IErMin= 9 ErrMin= 9.91D-09
 ErrMax= 9.91D-09  0.00D+00 EMaxC= 1.00D-01 BMatC= 5.62D-14 BMatP= 3.94D-13
 IDIUse=1 WtCom= 1.00D+00 WtEn= 0.00D+00
 Coeff-Com:  0.232D-04-0.421D-03-0.270D-03-0.179D-02 0.437D-02 0.692D-02
 Coeff-Com:  0.546D-01 0.303D+00 0.633D+00
 Coeff:      0.232D-04-0.421D-03-0.270D-03-0.179D-02 0.437D-02 0.692D-02
 Coeff:      0.546D-01 0.303D+00 0.633D+00
 Gap=     0.109 Goal=   None    Shift=    0.000
 RMSDP=6.90D-09 MaxDP=2.91D-07 DE= 1.00D-11 OVMax= 1.17D-07

 Error on total polarization charges =  0.05314
 SCF Done:  E(RB3LYP) =  -557.408360676     A.U. after    9 cycles
            NFock=  9  Conv=0.69D-08     -V/T= 2.0103
 KE= 5.517077006232D+02 PE=-2.780216325585D+03 EE= 9.199639438823D+02
 SMD-CDS (non-electrostatic) energy       (kcal/mol) =      -0.21
 (included in total energy above)
 Leave Link  502 at Wed Jun 24 11:59:56 2026, MaxMem=  4026531840 cpu:             138.9 elap:              17.6
 (Enter /opt/packages/gaussian/g16RevC.01/g16/l801.exe)
 DoSCS=F DFT=T ScalE2(SS,OS)=  1.000000  1.000000
 ExpMin= 4.38D-02 ExpMax= 5.48D+03 ExpMxC= 8.25D+02 IAcc=3 IRadAn=         5 AccDes= 0.00D+00
 HarFok:  IExCor=  205 AccDes= 0.00D+00 IRadAn=         5 IDoV=-2 UseB2=F ITyADJ=14
 ICtDFT= 12500011 ScaDFX=  1.000000  1.000000  1.000000  1.000000
 Largest valence mixing into a core orbital is  5.71D-05
 Largest core mixing into a valence orbital is  1.21D-05
 Range of M.O.s used for correlation:    14   275
 NBasis=   275 NAE=    47 NBE=    47 NFC=    13 NFV=     0
 NROrb=    262 NOA=    34 NOB=    34 NVA=   228 NVB=   228

 **** Warning!!: The largest alpha MO coefficient is  0.23339828D+03

 Leave Link  801 at Wed Jun 24 11:59:56 2026, MaxMem=  4026531840 cpu:               0.7 elap:               0.1
 (Enter /opt/packages/gaussian/g16RevC.01/g16/l914.exe)
 RHF ground state
 Two-electron integrals replicated using symmetry.
 MDV=  4026531840 DFT=T DoStab=F Mixed=T DoRPA=T DoScal=F NonHer=T
 NEqPCM:  Using equilibrium solvation (IEInf=0, Eps=  32.6130, EpsInf=   1.7657)
 Making orbital integer symmetry assigments:
 Orbital symmetries:
       Occupied  (A) (A) (A) (A) (A) (A) (A) (A) (A) (A) (A) (A)
                 (A) (A) (A) (A) (A) (A) (A) (A) (A) (A) (A) (A)
                 (A) (A) (A) (A) (A) (A) (A) (A) (A) (A) (A) (A)
                 (A) (A) (A) (A) (A) (A) (A) (A) (A) (A) (A)
       Virtual   (A) (A) (A) (A) (A) (A) (A) (A) (A) (A) (A) (A)
                 (A) (A) (A) (A) (A) (A) (A) (A) (A) (A) (A) (A)
                 (A) (A) (A) (A) (A) (A) (A) (A) (A) (A) (A) (A)
                 (A) (A) (A) (A) (A) (A) (A) (A) (A) (A) (A) (A)
                 (A) (A) (A) (A) (A) (A) (A) (A) (A) (A) (A) (A)
                 (A) (A) (A) (A) (A) (A) (A) (A) (A) (A) (A) (A)
                 (A) (A) (A) (A) (A) (A) (A) (A) (A) (A) (A) (A)
                 (A) (A) (A) (A) (A) (A) (A) (A) (A) (A) (A) (A)
                 (A) (A) (A) (A) (A) (A) (A) (A) (A) (A) (A) (A)
                 (A) (A) (A) (A) (A) (A) (A) (A) (A) (A) (A) (A)
                 (A) (A) (A) (A) (A) (A) (A) (A) (A) (A) (A) (A)
                 (A) (A) (A) (A) (A) (A) (A) (A) (A) (A) (A) (A)
                 (A) (A) (A) (A) (A) (A) (A) (A) (A) (A) (A) (A)
                 (A) (A) (A) (A) (A) (A) (A) (A) (A) (A) (A) (A)
                 (A) (A) (A) (A) (A) (A) (A) (A) (A) (A) (A) (A)
                 (A) (A) (A) (A) (A) (A) (A) (A) (A) (A) (A) (A)
                 (A) (A) (A) (A) (A) (A) (A) (A) (A) (A) (A) (A)
                 (A) (A) (A) (A) (A) (A) (A) (A) (A) (A) (A) (A)
                 (A) (A) (A) (A) (A) (A) (A) (A) (A) (A) (A) (A)
 Generating guess from densities on rwf.
 Convergence on wavefunction:    0.000001000000000
 Davidson Disk Diagonalization:  ConvIn= 1.00D-06 SkipCon=T Conv= 1.00D-06.
 Max sub-space:  2000 roots to seek:     5 dimension of matrix:        15504
 Iteration     1 Dimension    10 NMult     0 NNew     10
 CISAX will form    10 AO SS matrices at one time.
 NMat=    10 NSing=    10 JSym2X= 0.
 FoFJK:  IHMeth= 1 ICntrl=       0 DoSepK=F KAlg= 0 I1Cent=           0 FoldK=F
 IRaf= 880000000 NMat=      20 IRICut=      25 DoRegI=T DoRafI=T ISym2E= 0 IDoP0=0 IntGTp=1.
 FoFCou: FMM=F IPFlag=           0 FMFlag=      100000 FMFlg1=           0
         NFxFlg=           0 DoJE=F BraDBF=F KetDBF=F FulRan=T
         wScrn=  0.000000 ICntrl=         0 IOpCl=  0 I1Cent=           0 NGrid=           0
         NMat0=   20 NMatS0=     10 NMatT0=    0 NMatD0=   20 NMtDS0=    0 NMtDT0=    0
 Symmetry not used in FoFCou.
 Raff kept on since  88.26% of shell-pairs survive, threshold=   0.20 IRatSp=88.
 Excitation Energies [eV] at current iteration:
 Root      1 :     2.032968849001090
 Root      2 :     3.347201643895873
 Root      3 :     4.743956997848866
 Root      4 :     4.783296575630499
 Root      5 :     5.002045461627063
 Iteration     2 Dimension    20 NMult    10 NNew     10
 CISAX will form    10 AO SS matrices at one time.
 NMat=    10 NSing=    10 JSym2X= 0.
 Root      1 not converged, maximum delta is    0.000666822199582
 Root      2 not converged, maximum delta is    0.000670019754260
 Root      3 not converged, maximum delta is    0.000700902293570
 Root      4 not converged, maximum delta is    0.000261302228549
 Root      5 not converged, maximum delta is    0.000604207695836
 Excitation Energies [eV] at current iteration:
 Root      1 :     2.032901102615681   Change is   -0.000067746385409
 Root      2 :     3.347123906486980   Change is   -0.000077737408892
 Root      3 :     4.743878685268379   Change is   -0.000078312580486
 Root      4 :     4.783276066825791   Change is   -0.000020508804708
 Root      5 :     5.001981626540734   Change is   -0.000063835086329
 Iteration     3 Dimension    30 NMult    20 NNew     10
 CISAX will form    10 AO SS matrices at one time.
 NMat=    10 NSing=    10 JSym2X= 0.
 Root      1 not converged, maximum delta is    0.000041037261693
 Root      2 not converged, maximum delta is    0.000065512059365
 Root      3 not converged, maximum delta is    0.000073307830207
 Root      4 not converged, maximum delta is    0.000037777114924
 Root      5 not converged, maximum delta is    0.000073957797687
 Excitation Energies [eV] at current iteration:
 Root      1 :     2.032900758433888   Change is   -0.000000344181793
 Root      2 :     3.347123522591531   Change is   -0.000000383895449
 Root      3 :     4.743878074035393   Change is   -0.000000611232986
 Root      4 :     4.783275864725246   Change is   -0.000000202100545
 Root      5 :     5.001981090982181   Change is   -0.000000535558553
 Iteration     4 Dimension    40 NMult    30 NNew     10
 CISAX will form    10 AO SS matrices at one time.
 NMat=    10 NSing=    10 JSym2X= 0.
 Root      1 not converged, maximum delta is    0.000003912242690
 Root      2 not converged, maximum delta is    0.000009742008275
 Root      3 not converged, maximum delta is    0.000049085966497
 Root      4 not converged, maximum delta is    0.000042201003046
 Root      5 not converged, maximum delta is    0.000071797658457
 Excitation Energies [eV] at current iteration:
 Root      1 :     2.032900736697937   Change is   -0.000000021735952
 Root      2 :     3.347123498298080   Change is   -0.000000024293451
 Root      3 :     4.743877999868202   Change is   -0.000000074167192
 Root      4 :     4.783275823153930   Change is   -0.000000041571316
 Root      5 :     5.001981019494750   Change is   -0.000000071487430
 Iteration     5 Dimension    50 NMult    40 NNew     10
 CISAX will form    10 AO SS matrices at one time.
 NMat=    10 NSing=    10 JSym2X= 0.
 Root      1 not converged, maximum delta is    0.000001140925519
 Root      2 not converged, maximum delta is    0.000001771023311
 Root      3 not converged, maximum delta is    0.000021648834132
 Root      4 not converged, maximum delta is    0.000037966114824
 Root      5 not converged, maximum delta is    0.000036585300237
 Excitation Energies [eV] at current iteration:
 Root      1 :     2.032900736247654   Change is   -0.000000000450283
 Root      2 :     3.347123497437942   Change is   -0.000000000860138
 Root      3 :     4.743877989778443   Change is   -0.000000010089759
 Root      4 :     4.783275811038035   Change is   -0.000000012115895
 Root      5 :     5.001981010613429   Change is   -0.000000008881322
 Iteration     6 Dimension    60 NMult    50 NNew     10
 CISAX will form    10 AO SS matrices at one time.
 NMat=    10 NSing=    10 JSym2X= 0.
 Root      1 has converged.
 Root      2 has converged.
 Root      3 not converged, maximum delta is    0.000005912018180
 Root      4 not converged, maximum delta is    0.000012704969893
 Root      5 not converged, maximum delta is    0.000018752377806
 Excitation Energies [eV] at current iteration:
 Root      1 :     2.032900736232287   Change is   -0.000000000015367
 Root      2 :     3.347123497387028   Change is   -0.000000000050914
 Root      3 :     4.743877988509600   Change is   -0.000000001268843
 Root      4 :     4.783275809311794   Change is   -0.000000001726241
 Root      5 :     5.001981008636611   Change is   -0.000000001976817
 Iteration     7 Dimension    66 NMult    60 NNew      6
 CISAX will form     6 AO SS matrices at one time.
 NMat=     6 NSing=     6 JSym2X= 0.
 Root      1 has converged.
 Root      2 has converged.
 Root      3 not converged, maximum delta is    0.000001263691341
 Root      4 not converged, maximum delta is    0.000002218247269
 Root      5 not converged, maximum delta is    0.000006803231101
 Excitation Energies [eV] at current iteration:
 Root      1 :     2.032900736232004   Change is   -0.000000000000283
 Root      2 :     3.347123497386389   Change is   -0.000000000000639
 Root      3 :     4.743877988341438   Change is   -0.000000000168162
 Root      4 :     4.783275809072885   Change is   -0.000000000238909
 Root      5 :     5.001981008294861   Change is   -0.000000000341750
 Iteration     8 Dimension    72 NMult    66 NNew      6
 CISAX will form     6 AO SS matrices at one time.
 NMat=     6 NSing=     6 JSym2X= 0.
 Root      1 has converged.
 Root      2 has converged.
 Root      3 has converged.
 Root      4 has converged.
 Root      5 not converged, maximum delta is    0.000001185480527
 Excitation Energies [eV] at current iteration:
 Root      1 :     2.032900736232206   Change is    0.000000000000202
 Root      2 :     3.347123497386365   Change is   -0.000000000000025
 Root      3 :     4.743877988324940   Change is   -0.000000000016498
 Root      4 :     4.783275809047707   Change is   -0.000000000025178
 Root      5 :     5.001981008254564   Change is   -0.000000000040298
 Iteration     9 Dimension    74 NMult    72 NNew      2
 CISAX will form     2 AO SS matrices at one time.
 NMat=     2 NSing=     2 JSym2X= 0.
 Root      1 has converged.
 Root      2 has converged.
 Root      3 has converged.
 Root      4 has converged.
 Root      5 has converged.
 Excitation Energies [eV] at current iteration:
 Root      1 :     2.032900736232004   Change is   -0.000000000000202
 Root      2 :     3.347123497386242   Change is   -0.000000000000123
 Root      3 :     4.743877988323675   Change is   -0.000000000001265
 Root      4 :     4.783275809046435   Change is   -0.000000000001272
 Root      5 :     5.001981008248121   Change is   -0.000000000006442
 Convergence achieved on expansion vectors.
 ***********************************************************************
 Excited states from <AA,BB:AA,BB> singles matrix:
 ***********************************************************************
 
 1PDM for each excited state written to RWF  633
 Ground to excited state transition densities written to RWF  633
 Ground to excited state transition electric dipole moments (Au):
       state          X           Y           Z        Dip. S.      Osc.
         1        -0.0082     -0.0345     -0.0087      0.0013      0.0001
         2         0.1247      0.0077     -0.0095      0.0157      0.0013
         3        -1.0676      0.0457     -0.8098      1.7977      0.2089
         4        -0.4028      1.0024      0.1589      1.1923      0.1397
         5         0.1281      0.0674      0.1620      0.0472      0.0058
 Ground to excited state transition velocity dipole moments (Au):
       state          X           Y           Z        Dip. S.      Osc.
         1        -0.0002      0.0006     -0.0018      0.0000      0.0000
         2        -0.0141     -0.0009      0.0043      0.0002      0.0012
         3         0.1820     -0.0097      0.1394      0.0527      0.2014
         4         0.0729     -0.1760     -0.0279      0.0371      0.1405
         5        -0.0228     -0.0122     -0.0320      0.0017      0.0061
 Ground to excited state transition magnetic dipole moments (Au):
       state          X           Y           Z
         1         0.1475      0.0726      0.0854
         2         0.0805      0.0626      0.0182
         3         0.2011      0.0450     -0.1585
         4        -0.0017     -0.0009      0.0179
         5        -0.2787     -0.1048     -0.2238
 Ground to excited state transition velocity quadrupole moments (Au):
       state          XX          YY          ZZ          XY          XZ          YZ
         1         0.0006      0.0014      0.0099      0.0233      0.0148      0.0025
         2        -0.0312     -0.0057      0.0070     -0.0015     -0.0471      0.0046
         3        -0.7912      0.1571     -0.1256     -0.1671     -0.7551     -0.1223
         4         0.4821     -0.1828      0.0009     -0.5040      0.0715      0.0149
         5         0.3562     -0.0598     -0.0010      0.0080      0.1073      0.0546
 <0|del|b> * <b|rxdel|0> + <0|del|b> * <b|delr+rdel|0>
 Rotatory Strengths (R) in cgs (10**-40 erg-esu-cm/Gauss)
       state          XX          YY          ZZ    R(velocity)    E-M Angle
         1        -0.7782     -0.6745      0.1018     -0.4503      113.70
         2        -0.0788     -3.2001     -3.1151     -2.1313      136.66
         3      -107.7881     31.5290    133.3293     19.0234       76.36
         4        52.8805    -27.3532    -27.4017     -0.6248       97.72
         5        18.2560     24.1247     14.5801     18.9869       15.10
 1/2[<0|r|b>*<b|rxdel|0> + (<0|rxdel|b>*<b|r|0>)*]
 Rotatory Strengths (R) in cgs (10**-40 erg-esu-cm/Gauss)
       state          XX          YY          ZZ     R(length)
         1         0.8541      1.7694      0.5241      1.0492
         2        -7.0994     -0.3415      0.1226     -2.4394
         3       151.8144     -1.4557    -90.7694     19.8631
         4        -0.4837      0.6350     -2.0138     -0.6208
         5        25.2441      4.9996     25.6439     18.6292
  1/2[<0|del|b>*<b|r|0> + (<0|r|b>*<b|del|0>)*] (Au)
       state          X           Y           Z        Dip. S.   Osc.(frdel)
         1         0.0000     -0.0000      0.0000      0.0000      0.0000
         2        -0.0018     -0.0000     -0.0000      0.0018      0.0012
         3        -0.1943     -0.0004     -0.1129      0.3077      0.2051
         4        -0.0293     -0.1764     -0.0044      0.2102      0.1401
         5        -0.0029     -0.0008     -0.0052      0.0089      0.0060

 Excitation energies and oscillator strengths:
 
 Excited State   1:      Singlet-A      2.0329 eV  609.89 nm  f=0.0001  <S**2>=0.000
      47 -> 48         0.70356
 This state for optimization and/or second-order correction.
 Total Energy, E(TD-HF/TD-DFT) =  -557.333652949    
 Copying the excited state density for this state as the 1-particle RhoCI density.
 
 Excited State   2:      Singlet-A      3.3471 eV  370.42 nm  f=0.0013  <S**2>=0.000
      46 -> 48         0.70679
 
 Excited State   3:      Singlet-A      4.7439 eV  261.36 nm  f=0.2089  <S**2>=0.000
      45 -> 48        -0.68414
      47 -> 49         0.10943
 
 Excited State   4:      Singlet-A      4.7833 eV  259.20 nm  f=0.1397  <S**2>=0.000
      45 -> 48         0.10292
      46 -> 49         0.15366
      46 -> 50        -0.11283
      47 -> 49         0.53535
      47 -> 50         0.39945
 
 Excited State   5:      Singlet-A      5.0020 eV  247.87 nm  f=0.0058  <S**2>=0.000
      43 -> 48        -0.62321
      44 -> 48        -0.28279
 SavETr:  write IOETrn=   770 NScale= 10 NData=  16 NLR=1 NState=    5 LETran=     100.
 The selected state is a singlet.
 CISGrd: IGrad=2 NXY=2 DFT=T
 CISAX will form     1 AO SS matrices at one time.
 NMat=     1 NSing=     1 JSym2X= 0.
 GePol: Maximum number of non-zero 1st derivatives   =     253
 Leave Link  914 at Wed Jun 24 12:01:51 2026, MaxMem=  4026531840 cpu:             913.0 elap:             114.7
 (Enter /opt/packages/gaussian/g16RevC.01/g16/l1002.exe)
 Minotr:  Closed shell wavefunction.
          Computing CIS/TDA/TD derivatives.
          Using Z-Vector for PSCF gradient.
          Skipping F1 and S1 gradient terms here.
          IDoAtm=111111111111111111111111111
 NEqPCM:  Using equilibrium solvation (IEInf=0, Eps=  32.6130, EpsInf=   1.7657)
          Frozen-core window.
          Direct CPHF calculation.
          Differentiating once with respect to electric field.
                with respect to dipole field.
          Differentiating once with respect to nuclear coordinates.
          Requested convergence is 1.0D-10 RMS, and 1.0D-09 maximum.
          NewPWx=F KeepS1=T KeepF1=T KeepIn=T MapXYZ=F SortEE=F KeepMc=T.
 Keep R1 ints in memory in canonical form, NReq=730638089.
 FoFCou: FMM=F IPFlag=           0 FMFlag=           0 FMFlg1=           0
         NFxFlg=           0 DoJE=F BraDBF=F KetDBF=F FulRan=T
         wScrn=  0.000000 ICntrl=       600 IOpCl=  0 I1Cent=           0 NGrid=           0
         NMat0=    1 NMatS0=  37950 NMatT0=    0 NMatD0=    1 NMtDS0=    0 NMtDT0=    0
 Symmetry not used in FoFCou.
 Two-electron integral symmetry not used.
          MDV=    4026531840 using IRadAn=       5.
          Solving linear equations separately, MaxMat=       0.
          There are     1 degrees of freedom in the 1st order CPHF.  IDoFFX=0 NUNeed=     1.
 LinEq1:  Iter=  0 NonCon=     1 RMS=1.16D-02 Max=2.72D-01 NDo=     1
 AX will form     1 AO Fock derivatives at one time.
 LinEq1:  Iter=  1 NonCon=     1 RMS=3.40D-03 Max=1.77D-01 NDo=     1
 LinEq1:  Iter=  2 NonCon=     1 RMS=2.39D-03 Max=4.75D-02 NDo=     1
 LinEq1:  Iter=  3 NonCon=     1 RMS=1.02D-03 Max=3.47D-02 NDo=     1
 LinEq1:  Iter=  4 NonCon=     1 RMS=9.76D-04 Max=4.42D-02 NDo=     1
 LinEq1:  Iter=  5 NonCon=     1 RMS=4.98D-04 Max=1.30D-02 NDo=     1
 LinEq1:  Iter=  6 NonCon=     1 RMS=3.03D-04 Max=1.30D-02 NDo=     1
 LinEq1:  Iter=  7 NonCon=     1 RMS=1.38D-04 Max=5.78D-03 NDo=     1
 LinEq1:  Iter=  8 NonCon=     1 RMS=8.87D-05 Max=4.23D-03 NDo=     1
 LinEq1:  Iter=  9 NonCon=     1 RMS=4.29D-05 Max=1.88D-03 NDo=     1
 LinEq1:  Iter= 10 NonCon=     1 RMS=2.36D-05 Max=6.31D-04 NDo=     1
 LinEq1:  Iter= 11 NonCon=     1 RMS=1.03D-05 Max=2.18D-04 NDo=     1
 LinEq1:  Iter= 12 NonCon=     1 RMS=4.90D-06 Max=1.19D-04 NDo=     1
 LinEq1:  Iter= 13 NonCon=     1 RMS=1.49D-06 Max=3.47D-05 NDo=     1
 LinEq1:  Iter= 14 NonCon=     1 RMS=9.28D-07 Max=2.08D-05 NDo=     1
 LinEq1:  Iter= 15 NonCon=     1 RMS=3.45D-07 Max=1.38D-05 NDo=     1
 LinEq1:  Iter= 16 NonCon=     1 RMS=2.01D-07 Max=5.80D-06 NDo=     1
 LinEq1:  Iter= 17 NonCon=     1 RMS=8.66D-08 Max=2.32D-06 NDo=     1
 LinEq1:  Iter= 18 NonCon=     1 RMS=3.52D-08 Max=5.62D-07 NDo=     1
 LinEq1:  Iter= 19 NonCon=     1 RMS=1.38D-08 Max=2.08D-07 NDo=     1
 LinEq1:  Iter= 20 NonCon=     1 RMS=3.69D-09 Max=8.10D-08 NDo=     1
 LinEq1:  Iter= 21 NonCon=     1 RMS=2.29D-09 Max=3.90D-08 NDo=     1
 LinEq1:  Iter= 22 NonCon=     1 RMS=5.58D-10 Max=1.45D-08 NDo=     1
 LinEq1:  Iter= 23 NonCon=     1 RMS=1.30D-10 Max=3.07D-09 NDo=     1
 LinEq1:  Iter= 24 NonCon=     1 RMS=7.18D-11 Max=1.47D-09 NDo=     1
 LinEq1:  Iter= 25 NonCon=     0 RMS=2.33D-11 Max=4.84D-10 NDo=     1
 Linear equations converged to 1.000D-10 1.000D-09 after    25 iterations.
 End of Minotr F.D. properties file   721 does not exist.
 End of Minotr F.D. properties file   722 does not exist.
 End of Minotr F.D. properties file   788 does not exist.
 Leave Link 1002 at Wed Jun 24 12:02:40 2026, MaxMem=  4026531840 cpu:             314.2 elap:              49.1
 (Enter /opt/packages/gaussian/g16RevC.01/g16/l701.exe)
 ... and contract with generalized density number  6.
 Compute integral first derivatives.
 D1PCM: PCM CHGder 1st derivatives, ID1Alg=3 FixD1E=F DoIter=F DoCFld=F I1PDM=6.
 Leave Link  701 at Wed Jun 24 12:02:42 2026, MaxMem=  4026531840 cpu:              13.5 elap:               1.7
 (Enter /opt/packages/gaussian/g16RevC.01/g16/l702.exe)
 L702 exits ... SP integral derivatives will be done elsewhere.
 Leave Link  702 at Wed Jun 24 12:02:42 2026, MaxMem=  4026531840 cpu:               0.1 elap:               0.0
 (Enter /opt/packages/gaussian/g16RevC.01/g16/l703.exe)
 Integral derivatives from FoFJK, PRISM(SPDF).
 Compute integral first derivatives, UseDBF=F ICtDFT=           0.
 Calling FoFJK, ICntrl=  10005127 FMM=F ISym2X=0 I1Cent= 0 IOpClX= 0 NMat=1 NMatS=1 NMatT=0.
 FoFJK:  IHMeth= 1 ICntrl=10005127 DoSepK=F KAlg= 0 I1Cent=           0 FoldK=F
 IRaf=         0 NMat=       1 IRICut=       1 DoRegI=T DoRafI=F ISym2E= 0 IDoP0=0 IntGTp=1.
 FoFCou: FMM=F IPFlag=           0 FMFlag=      100000 FMFlg1=         800
         NFxFlg=           0 DoJE=F BraDBF=F KetDBF=F FulRan=T
         wScrn=  0.000000 ICntrl=  10005127 IOpCl=  0 I1Cent=           0 NGrid=           0
         NMat0=    1 NMatS0=      1 NMatT0=    0 NMatD0=    1 NMtDS0=    0 NMtDT0=    0
 Symmetry not used in FoFCou.
 Leave Link  703 at Wed Jun 24 12:02:49 2026, MaxMem=  4026531840 cpu:              50.0 elap:               6.3
 (Enter /opt/packages/gaussian/g16RevC.01/g16/l716.exe)
 Dipole        = 2.36625853D+00-4.87797195D-01-3.62025416D-01
 ***** Axes restored to original set *****
 -------------------------------------------------------------------
 Center     Atomic                   Forces (Hartrees/Bohr)
 Number     Number              X              Y              Z
 -------------------------------------------------------------------
      1        6          -0.000000631   -0.000017391    0.000028673
      2        6          -0.000001151    0.000005401   -0.000010736
      3        6           0.000009827    0.000005254    0.000001423
      4        6          -0.000039277   -0.000011152    0.000004271
      5        6           0.000022022    0.000011440    0.000003115
      6        6          -0.000007709    0.000002791   -0.000005967
      7        1          -0.000000234   -0.000002164    0.000001845
      8        1          -0.000000482    0.000000026    0.000000302
      9        1          -0.000002163    0.000001088   -0.000001590
     10        1          -0.000001050   -0.000003001    0.000002434
     11        8           0.000006581    0.000007409   -0.000030158
     12        6          -0.000001584    0.000012903    0.000018084
     13        1           0.000001978   -0.000001635   -0.000006482
     14        1          -0.000003346    0.000000742   -0.000008613
     15        1           0.000000372   -0.000001359   -0.000003849
     16        6           0.000017187   -0.000014472   -0.000026950
     17        6           0.000012217    0.000023215    0.000007844
     18        7          -0.000032337    0.000012833    0.000018294
     19        6           0.000026755    0.000009899    0.000012603
     20        6          -0.000013039   -0.000010689   -0.000004934
     21        1           0.000000935   -0.000008587   -0.000000662
     22        1          -0.000002803   -0.000006624   -0.000003946
     23        1          -0.000001401   -0.000007432    0.000002823
     24        1          -0.000001340   -0.000001577   -0.000003966
     25        1           0.000005699    0.000000631    0.000003009
     26        1          -0.000000581   -0.000000566    0.000001100
     27        1           0.000005555   -0.000006983    0.000002032
 -------------------------------------------------------------------
 Cartesian Forces:  Max     0.000039277 RMS     0.000011472
 Leave Link  716 at Wed Jun 24 12:02:49 2026, MaxMem=  4026531840 cpu:               0.1 elap:               0.0
 (Enter /opt/packages/gaussian/g16RevC.01/g16/l103.exe)

 GradGradGradGradGradGradGradGradGradGradGradGradGradGradGradGradGradGrad
 Berny optimization.
 Using GEDIIS/GDIIS optimizer.
 FormGI is forming the generalized inverse of G from B-inverse, IUseBI=4.
 Internal  Forces:  Max     0.000019947 RMS     0.000004213
 Search for a local minimum.
 Step number   8 out of a maximum of  154
 All quantities printed in internal units (Hartrees-Bohrs-Radians)
 RMS Force = .42126D-05 SwitMx=.10000D-02 MixMth= 2
 Mixed Optimization -- En-DIIS/RFO-DIIS
 Swapping is turned off.
 Update second derivatives using D2CorX and points    1    2    3    4    5
                                                      6    7    8
 DE= -1.59D-07 DEPred=-2.25D-07 R= 7.07D-01
 Trust test= 7.07D-01 RLast= 1.02D-02 DXMaxT set to 3.71D-01
 ITU=  0  0  1  1  1  1  0  0
     Eigenvalues ---    0.00202   0.00611   0.00804   0.01152   0.01371
     Eigenvalues ---    0.01561   0.01665   0.01838   0.01926   0.01992
     Eigenvalues ---    0.02048   0.02107   0.02211   0.02257   0.02834
     Eigenvalues ---    0.03234   0.03493   0.03917   0.05005   0.05222
     Eigenvalues ---    0.05755   0.06055   0.06900   0.07118   0.07851
     Eigenvalues ---    0.08415   0.09296   0.10134   0.10632   0.10806
     Eigenvalues ---    0.12597   0.15642   0.15972   0.16000   0.16001
     Eigenvalues ---    0.16013   0.16115   0.17729   0.20072   0.21732
     Eigenvalues ---    0.21986   0.22021   0.22991   0.23921   0.24834
     Eigenvalues ---    0.25229   0.26685   0.27036   0.27561   0.29873
     Eigenvalues ---    0.33036   0.33349   0.33997   0.34079   0.34179
     Eigenvalues ---    0.34264   0.34294   0.34392   0.34503   0.34622
     Eigenvalues ---    0.34941   0.35210   0.35247   0.35582   0.35709
     Eigenvalues ---    0.37761   0.38757   0.39623   0.40749   0.41275
     Eigenvalues ---    0.44242   0.45399   0.47555   0.50485   0.64342
 En-DIIS/RFO-DIIS/Sim-DIIS IScMMF=       -3 using points:     8    7    6    5    4    3    2    1
 RFO step:  Lambda=-5.59490430D-08.
 NNeg= 0 NGDIIS= 8 SimSw=  2.50D-01 Rises=F DC= -1.59D-07 SmlDif=  1.00D-05
 NRisDI= 0 DoIntr=F SqrtH=F CThrHd= 10.0 CDAdj=  3.0
 RMS Error=  0.2330307001D-03 NUsed= 8 OKEnD=F EnDIS=F
 InvSVX:  RCond= 6.31D-08 Info=           0 Equed=N FErr=  8.78D-13 BErr=  5.69D-17
 DIIS inversion failure, remove point   8.
 InvSVX:  RCond= 8.35D-08 Info=           0 Equed=N FErr=  5.99D-13 BErr=  6.08D-17
 DIIS inversion failure, remove point   7.
 InvSVX:  RCond= 9.92D-08 Info=           0 Equed=N FErr=  4.21D-13 BErr=  4.26D-17
 DIIS inversion failure, remove point   6.
 InvSVX:  RCond= 1.20D-07 Info=           0 Equed=N FErr=  3.62D-13 BErr=  9.29D-17
 RFO-DIIS uses    5 points instead of    8
 DidBck=F Rises=F RFO-DIIS coefs:    1.46056   -0.43078   -0.28407    0.33169   -0.07739
                  RFO-DIIS coefs:    0.00000    0.00000    0.00000
 Iteration  1 RMS(Cart)=  0.00036689 RMS(Int)=  0.00000020
 Iteration  2 RMS(Cart)=  0.00000009 RMS(Int)=  0.00000019
 ITry= 1 IFail=0 DXMaxC= 1.60D-03 DCOld= 1.00D+10 DXMaxT= 3.71D-01 DXLimC= 3.00D+00 Rises=F
 Variable       Old X    -DE/DX   Delta X   Delta X   Delta X     New X
                                 (Linear)    (Quad)   (Total)
    R1        2.70023   0.00000  -0.00002   0.00003   0.00001   2.70024
    R2        2.71189  -0.00000  -0.00003   0.00002  -0.00002   2.71187
    R3        2.48075   0.00000  -0.00000   0.00002   0.00002   2.48077
    R4        2.59307   0.00000  -0.00000   0.00001   0.00001   2.59307
    R5        2.04776  -0.00000   0.00002  -0.00002  -0.00000   2.04776
    R6        2.70916   0.00000  -0.00002   0.00001  -0.00001   2.70915
    R7        2.05189   0.00000  -0.00000   0.00001   0.00000   2.05189
    R8        2.69070   0.00002   0.00013  -0.00006   0.00008   2.69078
    R9        2.79017  -0.00002  -0.00012   0.00002  -0.00010   2.79007
   R10        2.59155  -0.00001  -0.00005   0.00003  -0.00003   2.59152
   R11        2.05145  -0.00000  -0.00000  -0.00000  -0.00001   2.05144
   R12        2.05047  -0.00000  -0.00000  -0.00001  -0.00001   2.05047
   R13        2.74676  -0.00001  -0.00011   0.00005  -0.00006   2.74670
   R14        2.06402   0.00000   0.00002  -0.00001   0.00001   2.06404
   R15        2.06397  -0.00000  -0.00000  -0.00000  -0.00001   2.06397
   R16        2.05711  -0.00000  -0.00000   0.00000  -0.00000   2.05711
   R17        2.85434  -0.00001  -0.00014   0.00007  -0.00007   2.85427
   R18        2.64043  -0.00001  -0.00011   0.00005  -0.00006   2.64038
   R19        2.92270   0.00000   0.00007  -0.00004   0.00003   2.92273
   R20        2.06943  -0.00000   0.00001  -0.00000   0.00000   2.06944
   R21        2.08576   0.00001   0.00004  -0.00001   0.00003   2.08579
   R22        2.79196  -0.00002  -0.00002  -0.00005  -0.00007   2.79189
   R23        1.91702  -0.00001  -0.00003   0.00000  -0.00002   1.91700
   R24        2.91242  -0.00000  -0.00004   0.00000  -0.00003   2.91238
   R25        2.07223   0.00000   0.00001   0.00001   0.00002   2.07224
   R26        2.06831  -0.00000   0.00000  -0.00001  -0.00000   2.06831
   R27        2.07101   0.00000  -0.00001   0.00001  -0.00000   2.07101
   R28        2.06797   0.00000  -0.00000   0.00000  -0.00000   2.06797
    A1        2.10727  -0.00000   0.00005  -0.00006  -0.00001   2.10726
    A2        2.17188   0.00000  -0.00010   0.00011   0.00001   2.17189
    A3        2.00404   0.00000   0.00005  -0.00006  -0.00001   2.00403
    A4        2.06635   0.00000   0.00000   0.00001   0.00001   2.06636
    A5        2.10678  -0.00000  -0.00006   0.00004  -0.00002   2.10676
    A6        2.11006  -0.00000   0.00006  -0.00005   0.00001   2.11006
    A7        2.12691   0.00000  -0.00000   0.00002   0.00002   2.12692
    A8        2.08545  -0.00000  -0.00000   0.00001   0.00001   2.08545
    A9        2.07083  -0.00000   0.00001  -0.00003  -0.00002   2.07081
   A10        2.07061  -0.00001  -0.00004  -0.00001  -0.00005   2.07056
   A11        2.10712   0.00001   0.00005   0.00000   0.00005   2.10717
   A12        2.10533   0.00000  -0.00001   0.00001   0.00000   2.10533
   A13        2.10894   0.00000   0.00003  -0.00000   0.00003   2.10897
   A14        2.07573  -0.00000  -0.00003  -0.00001  -0.00004   2.07569
   A15        2.09852  -0.00000  -0.00000   0.00001   0.00001   2.09853
   A16        2.08628   0.00000  -0.00004   0.00004  -0.00000   2.08628
   A17        2.06168  -0.00000   0.00003  -0.00003   0.00000   2.06168
   A18        2.13522  -0.00000   0.00001  -0.00001  -0.00000   2.13522
   A19        2.12927   0.00001  -0.00010   0.00015   0.00005   2.12933
   A20        1.91083   0.00001  -0.00019   0.00020   0.00001   1.91084
   A21        1.90936  -0.00000   0.00020  -0.00018   0.00002   1.90938
   A22        1.82525   0.00000  -0.00005   0.00009   0.00004   1.82530
   A23        1.94554  -0.00001  -0.00007   0.00000  -0.00006   1.94548
   A24        1.93453  -0.00000   0.00007  -0.00008  -0.00000   1.93453
   A25        1.93439   0.00000   0.00003  -0.00003   0.00000   1.93439
   A26        2.14352  -0.00000   0.00009   0.00001   0.00010   2.14362
   A27        2.07090   0.00001   0.00022  -0.00005   0.00017   2.07107
   A28        1.88572  -0.00000   0.00011  -0.00004   0.00007   1.88579
   A29        1.76747   0.00000  -0.00004   0.00001  -0.00003   1.76744
   A30        1.96677   0.00000   0.00011  -0.00003   0.00008   1.96686
   A31        1.95605   0.00000   0.00010  -0.00005   0.00005   1.95611
   A32        1.96701   0.00000  -0.00002   0.00005   0.00002   1.96703
   A33        1.93501  -0.00000  -0.00002  -0.00005  -0.00007   1.93493
   A34        1.87249  -0.00000  -0.00012   0.00007  -0.00005   1.87244
   A35        1.93377   0.00000   0.00000  -0.00001  -0.00001   1.93376
   A36        2.07271  -0.00000   0.00005   0.00001   0.00006   2.07277
   A37        2.06128   0.00000   0.00007   0.00006   0.00014   2.06142
   A38        1.82148   0.00000  -0.00003   0.00003   0.00000   1.82148
   A39        1.90442   0.00000   0.00008  -0.00006   0.00002   1.90444
   A40        1.93391  -0.00000  -0.00001   0.00001   0.00000   1.93391
   A41        1.94955  -0.00001  -0.00010  -0.00001  -0.00012   1.94944
   A42        1.96724   0.00000   0.00009   0.00001   0.00010   1.96734
   A43        1.88656   0.00000  -0.00003   0.00002  -0.00001   1.88655
   A44        1.82044  -0.00001  -0.00008  -0.00003  -0.00011   1.82033
   A45        1.91048  -0.00000   0.00003  -0.00005  -0.00002   1.91046
   A46        1.96511   0.00000  -0.00000   0.00005   0.00004   1.96515
   A47        1.91973   0.00000   0.00007  -0.00005   0.00002   1.91974
   A48        1.95865   0.00000  -0.00006   0.00007   0.00001   1.95866
   A49        1.88872   0.00000   0.00004   0.00001   0.00006   1.88878
    D1        0.00015  -0.00000   0.00015  -0.00015   0.00000   0.00016
    D2        3.14040  -0.00000   0.00005  -0.00009  -0.00004   3.14036
    D3        3.14005   0.00001   0.00023   0.00016   0.00040   3.14045
    D4       -0.00289   0.00001   0.00013   0.00023   0.00036  -0.00254
    D5        0.00183   0.00000  -0.00022   0.00026   0.00004   0.00187
    D6       -3.14132   0.00000  -0.00018   0.00017  -0.00001  -3.14134
    D7       -3.13822  -0.00000  -0.00030  -0.00002  -0.00032  -3.13854
    D8        0.00181  -0.00001  -0.00026  -0.00012  -0.00037   0.00144
    D9       -0.00301  -0.00001  -0.00017  -0.00026  -0.00043  -0.00344
   D10        3.13698  -0.00000  -0.00010   0.00004  -0.00005   3.13693
   D11        0.00028   0.00000   0.00002  -0.00004  -0.00002   0.00026
   D12        3.13903  -0.00000   0.00006  -0.00005   0.00001   3.13904
   D13       -3.13996  -0.00000   0.00012  -0.00010   0.00002  -3.13994
   D14       -0.00121  -0.00000   0.00016  -0.00012   0.00005  -0.00116
   D15       -0.00261   0.00000  -0.00011   0.00012   0.00000  -0.00260
   D16       -3.12792  -0.00000  -0.00026   0.00018  -0.00008  -3.12799
   D17       -3.14138   0.00000  -0.00015   0.00013  -0.00003  -3.14140
   D18        0.01650  -0.00000  -0.00030   0.00019  -0.00011   0.01639
   D19        0.00462  -0.00000   0.00004  -0.00000   0.00004   0.00466
   D20       -3.13684   0.00000  -0.00000   0.00001   0.00000  -3.13683
   D21        3.12995   0.00000   0.00019  -0.00007   0.00012   3.13007
   D22       -0.01151   0.00000   0.00014  -0.00006   0.00008  -0.01143
   D23        1.12185   0.00000   0.00057  -0.00016   0.00041   1.12226
   D24       -1.33146  -0.00000  -0.00017  -0.00001  -0.00018  -1.33165
   D25       -2.00314  -0.00000   0.00043  -0.00009   0.00033  -2.00280
   D26        1.82673  -0.00000  -0.00032   0.00006  -0.00026   1.82647
   D27       -0.00423  -0.00000   0.00012  -0.00018  -0.00006  -0.00430
   D28        3.13899   0.00000   0.00008  -0.00008  -0.00000   3.13898
   D29        3.13722  -0.00000   0.00017  -0.00019  -0.00003   3.13719
   D30       -0.00274  -0.00000   0.00013  -0.00009   0.00003  -0.00271
   D31        1.06167   0.00000   0.00045   0.00025   0.00070   1.06237
   D32       -1.07506   0.00001   0.00053   0.00023   0.00076  -1.07430
   D33        3.13534   0.00000   0.00042   0.00031   0.00072   3.13606
   D34       -3.07264  -0.00000  -0.00058   0.00010  -0.00048  -3.07312
   D35        1.10477  -0.00000  -0.00058   0.00006  -0.00052   1.10425
   D36       -1.00944  -0.00001  -0.00058   0.00003  -0.00056  -1.01000
   D37       -0.55747   0.00000   0.00014  -0.00004   0.00010  -0.55737
   D38       -2.66324   0.00000   0.00014  -0.00009   0.00006  -2.66319
   D39        1.50573  -0.00000   0.00014  -0.00012   0.00002   1.50575
   D40        2.88871  -0.00000   0.00016  -0.00012   0.00005   2.88876
   D41       -0.92387   0.00001   0.00036  -0.00001   0.00035  -0.92352
   D42        0.34327  -0.00000  -0.00047  -0.00001  -0.00048   0.34279
   D43        2.81387   0.00000  -0.00027   0.00010  -0.00017   2.81370
   D44        0.55377  -0.00000   0.00020   0.00006   0.00026   0.55403
   D45       -1.49989  -0.00000   0.00015   0.00017   0.00031  -1.49957
   D46        2.68179  -0.00000   0.00007   0.00016   0.00023   2.68202
   D47        2.65937   0.00000   0.00030   0.00006   0.00035   2.65972
   D48        0.60572   0.00000   0.00024   0.00016   0.00040   0.60612
   D49       -1.49579   0.00000   0.00017   0.00015   0.00032  -1.49548
   D50       -1.52458  -0.00000   0.00011   0.00014   0.00025  -1.52433
   D51        2.70495   0.00000   0.00006   0.00024   0.00030   2.70525
   D52        0.60344  -0.00000  -0.00001   0.00023   0.00022   0.60365
   D53        0.02772   0.00000   0.00062   0.00004   0.00065   0.02837
   D54       -2.05830   0.00001   0.00072   0.00006   0.00078  -2.05752
   D55        2.14970   0.00001   0.00070   0.00007   0.00078   2.15048
   D56       -2.44778  -0.00000   0.00043  -0.00005   0.00038  -2.44740
   D57        1.74940   0.00000   0.00053  -0.00003   0.00050   1.74990
   D58       -0.32579   0.00000   0.00051  -0.00001   0.00050  -0.32529
   D59       -0.37204   0.00000  -0.00048  -0.00007  -0.00054  -0.37259
   D60        1.67524  -0.00000  -0.00045  -0.00017  -0.00062   1.67462
   D61       -2.50432  -0.00000  -0.00039  -0.00014  -0.00053  -2.50485
   D62        1.68321   0.00000  -0.00045  -0.00013  -0.00058   1.68263
   D63       -2.55269  -0.00000  -0.00043  -0.00023  -0.00066  -2.55334
   D64       -0.44906   0.00000  -0.00036  -0.00020  -0.00057  -0.44963
   D65       -2.47184  -0.00000  -0.00049  -0.00011  -0.00060  -2.47244
   D66       -0.42455  -0.00000  -0.00047  -0.00021  -0.00068  -0.42523
   D67        1.67907  -0.00000  -0.00041  -0.00018  -0.00059   1.67848
         Item               Value     Threshold  Converged?
 Maximum Force            0.000020     0.000450     YES
 RMS     Force            0.000004     0.000300     YES
 Maximum Displacement     0.001598     0.001800     YES
 RMS     Displacement     0.000367     0.001200     YES
 Predicted change in Energy=-2.611995D-08
 Optimization completed.
    -- Stationary point found.
                           ----------------------------
                           !   Optimized Parameters   !
                           ! (Angstroms and Degrees)  !
 --------------------------                            --------------------------
 ! Name  Definition              Value          Derivative Info.                !
 --------------------------------------------------------------------------------
 ! R1    R(1,2)                  1.4289         -DE/DX =    0.0                 !
 ! R2    R(1,6)                  1.4351         -DE/DX =    0.0                 !
 ! R3    R(1,11)                 1.3128         -DE/DX =    0.0                 !
 ! R4    R(2,3)                  1.3722         -DE/DX =    0.0                 !
 ! R5    R(2,8)                  1.0836         -DE/DX =    0.0                 !
 ! R6    R(3,4)                  1.4336         -DE/DX =    0.0                 !
 ! R7    R(3,9)                  1.0858         -DE/DX =    0.0                 !
 ! R8    R(4,5)                  1.4239         -DE/DX =    0.0                 !
 ! R9    R(4,16)                 1.4765         -DE/DX =    0.0                 !
 ! R10   R(5,6)                  1.3714         -DE/DX =    0.0                 !
 ! R11   R(5,10)                 1.0856         -DE/DX =    0.0                 !
 ! R12   R(6,7)                  1.0851         -DE/DX =    0.0                 !
 ! R13   R(11,12)                1.4535         -DE/DX =    0.0                 !
 ! R14   R(12,13)                1.0922         -DE/DX =    0.0                 !
 ! R15   R(12,14)                1.0922         -DE/DX =    0.0                 !
 ! R16   R(12,15)                1.0886         -DE/DX =    0.0                 !
 ! R17   R(16,17)                1.5105         -DE/DX =    0.0                 !
 ! R18   R(16,18)                1.3973         -DE/DX =    0.0                 !
 ! R19   R(17,20)                1.5466         -DE/DX =    0.0                 !
 ! R20   R(17,21)                1.0951         -DE/DX =    0.0                 !
 ! R21   R(17,22)                1.1037         -DE/DX =    0.0                 !
 ! R22   R(18,19)                1.4774         -DE/DX =    0.0                 !
 ! R23   R(18,27)                1.0144         -DE/DX =    0.0                 !
 ! R24   R(19,20)                1.5412         -DE/DX =    0.0                 !
 ! R25   R(19,23)                1.0966         -DE/DX =    0.0                 !
 ! R26   R(19,24)                1.0945         -DE/DX =    0.0                 !
 ! R27   R(20,25)                1.0959         -DE/DX =    0.0                 !
 ! R28   R(20,26)                1.0943         -DE/DX =    0.0                 !
 ! A1    A(2,1,6)              120.7376         -DE/DX =    0.0                 !
 ! A2    A(2,1,11)             124.4394         -DE/DX =    0.0                 !
 ! A3    A(6,1,11)             114.823          -DE/DX =    0.0                 !
 ! A4    A(1,2,3)              118.3931         -DE/DX =    0.0                 !
 ! A5    A(1,2,8)              120.7095         -DE/DX =    0.0                 !
 ! A6    A(3,2,8)              120.8973         -DE/DX =    0.0                 !
 ! A7    A(2,3,4)              121.8628         -DE/DX =    0.0                 !
 ! A8    A(2,3,9)              119.4873         -DE/DX =    0.0                 !
 ! A9    A(4,3,9)              118.6497         -DE/DX =    0.0                 !
 ! A10   A(3,4,5)              118.6374         -DE/DX =    0.0                 !
 ! A11   A(3,4,16)             120.7292         -DE/DX =    0.0                 !
 ! A12   A(5,4,16)             120.6267         -DE/DX =    0.0                 !
 ! A13   A(4,5,6)              120.8333         -DE/DX =    0.0                 !
 ! A14   A(4,5,10)             118.9305         -DE/DX =    0.0                 !
 ! A15   A(6,5,10)             120.2362         -DE/DX =    0.0                 !
 ! A16   A(1,6,5)              119.5353         -DE/DX =    0.0                 !
 ! A17   A(1,6,7)              118.1255         -DE/DX =    0.0                 !
 ! A18   A(5,6,7)              122.3392         -DE/DX =    0.0                 !
 ! A19   A(1,11,12)            121.9984         -DE/DX =    0.0                 !
 ! A20   A(11,12,13)           109.4825         -DE/DX =    0.0                 !
 ! A21   A(11,12,14)           109.3984         -DE/DX =    0.0                 !
 ! A22   A(11,12,15)           104.5793         -DE/DX =    0.0                 !
 ! A23   A(13,12,14)           111.4712         -DE/DX =    0.0                 !
 ! A24   A(13,12,15)           110.8405         -DE/DX =    0.0                 !
 ! A25   A(14,12,15)           110.8324         -DE/DX =    0.0                 !
 ! A26   A(4,16,17)            122.8146         -DE/DX =    0.0                 !
 ! A27   A(4,16,18)            118.6536         -DE/DX =    0.0                 !
 ! A28   A(17,16,18)           108.044          -DE/DX =    0.0                 !
 ! A29   A(16,17,20)           101.2686         -DE/DX =    0.0                 !
 ! A30   A(16,17,21)           112.6879         -DE/DX =    0.0                 !
 ! A31   A(16,17,22)           112.0737         -DE/DX =    0.0                 !
 ! A32   A(20,17,21)           112.7015         -DE/DX =    0.0                 !
 ! A33   A(20,17,22)           110.8677         -DE/DX =    0.0                 !
 ! A34   A(21,17,22)           107.2859         -DE/DX =    0.0                 !
 ! A35   A(16,18,19)           110.797          -DE/DX =    0.0                 !
 ! A36   A(16,18,27)           118.7576         -DE/DX =    0.0                 !
 ! A37   A(19,18,27)           118.1027         -DE/DX =    0.0                 !
 ! A38   A(18,19,20)           104.3633         -DE/DX =    0.0                 !
 ! A39   A(18,19,23)           109.1152         -DE/DX =    0.0                 !
 ! A40   A(18,19,24)           110.8048         -DE/DX =    0.0                 !
 ! A41   A(20,19,23)           111.7012         -DE/DX =    0.0                 !
 ! A42   A(20,19,24)           112.7144         -DE/DX =    0.0                 !
 ! A43   A(23,19,24)           108.092          -DE/DX =    0.0                 !
 ! A44   A(17,20,19)           104.3035         -DE/DX =    0.0                 !
 ! A45   A(17,20,25)           109.4627         -DE/DX =    0.0                 !
 ! A46   A(17,20,26)           112.5926         -DE/DX =    0.0                 !
 ! A47   A(19,20,25)           109.9922         -DE/DX =    0.0                 !
 ! A48   A(19,20,26)           112.2222         -DE/DX =    0.0                 !
 ! A49   A(25,20,26)           108.216          -DE/DX =    0.0                 !
 ! D1    D(6,1,2,3)              0.0089         -DE/DX =    0.0                 !
 ! D2    D(6,1,2,8)            179.9314         -DE/DX =    0.0                 !
 ! D3    D(11,1,2,3)           179.9117         -DE/DX =    0.0                 !
 ! D4    D(11,1,2,8)            -0.1658         -DE/DX =    0.0                 !
 ! D5    D(2,1,6,5)              0.105          -DE/DX =    0.0                 !
 ! D6    D(2,1,6,7)           -179.9845         -DE/DX =    0.0                 !
 ! D7    D(11,1,6,5)          -179.8067         -DE/DX =    0.0                 !
 ! D8    D(11,1,6,7)             0.1038         -DE/DX =    0.0                 !
 ! D9    D(2,1,11,12)           -0.1722         -DE/DX =    0.0                 !
 ! D10   D(6,1,11,12)          179.7358         -DE/DX =    0.0                 !
 ! D11   D(1,2,3,4)              0.0162         -DE/DX =    0.0                 !
 ! D12   D(1,2,3,9)            179.8532         -DE/DX =    0.0                 !
 ! D13   D(8,2,3,4)           -179.9062         -DE/DX =    0.0                 !
 ! D14   D(8,2,3,9)             -0.0692         -DE/DX =    0.0                 !
 ! D15   D(2,3,4,5)             -0.1493         -DE/DX =    0.0                 !
 ! D16   D(2,3,4,16)          -179.2164         -DE/DX =    0.0                 !
 ! D17   D(9,3,4,5)           -179.9876         -DE/DX =    0.0                 !
 ! D18   D(9,3,4,16)             0.9453         -DE/DX =    0.0                 !
 ! D19   D(3,4,5,6)              0.2646         -DE/DX =    0.0                 !
 ! D20   D(3,4,5,10)          -179.7276         -DE/DX =    0.0                 !
 ! D21   D(16,4,5,6)           179.3327         -DE/DX =    0.0                 !
 ! D22   D(16,4,5,10)           -0.6595         -DE/DX =    0.0                 !
 ! D23   D(3,4,16,17)           64.2773         -DE/DX =    0.0                 !
 ! D24   D(3,4,16,18)          -76.2873         -DE/DX =    0.0                 !
 ! D25   D(5,4,16,17)         -114.7712         -DE/DX =    0.0                 !
 ! D26   D(5,4,16,18)          104.6642         -DE/DX =    0.0                 !
 ! D27   D(4,5,6,1)             -0.2426         -DE/DX =    0.0                 !
 ! D28   D(4,5,6,7)            179.8507         -DE/DX =    0.0                 !
 ! D29   D(10,5,6,1)           179.7495         -DE/DX =    0.0                 !
 ! D30   D(10,5,6,7)            -0.1572         -DE/DX =    0.0                 !
 ! D31   D(1,11,12,13)          60.829          -DE/DX =    0.0                 !
 ! D32   D(1,11,12,14)         -61.5966         -DE/DX =    0.0                 !
 ! D33   D(1,11,12,15)         179.6416         -DE/DX =    0.0                 !
 ! D34   D(4,16,17,20)        -176.0494         -DE/DX =    0.0                 !
 ! D35   D(4,16,17,21)          63.2989         -DE/DX =    0.0                 !
 ! D36   D(4,16,17,22)         -57.8369         -DE/DX =    0.0                 !
 ! D37   D(18,16,17,20)        -31.9407         -DE/DX =    0.0                 !
 ! D38   D(18,16,17,21)       -152.5924         -DE/DX =    0.0                 !
 ! D39   D(18,16,17,22)         86.2718         -DE/DX =    0.0                 !
 ! D40   D(4,16,18,19)         165.5109         -DE/DX =    0.0                 !
 ! D41   D(4,16,18,27)         -52.9338         -DE/DX =    0.0                 !
 ! D42   D(17,16,18,19)         19.6677         -DE/DX =    0.0                 !
 ! D43   D(17,16,18,27)        161.223          -DE/DX =    0.0                 !
 ! D44   D(16,17,20,19)         31.7286         -DE/DX =    0.0                 !
 ! D45   D(16,17,20,25)        -85.9372         -DE/DX =    0.0                 !
 ! D46   D(16,17,20,26)        153.6551         -DE/DX =    0.0                 !
 ! D47   D(21,17,20,19)        152.3707         -DE/DX =    0.0                 !
 ! D48   D(21,17,20,25)         34.7049         -DE/DX =    0.0                 !
 ! D49   D(21,17,20,26)        -85.7027         -DE/DX =    0.0                 !
 ! D50   D(22,17,20,19)        -87.3522         -DE/DX =    0.0                 !
 ! D51   D(22,17,20,25)        154.982          -DE/DX =    0.0                 !
 ! D52   D(22,17,20,26)         34.5743         -DE/DX =    0.0                 !
 ! D53   D(16,18,19,20)          1.588          -DE/DX =    0.0                 !
 ! D54   D(16,18,19,23)       -117.9316         -DE/DX =    0.0                 !
 ! D55   D(16,18,19,24)        123.1687         -DE/DX =    0.0                 !
 ! D56   D(27,18,19,20)       -140.2474         -DE/DX =    0.0                 !
 ! D57   D(27,18,19,23)        100.233          -DE/DX =    0.0                 !
 ! D58   D(27,18,19,24)        -18.6667         -DE/DX =    0.0                 !
 ! D59   D(18,19,20,17)        -21.3166         -DE/DX =    0.0                 !
 ! D60   D(18,19,20,25)         95.9842         -DE/DX =    0.0                 !
 ! D61   D(18,19,20,26)       -143.4871         -DE/DX =    0.0                 !
 ! D62   D(23,19,20,17)         96.441          -DE/DX =    0.0                 !
 ! D63   D(23,19,20,25)       -146.2582         -DE/DX =    0.0                 !
 ! D64   D(23,19,20,26)        -25.7295         -DE/DX =    0.0                 !
 ! D65   D(24,19,20,17)       -141.6259         -DE/DX =    0.0                 !
 ! D66   D(24,19,20,25)        -24.3251         -DE/DX =    0.0                 !
 ! D67   D(24,19,20,26)         96.2036         -DE/DX =    0.0                 !
 --------------------------------------------------------------------------------
 Lowest energy point so far.  Saving SCF results.
 Largest change from initial coordinates is atom   27       0.200 Angstoms.
 GradGradGradGradGradGradGradGradGradGradGradGradGradGradGradGradGradGrad

 Leave Link  103 at Wed Jun 24 12:02:49 2026, MaxMem=  4026531840 cpu:               0.2 elap:               0.0
 (Enter /opt/packages/gaussian/g16RevC.01/g16/l202.exe)
                          Input orientation:                          
 ---------------------------------------------------------------------
 Center     Atomic      Atomic             Coordinates (Angstroms)
 Number     Number       Type             X           Y           Z
 ---------------------------------------------------------------------
      1          6           0        2.488490    0.183761    0.219090
      2          6           0        1.797748   -0.813942   -0.535379
      3          6           0        0.425613   -0.802973   -0.529433
      4          6           0       -0.320201    0.174965    0.207237
      5          6           0        0.392041    1.156580    0.953236
      6          6           0        1.763288    1.172527    0.964640
      7          1           0        2.330559    1.910411    1.522394
      8          1           0        2.345811   -1.559679   -1.099076
      9          1           0       -0.117330   -1.551508   -1.098555
     10          1           0       -0.167967    1.896654    1.516410
     11          8           0        3.795130    0.282668    0.298083
     12          6           0        4.680558   -0.641455   -0.390933
     13          1           0        4.507138   -0.577949   -1.467441
     14          1           0        4.510195   -1.653630   -0.017574
     15          1           0        5.682967   -0.299614   -0.139313
     16          6           0       -1.796531    0.153045    0.209933
     17          6           0       -2.597216   -0.983494    0.800399
     18          7           0       -2.475612    0.620553   -0.918169
     19          6           0       -3.894646    0.210709   -0.883541
     20          6           0       -4.039953   -0.551923    0.447822
     21          1           0       -2.440933   -1.094815    1.878556
     22          1           0       -2.350845   -1.951870    0.331582
     23          1           0       -4.103186   -0.434552   -1.745301
     24          1           0       -4.552842    1.083034   -0.944928
     25          1           0       -4.420251    0.120461    1.225213
     26          1           0       -4.724678   -1.401577    0.365488
     27          1           0       -2.253597    1.544455   -1.273430
 ---------------------------------------------------------------------
                    Distance matrix (angstroms):
                    1          2          3          4          5
     1  C    0.000000
     2  C    1.428902   0.000000
     3  C    2.406116   1.372192   0.000000
     4  C    2.808730   2.452575   1.433626   0.000000
     5  C    2.424963   2.841644   2.457495   1.423858   0.000000
     6  C    1.435068   2.489438   2.815001   2.430991   1.371387
     7  H    2.169070   3.455491   3.898881   3.430444   2.156399
     8  H    2.190320   1.083629   2.141088   3.438468   3.925208
     9  H    3.396711   2.128073   1.085814   2.174157   3.435556
    10  H    3.416695   3.926984   3.438866   2.168254   1.085580
    11  O    1.312756   2.426262   3.635525   4.117742   3.574068
    12  C    2.420387   2.891576   4.260262   5.102151   4.840568
    13  H    2.738526   2.874931   4.193965   5.164748   5.079595
    14  H    2.742136   2.886273   4.203502   5.169819   5.079267
    15  H    3.250660   3.939078   5.295785   6.031862   5.595361
    16  C    4.285141   3.795971   2.529536   1.476495   2.519807
    17  C    5.250221   4.596603   3.307346   2.622721   3.679529
    18  N    5.111404   4.523926   3.254942   2.472020   3.465965
    19  C    6.477728   5.794349   4.451694   3.737343   4.758582
    20  C    6.573745   5.925714   4.578136   3.797736   4.776714
    21  H    5.356099   4.885937   3.755085   2.983815   3.735068
    22  H    5.290817   4.388317   3.125704   2.943196   4.191937
    23  H    6.905891   6.035633   4.703624   4.300568   5.479130
    24  H    7.193329   6.640499   5.339912   4.479656   5.297197
    25  H    6.981904   6.529647   5.235829   4.224884   4.930077
    26  H    7.386780   6.610515   5.261625   4.680805   5.750689
    27  H    5.154269   4.745539   3.638971   2.793902   3.479638
                    6          7          8          9         10
     6  C    0.000000
     7  H    1.085062   0.000000
     8  H    3.473213   4.349007   0.000000
     9  H    3.900495   4.984618   2.463154   0.000000
    10  H    2.135077   2.498571   5.010597   4.327867   0.000000
    11  O    2.316145   2.508676   2.728886   4.541160   4.449203
    12  C    3.693044   3.961734   2.606846   4.934435   5.795529
    13  H    4.062991   4.457414   2.402253   4.740210   6.073189
    14  H    4.061701   4.452494   2.421370   4.753203   6.069829
    15  H    4.330104   4.345587   3.693985   6.010893   6.465172
    16  C    3.779052   4.673732   4.669681   2.727152   2.720162
    17  C    4.867175   5.760116   5.326679   3.174666   3.835255
    18  N    4.670965   5.542505   5.294549   3.211212   3.588988
    19  C    6.029352   6.886995   6.490303   4.173699   4.742396
    20  C    6.076054   6.913843   6.647288   4.333293   4.704221
    21  H    4.863286   5.650254   5.656439   3.804062   3.774442
    22  H    5.204681   6.184723   4.925360   2.682196   4.580384
    23  H    6.658978   7.587474   6.578227   4.189620   5.617761
    24  H    6.599087   7.358902   7.389120   5.161219   5.093849
    25  H    6.277809   6.990399   7.348794   5.168221   4.617529
    26  H    7.005618   7.879344   7.222309   4.836689   5.741652
    27  H    4.613312   5.381918   5.551629   3.765528   3.501015
                   11         12         13         14         15
    11  O    0.000000
    12  C    1.453523   0.000000
    13  H    2.089184   1.092234   0.000000
    14  H    2.088111   1.092208   1.805329   0.000000
    15  H    2.023437   1.088574   1.795541   1.795432   0.000000
    16  C    5.593858   6.553240   6.563853   6.564345   7.501318
    17  C    6.535868   7.382565   7.468561   7.185643   8.361351
    18  N    6.396533   7.285699   7.106117   7.401654   8.247165
    19  C    7.780364   8.631511   8.458894   8.652573   9.620030
    20  C    7.880830   8.761212   8.759090   8.633388   9.743899
    21  H    6.579045   7.488107   7.729070   7.226740   8.408442
    22  H    6.539670   7.188870   7.221916   6.876389   8.215463
    23  H    8.189823   8.889954   8.615999   8.869133   9.917973
    24  H    8.477870   9.409380   9.225785   9.512515  10.360141
    25  H    8.269120   9.274544   9.350744   9.189384  10.203598
    26  H    8.684949   9.466172   9.447984   9.246250  10.477987
    27  H    6.375645   7.323899   7.088707   7.586422   8.226534
                   16         17         18         19         20
    16  C    0.000000
    17  C    1.510453   0.000000
    18  N    1.397258   2.353982   0.000000
    19  C    2.366664   2.438257   1.477440   0.000000
    20  C    2.363580   1.546626   2.384910   1.541185   0.000000
    21  H    2.180988   1.095098   3.281061   3.383320   2.213277
    22  H    2.180075   1.103739   2.862657   2.921745   2.196918
    23  H    3.080400   3.008300   2.108647   1.096577   2.197171
    24  H    3.129829   3.337839   2.128259   1.094504   2.208142
    25  H    2.813496   2.173163   2.936971   2.175143   1.095930
    26  H    3.318899   2.211341   3.285588   2.201930   1.094321
    27  H    2.084537   3.287759   1.014443   2.150333   3.247857
                   21         22         23         24         25
    21  H    0.000000
    22  H    1.770815   0.000000
    23  H    4.041208   3.112297   0.000000
    24  H    4.144302   3.960923   1.773656   0.000000
    25  H    2.412768   3.061955   3.038506   2.377738   0.000000
    26  H    2.756622   2.437017   2.403502   2.814251   1.774374
    27  H    4.115319   3.848351   2.749566   2.367984   3.600744
                   26         27
    26  H    0.000000
    27  H    4.179880   0.000000
 Stoichiometry    C11H14NO(1+)
 Framework group  C1[X(C11H14NO)]
 Deg. of freedom    75
 Full point group                 C1      NOp   1
 RotChk:  IX=0 Diff= 6.94D-15
 Largest Abelian subgroup         C1      NOp   1
 Largest concise Abelian subgroup C1      NOp   1
                         Standard orientation:                         
 ---------------------------------------------------------------------
 Center     Atomic      Atomic             Coordinates (Angstroms)
 Number     Number       Type             X           Y           Z
 ---------------------------------------------------------------------
      1          6           0        2.485281    0.232385    0.009253
      2          6           0        1.775824   -1.006456   -0.051597
      3          6           0        0.404076   -0.974141   -0.038445
      4          6           0       -0.323215    0.259199    0.033716
      5          6           0        0.407497    1.479655    0.096308
      6          6           0        1.778815    1.479365    0.082511
      7          1           0        2.359915    2.394640    0.126727
      8          1           0        2.309732   -1.947737   -0.108017
      9          1           0       -0.152955   -1.904951   -0.086390
     10          1           0       -0.138397    2.416121    0.155585
     11          8           0        3.793648    0.339588    0.005817
     12          6           0        4.661663   -0.824526   -0.058362
     13          1           0        4.470602   -1.370765   -0.984696
     14          1           0        4.491335   -1.452827    0.818648
     15          1           0        5.670247   -0.415014   -0.051230
     16          6           0       -1.799399    0.263936    0.063642
     17          6           0       -2.597075   -0.337062    1.196772
     18          7           0       -2.494407    0.031228   -1.125954
     19          6           0       -3.915167   -0.268716   -0.853365
     20          6           0       -4.042828   -0.155231    0.678325
     21          1           0       -2.423416    0.170697    2.151373
     22          1           0       -2.364595   -1.405586    1.346600
     23          1           0       -4.142120   -1.282224   -1.205180
     24          1           0       -4.568895    0.429918   -1.384864
     25          1           0       -4.405867    0.842174    0.951181
     26          1           0       -4.734077   -0.895884    1.092025
     27          1           0       -2.272677    0.595689   -1.939166
 ---------------------------------------------------------------------
 Rotational constants (GHZ):           2.7040796           0.3412068           0.3294570
 Leave Link  202 at Wed Jun 24 12:02:50 2026, MaxMem=  4026531840 cpu:               0.0 elap:               0.0
 (Enter /opt/packages/gaussian/g16RevC.01/g16/l601.exe)
 Copying SCF densities to generalized density rwf, IOpCl= 0 IROHF=0.

 **********************************************************************

            Population analysis using the SCF Density.

 **********************************************************************

 Orbital symmetries:
       Occupied  (A) (A) (A) (A) (A) (A) (A) (A) (A) (A) (A) (A)
                 (A) (A) (A) (A) (A) (A) (A) (A) (A) (A) (A) (A)
                 (A) (A) (A) (A) (A) (A) (A) (A) (A) (A) (A) (A)
                 (A) (A) (A) (A) (A) (A) (A) (A) (A) (A) (A)
       Virtual   (A) (A) (A) (A) (A) (A) (A) (A) (A) (A) (A) (A)
                 (A) (A) (A) (A) (A) (A) (A) (A) (A) (A) (A) (A)
                 (A) (A) (A) (A) (A) (A) (A) (A) (A) (A) (A) (A)
                 (A) (A) (A) (A) (A) (A) (A) (A) (A) (A) (A) (A)
                 (A) (A) (A) (A) (A) (A) (A) (A) (A) (A) (A) (A)
                 (A) (A) (A) (A) (A) (A) (A) (A) (A) (A) (A) (A)
                 (A) (A) (A) (A) (A) (A) (A) (A) (A) (A) (A) (A)
                 (A) (A) (A) (A) (A) (A) (A) (A) (A) (A) (A) (A)
                 (A) (A) (A) (A) (A) (A) (A) (A) (A) (A) (A) (A)
                 (A) (A) (A) (A) (A) (A) (A) (A) (A) (A) (A) (A)
                 (A) (A) (A) (A) (A) (A) (A) (A) (A) (A) (A) (A)
                 (A) (A) (A) (A) (A) (A) (A) (A) (A) (A) (A) (A)
                 (A) (A) (A) (A) (A) (A) (A) (A) (A) (A) (A) (A)
                 (A) (A) (A) (A) (A) (A) (A) (A) (A) (A) (A) (A)
                 (A) (A) (A) (A) (A) (A) (A) (A) (A) (A) (A) (A)
                 (A) (A) (A) (A) (A) (A) (A) (A) (A) (A) (A) (A)
                 (A) (A) (A) (A) (A) (A) (A) (A) (A) (A) (A) (A)
                 (A) (A) (A) (A) (A) (A) (A) (A) (A) (A) (A) (A)
                 (A) (A) (A) (A) (A) (A) (A) (A) (A) (A) (A) (A)
 The electronic state is 1-A.
 Alpha  occ. eigenvalues --  -19.19994 -14.44127 -10.32934 -10.27270 -10.24121
 Alpha  occ. eigenvalues --  -10.23981 -10.22682 -10.22014 -10.21883 -10.21373
 Alpha  occ. eigenvalues --  -10.20474 -10.20355 -10.20089  -1.09192  -1.00322
 Alpha  occ. eigenvalues --   -0.87100  -0.80939  -0.79515  -0.77116  -0.74874
 Alpha  occ. eigenvalues --   -0.70395  -0.63564  -0.62851  -0.61963  -0.60568
 Alpha  occ. eigenvalues --   -0.55925  -0.53741  -0.51643  -0.49713  -0.47913
 Alpha  occ. eigenvalues --   -0.47761  -0.45573  -0.44497  -0.43968  -0.43846
 Alpha  occ. eigenvalues --   -0.42753  -0.41417  -0.39403  -0.38934  -0.38071
 Alpha  occ. eigenvalues --   -0.37350  -0.37141  -0.33859  -0.33527  -0.32368
 Alpha  occ. eigenvalues --   -0.27642  -0.23077
 Alpha virt. eigenvalues --   -0.12184  -0.02819  -0.01927   0.00339   0.01513
 Alpha virt. eigenvalues --    0.02152   0.02780   0.02909   0.03253   0.03875
 Alpha virt. eigenvalues --    0.04751   0.04912   0.05569   0.06211   0.06562
 Alpha virt. eigenvalues --    0.07136   0.07902   0.08338   0.09278   0.09609
 Alpha virt. eigenvalues --    0.10091   0.10498   0.11394   0.11714   0.11899
 Alpha virt. eigenvalues --    0.12290   0.12808   0.13424   0.13867   0.14491
 Alpha virt. eigenvalues --    0.14727   0.15112   0.15408   0.15908   0.16481
 Alpha virt. eigenvalues --    0.17325   0.17356   0.17900   0.18440   0.18774
 Alpha virt. eigenvalues --    0.19487   0.20192   0.20479   0.21081   0.21538
 Alpha virt. eigenvalues --    0.22184   0.22445   0.22757   0.23165   0.23747
 Alpha virt. eigenvalues --    0.24544   0.25036   0.25377   0.25731   0.26223
 Alpha virt. eigenvalues --    0.26263   0.27345   0.27515   0.28188   0.28712
 Alpha virt. eigenvalues --    0.29193   0.29486   0.29843   0.30727   0.31112
 Alpha virt. eigenvalues --    0.31201   0.32055   0.32651   0.32822   0.33584
 Alpha virt. eigenvalues --    0.34447   0.35148   0.37166   0.37284   0.38148
 Alpha virt. eigenvalues --    0.38872   0.38924   0.39132   0.40215   0.41163
 Alpha virt. eigenvalues --    0.44927   0.47259   0.55847   0.58498   0.64290
 Alpha virt. eigenvalues --    0.64779   0.65783   0.67454   0.67613   0.68329
 Alpha virt. eigenvalues --    0.68599   0.68825   0.69221   0.70164   0.71484
 Alpha virt. eigenvalues --    0.73120   0.73435   0.75330   0.75925   0.76437
 Alpha virt. eigenvalues --    0.77503   0.77978   0.79277   0.80037   0.81023
 Alpha virt. eigenvalues --    0.83290   0.86310   0.86824   0.88591   0.90618
 Alpha virt. eigenvalues --    0.91263   0.92940   0.93291   0.94467   0.94998
 Alpha virt. eigenvalues --    0.96008   0.96356   0.97825   0.99134   0.99423
 Alpha virt. eigenvalues --    1.01701   1.03473   1.03945   1.05625   1.07294
 Alpha virt. eigenvalues --    1.08397   1.09678   1.12228   1.13565   1.14416
 Alpha virt. eigenvalues --    1.15375   1.15547   1.19590   1.20830   1.21246
 Alpha virt. eigenvalues --    1.22708   1.23280   1.23972   1.26791   1.28286
 Alpha virt. eigenvalues --    1.30486   1.31436   1.35962   1.37669   1.40982
 Alpha virt. eigenvalues --    1.42235   1.44112   1.46408   1.46657   1.48524
 Alpha virt. eigenvalues --    1.49155   1.51733   1.54436   1.55826   1.60445
 Alpha virt. eigenvalues --    1.63953   1.69500   1.73557   1.74555   1.78386
 Alpha virt. eigenvalues --    1.79901   1.82252   1.82950   1.84972   1.86586
 Alpha virt. eigenvalues --    1.87649   1.90138   1.92845   1.93433   1.96002
 Alpha virt. eigenvalues --    1.97378   1.98135   1.99760   2.02529   2.04619
 Alpha virt. eigenvalues --    2.07270   2.09372   2.10426   2.10807   2.12131
 Alpha virt. eigenvalues --    2.13974   2.15013   2.16917   2.18763   2.21134
 Alpha virt. eigenvalues --    2.23478   2.23989   2.27847   2.29881   2.31611
 Alpha virt. eigenvalues --    2.32433   2.35794   2.37986   2.41551   2.45103
 Alpha virt. eigenvalues --    2.50228   2.52383   2.54919   2.56351   2.58355
 Alpha virt. eigenvalues --    2.63517   2.64551   2.66782   2.68544   2.71582
 Alpha virt. eigenvalues --    2.75215   2.77791   2.80288   2.82425   2.89543
 Alpha virt. eigenvalues --    2.95420   2.97641   3.06224   3.19806   3.38730
 Alpha virt. eigenvalues --    4.09125   4.22342   4.24286   4.24884   4.27670
 Alpha virt. eigenvalues --    4.29619   4.36016   4.38428   4.46389   4.52799
 Alpha virt. eigenvalues --    4.55085   4.61355   4.77419
          Condensed to atoms (all electrons):
               1          2          3          4          5          6
     1  C    7.430720   0.331617   0.593307   0.335027  -0.622975  -0.547904
     2  C    0.331617  10.687493  -3.423880  -0.646998   0.467383  -1.937555
     3  C    0.593307  -3.423880  14.399397   3.883310  -4.504395   1.046976
     4  C    0.335027  -0.646998   3.883310  20.287249  -5.793482   1.256498
     5  C   -0.622975   0.467383  -4.504395  -5.793482  13.891620  -3.524324
     6  C   -0.547904  -1.937555   1.046976   1.256498  -3.524324  10.956754
     7  H   -0.065278   0.032709  -0.030238   0.046361  -0.045604   0.373114
     8  H   -0.041770   0.287975  -0.013308   0.036079   0.005771   0.017023
     9  H    0.009129  -0.019434   0.207935   0.070371   0.072274  -0.037674
    10  H    0.021739  -0.026773   0.026552  -0.110365   0.409156  -0.096432
    11  O    0.415917   0.187162  -0.037468  -0.032299  -0.024909  -0.550622
    12  C   -0.084743  -0.128078   0.021416  -0.005260  -0.005658   0.070420
    13  H   -0.049845   0.018879   0.029813   0.000405  -0.000247  -0.008385
    14  H   -0.049842   0.021953   0.022457  -0.001729   0.002966  -0.008312
    15  H    0.029742  -0.037220  -0.011374  -0.000342   0.000624   0.024673
    16  C   -1.765826  -0.918760  -5.359510 -12.596287   5.968540  -0.405580
    17  C    0.086977   0.373971   0.346892   0.677013  -0.240046  -0.231425
    18  N   -0.003766   0.050791   0.156553  -0.256901  -0.054831   0.042857
    19  C   -0.000376   0.049729  -0.062917  -0.236305   0.102570  -0.059772
    20  C   -0.024965  -0.007797  -0.209448  -0.702044   0.146227   0.000858
    21  H   -0.000755   0.005860   0.003566   0.063048  -0.028660   0.002656
    22  H    0.000931  -0.011103   0.008914  -0.111875   0.018000  -0.002495
    23  H   -0.000045  -0.001890   0.011687  -0.029402  -0.004238  -0.000355
    24  H    0.000012  -0.001043  -0.008391  -0.000889   0.006936   0.000351
    25  H   -0.000115  -0.000579   0.002845  -0.022384  -0.001849  -0.000465
    26  H   -0.000108   0.001503  -0.004193  -0.013827   0.002367   0.000215
    27  H    0.000555  -0.013768  -0.034614   0.009256   0.028281   0.006707
               7          8          9         10         11         12
     1  C   -0.065278  -0.041770   0.009129   0.021739   0.415917  -0.084743
     2  C    0.032709   0.287975  -0.019434  -0.026773   0.187162  -0.128078
     3  C   -0.030238  -0.013308   0.207935   0.026552  -0.037468   0.021416
     4  C    0.046361   0.036079   0.070371  -0.110365  -0.032299  -0.005260
     5  C   -0.045604   0.005771   0.072274   0.409156  -0.024909  -0.005658
     6  C    0.373114   0.017023  -0.037674  -0.096432  -0.550622   0.070420
     7  H    0.474820  -0.000098   0.000012  -0.003730  -0.003337  -0.000348
     8  H   -0.000098   0.470724  -0.004081   0.000012  -0.010899  -0.001330
     9  H    0.000012  -0.004081   0.478223  -0.000124  -0.000701   0.001312
    10  H   -0.003730   0.000012  -0.000124   0.478616  -0.000497   0.000310
    11  O   -0.003337  -0.010899  -0.000701  -0.000497   8.521604   0.065034
    12  C   -0.000348  -0.001330   0.001312   0.000310   0.065034   5.303058
    13  H    0.000002  -0.000845   0.000002  -0.000000  -0.034822   0.385437
    14  H    0.000002  -0.000869   0.000004   0.000000  -0.034578   0.390131
    15  H   -0.000007   0.000127  -0.000000  -0.000000  -0.052072   0.394128
    16  C   -0.007412   0.020178  -0.012524   0.066124   0.013129  -0.037863
    17  C   -0.000047  -0.000297  -0.002855  -0.000295  -0.000764   0.001517
    18  N   -0.000225  -0.000148   0.000559   0.001143   0.000165  -0.000013
    19  C   -0.000065   0.000126  -0.000406   0.000643  -0.000012   0.000063
    20  C   -0.000005  -0.000007   0.002917   0.001169   0.000152  -0.000211
    21  H    0.000000   0.000000   0.000031   0.000009   0.000000   0.000009
    22  H    0.000000  -0.000001   0.000331  -0.000010  -0.000000  -0.000011
    23  H   -0.000000   0.000000   0.000007   0.000000   0.000000  -0.000001
    24  H    0.000000  -0.000000  -0.000000  -0.000001  -0.000000  -0.000000
    25  H    0.000000   0.000000  -0.000001  -0.000002   0.000000  -0.000000
    26  H    0.000000   0.000000   0.000003   0.000000   0.000000   0.000000
    27  H    0.000001   0.000000   0.000019   0.000007  -0.000000   0.000009
              13         14         15         16         17         18
     1  C   -0.049845  -0.049842   0.029742  -1.765826   0.086977  -0.003766
     2  C    0.018879   0.021953  -0.037220  -0.918760   0.373971   0.050791
     3  C    0.029813   0.022457  -0.011374  -5.359510   0.346892   0.156553
     4  C    0.000405  -0.001729  -0.000342 -12.596287   0.677013  -0.256901
     5  C   -0.000247   0.002966   0.000624   5.968540  -0.240046  -0.054831
     6  C   -0.008385  -0.008312   0.024673  -0.405580  -0.231425   0.042857
     7  H    0.000002   0.000002  -0.000007  -0.007412  -0.000047  -0.000225
     8  H   -0.000845  -0.000869   0.000127   0.020178  -0.000297  -0.000148
     9  H    0.000002   0.000004  -0.000000  -0.012524  -0.002855   0.000559
    10  H   -0.000000   0.000000  -0.000000   0.066124  -0.000295   0.001143
    11  O   -0.034822  -0.034578  -0.052072   0.013129  -0.000764   0.000165
    12  C    0.385437   0.390131   0.394128  -0.037863   0.001517  -0.000013
    13  H    0.481269  -0.035126  -0.025052   0.000091  -0.000043  -0.000003
    14  H   -0.035126   0.480845  -0.025154  -0.001381   0.000081   0.000002
    15  H   -0.025052  -0.025154   0.464427   0.000014  -0.000002  -0.000000
    16  C    0.000091  -0.001381   0.000014  22.147960  -2.813843   0.289046
    17  C   -0.000043   0.000081  -0.000002  -2.813843   8.032161   0.040518
    18  N   -0.000003   0.000002  -0.000000   0.289046   0.040518   6.858609
    19  C   -0.000001   0.000001  -0.000000  -0.516231   0.325139   0.168599
    20  C    0.000003  -0.000007   0.000000   1.230637  -0.843463  -0.172745
    21  H    0.000000  -0.000000   0.000000  -0.098151   0.399649   0.007320
    22  H   -0.000000   0.000000   0.000000   0.013286   0.415862   0.009637
    23  H   -0.000000  -0.000000   0.000000  -0.019628   0.038684  -0.025055
    24  H    0.000000  -0.000000  -0.000000   0.019311   0.009837  -0.044072
    25  H   -0.000000   0.000000   0.000000   0.049787  -0.092298   0.006858
    26  H   -0.000000   0.000000   0.000000   0.003158  -0.056515   0.012329
    27  H   -0.000000   0.000000   0.000000   0.063734  -0.028717   0.225422
              19         20         21         22         23         24
     1  C   -0.000376  -0.024965  -0.000755   0.000931  -0.000045   0.000012
     2  C    0.049729  -0.007797   0.005860  -0.011103  -0.001890  -0.001043
     3  C   -0.062917  -0.209448   0.003566   0.008914   0.011687  -0.008391
     4  C   -0.236305  -0.702044   0.063048  -0.111875  -0.029402  -0.000889
     5  C    0.102570   0.146227  -0.028660   0.018000  -0.004238   0.006936
     6  C   -0.059772   0.000858   0.002656  -0.002495  -0.000355   0.000351
     7  H   -0.000065  -0.000005   0.000000   0.000000  -0.000000   0.000000
     8  H    0.000126  -0.000007   0.000000  -0.000001   0.000000  -0.000000
     9  H   -0.000406   0.002917   0.000031   0.000331   0.000007  -0.000000
    10  H    0.000643   0.001169   0.000009  -0.000010   0.000000  -0.000001
    11  O   -0.000012   0.000152   0.000000  -0.000000   0.000000  -0.000000
    12  C    0.000063  -0.000211   0.000009  -0.000011  -0.000001  -0.000000
    13  H   -0.000001   0.000003   0.000000  -0.000000  -0.000000   0.000000
    14  H    0.000001  -0.000007  -0.000000   0.000000  -0.000000  -0.000000
    15  H   -0.000000   0.000000   0.000000   0.000000   0.000000  -0.000000
    16  C   -0.516231   1.230637  -0.098151   0.013286  -0.019628   0.019311
    17  C    0.325139  -0.843463   0.399649   0.415862   0.038684   0.009837
    18  N    0.168599  -0.172745   0.007320   0.009637  -0.025055  -0.044072
    19  C    6.006575  -0.142081   0.020536   0.004497   0.408812   0.408801
    20  C   -0.142081   6.448720  -0.055877  -0.042429  -0.063566  -0.064577
    21  H    0.020536  -0.055877   0.431496  -0.021349  -0.000177  -0.000045
    22  H    0.004497  -0.042429  -0.021349   0.416947   0.001664  -0.000216
    23  H    0.408812  -0.063566  -0.000177   0.001664   0.452075  -0.028820
    24  H    0.408801  -0.064577  -0.000045  -0.000216  -0.028820   0.450204
    25  H   -0.088114   0.464588  -0.005399   0.003284   0.003332  -0.006208
    26  H   -0.046468   0.428613   0.000587  -0.003810  -0.003774   0.001367
    27  H   -0.043436   0.017936  -0.000093  -0.000144   0.000285  -0.000848
              25         26         27
     1  C   -0.000115  -0.000108   0.000555
     2  C   -0.000579   0.001503  -0.013768
     3  C    0.002845  -0.004193  -0.034614
     4  C   -0.022384  -0.013827   0.009256
     5  C   -0.001849   0.002367   0.028281
     6  C   -0.000465   0.000215   0.006707
     7  H    0.000000   0.000000   0.000001
     8  H    0.000000   0.000000   0.000000
     9  H   -0.000001   0.000003   0.000019
    10  H   -0.000002   0.000000   0.000007
    11  O    0.000000   0.000000  -0.000000
    12  C   -0.000000   0.000000   0.000009
    13  H   -0.000000  -0.000000  -0.000000
    14  H    0.000000   0.000000   0.000000
    15  H    0.000000   0.000000   0.000000
    16  C    0.049787   0.003158   0.063734
    17  C   -0.092298  -0.056515  -0.028717
    18  N    0.006858   0.012329   0.225422
    19  C   -0.088114  -0.046468  -0.043436
    20  C    0.464588   0.428613   0.017936
    21  H   -0.005399   0.000587  -0.000093
    22  H    0.003284  -0.003810  -0.000144
    23  H    0.003332  -0.003774   0.000285
    24  H   -0.006208   0.001367  -0.000848
    25  H    0.462632  -0.024609  -0.000218
    26  H   -0.024609   0.458117  -0.000081
    27  H   -0.000218  -0.000081   0.255935
 Mulliken charges:
               1
     1  C    0.002640
     2  C    0.657853
     3  C   -1.061885
     4  C   -0.104228
     5  C   -0.271496
     6  C   -0.387801
     7  H    0.229373
     8  H    0.235638
     9  H    0.234669
    10  H    0.232747
    11  O   -0.420182
    12  C   -0.369325
    13  H    0.238467
    14  H    0.238555
    15  H    0.237488
    16  C    0.668002
    17  C   -0.437694
    18  N   -0.312649
    19  C   -0.299905
    20  C   -0.412598
    21  H    0.275738
    22  H    0.300090
    23  H    0.260403
    24  H    0.258289
    25  H    0.248912
    26  H    0.245125
    27  H    0.513774
 Sum of Mulliken charges =   1.00000
 Mulliken charges with hydrogens summed into heavy atoms:
               1
     1  C    0.002640
     2  C    0.893490
     3  C   -0.827216
     4  C   -0.104228
     5  C   -0.038749
     6  C   -0.158428
    11  O   -0.420182
    12  C    0.345185
    16  C    0.668002
    17  C    0.138133
    18  N    0.201125
    19  C    0.218788
    20  C    0.081439
 Electronic spatial extent (au):  <R**2>=           3377.0903
 Charge=              1.0000 electrons
 Dipole moment (field-independent basis, Debye):
    X=             -8.6672    Y=             -1.5153    Z=             -1.5221  Tot=              8.9294
 Quadrupole moment (field-independent basis, Debye-Ang):
   XX=            -22.0056   YY=            -65.5923   ZZ=            -70.4782
   XY=             -8.7134   XZ=              3.9149   YZ=             -1.8082
 Traceless Quadrupole moment (field-independent basis, Debye-Ang):
   XX=             30.6864   YY=            -12.9003   ZZ=            -17.7862
   XY=             -8.7134   XZ=              3.9149   YZ=             -1.8082
 Octapole moment (field-independent basis, Debye-Ang**2):
  XXX=            -46.6973  YYY=              0.0860  ZZZ=            -11.0523  XYY=              0.5016
  XXY=            -41.7649  XXZ=            -19.0073  XZZ=            -27.2115  YZZ=              1.3715
  YYZ=             -0.4939  XYZ=              6.2552
 Hexadecapole moment (field-independent basis, Debye-Ang**3):
 XXXX=          -2779.5653 YYYY=           -380.3937 ZZZZ=           -239.7632 XXXY=           -140.9837
 XXXZ=             56.6360 YYYX=              3.9491 YYYZ=              0.3361 ZZZX=             26.1574
 ZZZY=            -11.0101 XXYY=           -632.7653 XXZZ=           -606.9142 YYZZ=           -116.9552
 XXYZ=            -11.0626 YYXZ=              3.3156 ZZXY=            -13.0223
 N-N= 7.511363204037D+02 E-N=-2.780216323875D+03  KE= 5.517077006232D+02
 No NMR shielding tensors so no spin-rotation constants.
 Leave Link  601 at Wed Jun 24 12:02:50 2026, MaxMem=  4026531840 cpu:               0.5 elap:               0.1
 (Enter /opt/packages/gaussian/g16RevC.01/g16/l9999.exe)
 Electronic transition elements 
                 1             2             3             4             5 
      1  -0.557334D+03 -0.557285D+03 -0.557234D+03 -0.557233D+03 -0.557225D+03
      2  -0.759545D-02  0.124664D+00 -0.105964D+01 -0.418900D+00  0.125406D+00
      3  -0.237867D-01  0.124923D-01  0.483901D+00  0.739979D+00 -0.338292D-01
      4  -0.265964D-01 -0.149826D-02 -0.663889D+00  0.685057D+00  0.174201D+00
      5  -0.186989D-03 -0.141146D-01  0.180682D+00  0.757005D-01 -0.223211D-01
      6   0.149096D-02 -0.325690D-02 -0.848160D-01 -0.129881D+00  0.767123D-02
      7  -0.119028D-02  0.284105D-02  0.113260D+00 -0.120213D+00 -0.337374D-01
      8   0.145554D+00  0.793986D-01  0.202056D+00 -0.187239D-02 -0.274765D+00
      9   0.133929D-01  0.422379D-01  0.127129D+00 -0.107670D-01  0.364142D-01
     10   0.113812D+00  0.514134D-01 -0.102916D+00  0.143300D-01 -0.248802D+00
     11  -0.419169D-03 -0.301147D-01 -0.770374D+00  0.495042D+00  0.353657D+00
     12   0.189990D-02 -0.565749D-02  0.185617D+00 -0.144859D+00 -0.926424D-01
     13   0.103859D-01  0.594873D-02 -0.175000D+00 -0.499616D-01  0.344315D-01
     14   0.110739D-01  0.250023D-01  0.275924D+00 -0.452603D+00 -0.504207D-01
     15   0.251665D-01 -0.404818D-01 -0.730463D+00 -0.212892D+00  0.988770D-01
     16  -0.268002D-02 -0.402448D-02  0.852635D-01 -0.885656D-01 -0.703224D-02
 Unable to Open any file for archive entry.
 1\1\GINC-R034\FOpt\RB3LYP TD-FC\6-31+G(d)\C11H14N1O1(1+)\ZLAB\24-Jun-2
 026\0\\#p B3LYP/6-31+G(d) Opt TD(NStates=5,Root=1,Singlets) SCRF=(SMD,
 Solvent=Methanol)\\Singlet excited-state optimization (S1)\\1,1\C,2.48
 84901779,0.1837610415,0.2190903689\C,1.7977476376,-0.8139420749,-0.535
 3787039\C,0.4256125888,-0.802973135,-0.5294329801\C,-0.320201488,0.174
 9652423,0.2072365832\C,0.3920406051,1.1565797892,0.9532356861\C,1.7632
 875627,1.1725267977,0.9646403253\H,2.3305593269,1.9104110216,1.5223944
 375\H,2.34581054,-1.5596789488,-1.0990757083\H,-0.1173297238,-1.551507
 9595,-1.0985553354\H,-0.1679666243,1.8966543215,1.5164103534\O,3.79512
 95575,0.2826678257,0.2980827854\C,4.6805580351,-0.6414552049,-0.390933
 217\H,4.5071375268,-0.5779487308,-1.4674405726\H,4.5101951531,-1.65363
 03907,-0.017574256\H,5.6829673363,-0.2996137432,-0.1393134939\C,-1.796
 5311757,0.1530445081,0.2099326841\C,-2.5972164827,-0.9834940941,0.8003
 987218\N,-2.475611788,0.6205534923,-0.918169108\C,-3.8946462414,0.2107
 090424,-0.8835414147\C,-4.0399529634,-0.5519234262,0.4478221155\H,-2.4
 409328678,-1.0948145532,1.8785556837\H,-2.3508451195,-1.951869994,0.33
 15821951\H,-4.1031858429,-0.4345524146,-1.7453006506\H,-4.5528416042,1
 .0830336898,-0.9449280125\H,-4.4202505622,0.1204608237,1.2252125083\H,
 -4.7246775199,-1.4015774062,0.3654884661\H,-2.2535965641,1.5444545204,
 -1.2734295315\\Version=ES64L-G16RevC.01\State=1-A\HF=-557.4083607\RMSD
 =6.904e-09\RMSF=1.147e-05\Dipole=2.3767405,-0.1875738,-0.5330185\PG=C0
 1 [X(C11H14N1O1)]\\@
 The archive entry for this job was punched.


 READER, WHETHER YOU BE DILETTANTE OR PROFESSOR ... SHOW YOURSELF TO BE
 MORE HUMAN THAN CRITICAL, AND THEN YOUR PLEASURE WILL INCREASE.
                                           -- DOMENICO SCARLATTI (1738)
 Job cpu time:       0 days  3 hours 34 minutes 20.4 seconds.
 Elapsed time:       0 days  0 hours 28 minutes 17.9 seconds.
 File lengths (MBytes):  RWF=    512 Int=      0 D2E=      0 Chk=     23 Scr=      1
 Normal termination of Gaussian 16 at Wed Jun 24 12:02:50 2026.
