 Entering Gaussian System, Link 0=g16
 Initial command:
 /opt/packages/gaussian/g16RevC.01/g16/l1.exe "/ocean/projects/che200051p/zlab/tmp/Gau-10393.inp" -scrdir="/ocean/projects/che200051p/zlab/tmp/"
 Entering Link 1 = /opt/packages/gaussian/g16RevC.01/g16/l1.exe PID=     10394.
  
 Copyright (c) 1988-2019, Gaussian, Inc.  All Rights Reserved.
  
 This is part of the Gaussian(R) 16 program.  It is based on
 the Gaussian(R) 09 system (copyright 2009, Gaussian, Inc.),
 the Gaussian(R) 03 system (copyright 2003, Gaussian, Inc.),
 the Gaussian(R) 98 system (copyright 1998, Gaussian, Inc.),
 the Gaussian(R) 94 system (copyright 1995, Gaussian, Inc.),
 the Gaussian 92(TM) system (copyright 1992, Gaussian, Inc.),
 the Gaussian 90(TM) system (copyright 1990, Gaussian, Inc.),
 the Gaussian 88(TM) system (copyright 1988, Gaussian, Inc.),
 the Gaussian 86(TM) system (copyright 1986, Carnegie Mellon
 University), and the Gaussian 82(TM) system (copyright 1983,
 Carnegie Mellon University). Gaussian is a federally registered
 trademark of Gaussian, Inc.
  
 This software contains proprietary and confidential information,
 including trade secrets, belonging to Gaussian, Inc.
  
 This software is provided under written license and may be
 used, copied, transmitted, or stored only in accord with that
 written license.
  
 The following legend is applicable only to US Government
 contracts under FAR:
  
                    RESTRICTED RIGHTS LEGEND
  
 Use, reproduction and disclosure by the US Government is
 subject to restrictions as set forth in subparagraphs (a)
 and (c) of the Commercial Computer Software - Restricted
 Rights clause in FAR 52.227-19.
  
 Gaussian, Inc.
 340 Quinnipiac St., Bldg. 40, Wallingford CT 06492
  
  
 ---------------------------------------------------------------
 Warning -- This program may not be used in any manner that
 competes with the business of Gaussian, Inc. or will provide
 assistance to any competitor of Gaussian, Inc.  The licensee
 of this program is prohibited from giving any competitor of
 Gaussian, Inc. access to this program.  By using this program,
 the user acknowledges that Gaussian, Inc. is engaged in the
 business of creating and licensing software in the field of
 computational chemistry and represents and warrants to the
 licensee that it is not a competitor of Gaussian, Inc. and that
 it will not use this program in any manner prohibited above.
 ---------------------------------------------------------------
  

 Cite this work as:
 Gaussian 16, Revision C.01,
 M. J. Frisch, G. W. Trucks, H. B. Schlegel, G. E. Scuseria, 
 M. A. Robb, J. R. Cheeseman, G. Scalmani, V. Barone, 
 G. A. Petersson, H. Nakatsuji, X. Li, M. Caricato, A. V. Marenich, 
 J. Bloino, B. G. Janesko, R. Gomperts, B. Mennucci, H. P. Hratchian, 
 J. V. Ortiz, A. F. Izmaylov, J. L. Sonnenberg, D. Williams-Young, 
 F. Ding, F. Lipparini, F. Egidi, J. Goings, B. Peng, A. Petrone, 
 T. Henderson, D. Ranasinghe, V. G. Zakrzewski, J. Gao, N. Rega, 
 G. Zheng, W. Liang, M. Hada, M. Ehara, K. Toyota, R. Fukuda, 
 J. Hasegawa, M. Ishida, T. Nakajima, Y. Honda, O. Kitao, H. Nakai, 
 T. Vreven, K. Throssell, J. A. Montgomery, Jr., J. E. Peralta, 
 F. Ogliaro, M. J. Bearpark, J. J. Heyd, E. N. Brothers, K. N. Kudin, 
 V. N. Staroverov, T. A. Keith, R. Kobayashi, J. Normand, 
 K. Raghavachari, A. P. Rendell, J. C. Burant, S. S. Iyengar, 
 J. Tomasi, M. Cossi, J. M. Millam, M. Klene, C. Adamo, R. Cammi, 
 J. W. Ochterski, R. L. Martin, K. Morokuma, O. Farkas, 
 J. B. Foresman, and D. J. Fox, Gaussian, Inc., Wallingford CT, 2019.
 
 ******************************************
 Gaussian 16:  ES64L-G16RevC.01  3-Jul-2019
                 7-Jul-2026 
 ******************************************
 %chk=iminium_singlet_abs_cam.chk
 %mem=30GB
 %nprocshared=8
 Will use up to    8 processors via shared memory.
 ----------------------------------------------------------------------
 #p TD(NStates=10,Root=1) CAM-B3LYP/6-31+G(d) SCRF=(SMD,Solvent=Methano
 l) Density=Current
 ----------------------------------------------------------------------
 1/30=1,38=1,172=1/1;
 2/12=2,17=6,18=5,40=1/2;
 3/5=1,6=6,7=11,11=9,25=1,30=1,70=32201,71=1,72=3,74=-40/1,2,3,8;
 4//1;
 5/5=2,38=5,53=3/2;
 8/6=1,10=2,107=1,108=10/1;
 9/8=1,15=1,41=10,42=1,70=2/14;
 10/5=4,13=10,28=1/2;
 6/7=2,8=2,9=2,10=2,22=-1/1;
 99/5=1,9=1/99;
 Leave Link    1 at Tue Jul  7 16:43:15 2026, MaxMem=  4026531840 cpu:               0.5 elap:               0.1
 (Enter /opt/packages/gaussian/g16RevC.01/g16/l101.exe)
 --------------------------------------------------
 Vertical excitation energies (absorption spectrum)
 --------------------------------------------------
 Symbolic Z-matrix:
 Charge =  1 Multiplicity = 1
 C                    -2.4875    0.26569  -0.01059 
 C                    -1.85289  -0.98715   0.03092 
 C                    -0.46409  -1.04718   0.04039 
 C                     0.32612   0.12107   0.01245 
 C                    -0.33606   1.37513  -0.02335 
 C                    -1.71465   1.44641  -0.03656 
 H                    -2.22236   2.40599  -0.06618 
 H                    -2.42573  -1.90684   0.05283 
 H                     0.00818  -2.02332   0.07211 
 H                     0.223     2.30594  -0.04042 
 O                    -3.82643   0.443    -0.02807 
 C                    -4.69004  -0.70856  -0.00576 
 H                    -4.53502  -1.28882   0.90973 
 H                    -4.52111  -1.33356  -0.8888 
 H                    -5.70382  -0.30663  -0.02379 
 C                     1.76689   0.00076   0.02605 
 C                     2.54482  -1.29043   0.08537 
 N                     2.60504   1.00588   0.02207 
 C                     4.02993   0.6353    0.1025 
 C                     3.99599  -0.86475  -0.22775 
 H                     2.155    -2.03564  -0.61219 
 H                     2.44034  -1.7019    1.0989 
 H                     4.38616   0.84655   1.11721 
 H                     4.60377   1.23791  -0.60517 
 H                     4.20755  -1.01742  -1.29075 
 H                     4.72919  -1.42755   0.35383 
 H                     2.31991   1.98236   0.03077 
 
 ITRead=  0  0  0  0  0  0  0  0  0  0  0  0  0  0  0  0  0  0  0  0
 ITRead=  0  0  0  0  0  0  0
 MicOpt= -1 -1 -1 -1 -1 -1 -1 -1 -1 -1 -1 -1 -1 -1 -1 -1 -1 -1 -1 -1
 MicOpt= -1 -1 -1 -1 -1 -1 -1
 NAtoms=     27 NQM=       27 NQMF=       0 NMMI=      0 NMMIF=      0
                NMic=       0 NMicF=      0.
                    Isotopes and Nuclear Properties:
 (Nuclear quadrupole moments (NQMom) in fm**2, nuclear magnetic moments (NMagM)
  in nuclear magnetons)

  Atom         1           2           3           4           5           6           7           8           9          10
 IAtWgt=          12          12          12          12          12          12           1           1           1           1
 AtmWgt=  12.0000000  12.0000000  12.0000000  12.0000000  12.0000000  12.0000000   1.0078250   1.0078250   1.0078250   1.0078250
 NucSpn=           0           0           0           0           0           0           1           1           1           1
 AtZEff=  -0.0000000  -0.0000000  -0.0000000  -0.0000000  -0.0000000  -0.0000000  -0.0000000  -0.0000000  -0.0000000  -0.0000000
 NQMom=    0.0000000   0.0000000   0.0000000   0.0000000   0.0000000   0.0000000   0.0000000   0.0000000   0.0000000   0.0000000
 NMagM=    0.0000000   0.0000000   0.0000000   0.0000000   0.0000000   0.0000000   2.7928460   2.7928460   2.7928460   2.7928460
 AtZNuc=   6.0000000   6.0000000   6.0000000   6.0000000   6.0000000   6.0000000   1.0000000   1.0000000   1.0000000   1.0000000

  Atom        11          12          13          14          15          16          17          18          19          20
 IAtWgt=          16          12           1           1           1          12          12          14          12          12
 AtmWgt=  15.9949146  12.0000000   1.0078250   1.0078250   1.0078250  12.0000000  12.0000000  14.0030740  12.0000000  12.0000000
 NucSpn=           0           0           1           1           1           0           0           2           0           0
 AtZEff=  -0.0000000  -0.0000000  -0.0000000  -0.0000000  -0.0000000  -0.0000000  -0.0000000  -0.0000000  -0.0000000  -0.0000000
 NQMom=    0.0000000   0.0000000   0.0000000   0.0000000   0.0000000   0.0000000   0.0000000   2.0440000   0.0000000   0.0000000
 NMagM=    0.0000000   0.0000000   2.7928460   2.7928460   2.7928460   0.0000000   0.0000000   0.4037610   0.0000000   0.0000000
 AtZNuc=   8.0000000   6.0000000   1.0000000   1.0000000   1.0000000   6.0000000   6.0000000   7.0000000   6.0000000   6.0000000

  Atom        21          22          23          24          25          26          27
 IAtWgt=           1           1           1           1           1           1           1
 AtmWgt=   1.0078250   1.0078250   1.0078250   1.0078250   1.0078250   1.0078250   1.0078250
 NucSpn=           1           1           1           1           1           1           1
 AtZEff=  -0.0000000  -0.0000000  -0.0000000  -0.0000000  -0.0000000  -0.0000000  -0.0000000
 NQMom=    0.0000000   0.0000000   0.0000000   0.0000000   0.0000000   0.0000000   0.0000000
 NMagM=    2.7928460   2.7928460   2.7928460   2.7928460   2.7928460   2.7928460   2.7928460
 AtZNuc=   1.0000000   1.0000000   1.0000000   1.0000000   1.0000000   1.0000000   1.0000000
 Leave Link  101 at Tue Jul  7 16:43:15 2026, MaxMem=  4026531840 cpu:               0.4 elap:               0.1
 (Enter /opt/packages/gaussian/g16RevC.01/g16/l202.exe)
                          Input orientation:                          
 ---------------------------------------------------------------------
 Center     Atomic      Atomic             Coordinates (Angstroms)
 Number     Number       Type             X           Y           Z
 ---------------------------------------------------------------------
      1          6           0       -2.487501    0.265690   -0.010587
      2          6           0       -1.852886   -0.987152    0.030918
      3          6           0       -0.464090   -1.047180    0.040390
      4          6           0        0.326122    0.121074    0.012445
      5          6           0       -0.336055    1.375128   -0.023348
      6          6           0       -1.714653    1.446406   -0.036564
      7          1           0       -2.222364    2.405993   -0.066176
      8          1           0       -2.425733   -1.906837    0.052829
      9          1           0        0.008180   -2.023323    0.072114
     10          1           0        0.222998    2.305942   -0.040421
     11          8           0       -3.826430    0.443003   -0.028071
     12          6           0       -4.690037   -0.708558   -0.005756
     13          1           0       -4.535018   -1.288816    0.909734
     14          1           0       -4.521107   -1.333557   -0.888797
     15          1           0       -5.703819   -0.306633   -0.023793
     16          6           0        1.766890    0.000758    0.026050
     17          6           0        2.544816   -1.290426    0.085367
     18          7           0        2.605038    1.005884    0.022069
     19          6           0        4.029927    0.635300    0.102501
     20          6           0        3.995989   -0.864752   -0.227752
     21          1           0        2.154999   -2.035644   -0.612187
     22          1           0        2.440343   -1.701901    1.098897
     23          1           0        4.386156    0.846545    1.117214
     24          1           0        4.603765    1.237905   -0.605165
     25          1           0        4.207547   -1.017421   -1.290746
     26          1           0        4.729189   -1.427546    0.353825
     27          1           0        2.319911    1.982357    0.030771
 ---------------------------------------------------------------------
                    Distance matrix (angstroms):
                    1          2          3          4          5
     1  C    0.000000
     2  C    1.405017   0.000000
     3  C    2.412554   1.390125   0.000000
     4  C    2.817431   2.444705   1.410685   0.000000
     5  C    2.420689   2.807862   2.426527   1.418595   0.000000
     6  C    1.411403   2.438415   2.790663   2.433859   1.380503
     7  H    2.157379   3.414583   3.876505   3.423714   2.150042
     8  H    2.174330   1.083722   2.141777   3.418590   3.891510
     9  H    3.387454   2.130473   1.084850   2.168660   3.417174
    10  H    3.392687   3.893437   3.423748   2.187939   1.085931
    11  O    1.350732   2.437970   3.678405   4.165209   3.612699
    12  C    2.408391   2.851032   4.239743   5.084336   4.826926
    13  H    2.730532   2.838512   4.169724   5.140389   5.059499
    14  H    2.732105   2.843462   4.171905   5.140410   5.059707
    15  H    3.266868   3.910983   5.292191   6.045199   5.625052
    16  C    4.262789   3.752168   2.464884   1.445847   2.512710
    17  C    5.268294   4.408483   3.019057   2.630637   3.926374
    18  N    5.146155   4.883171   3.692554   2.444676   2.964529
    19  C    6.528880   6.102865   4.799040   3.740416   4.430009
    20  C    6.584884   5.855871   4.471855   3.807555   4.881132
    21  H    5.216404   4.192381   2.874464   2.895926   4.264440
    22  H    5.420887   4.481435   3.159878   2.995588   4.293708
    23  H    6.989742   6.593036   5.317013   4.269742   4.886672
    24  H    7.182254   6.858850   5.596562   4.463965   4.975858
    25  H    6.936054   6.202948   4.857674   4.249699   5.289131
    26  H    7.421621   6.604690   5.216614   4.679932   5.801201
    27  H    5.104887   5.121545   4.114468   2.727619   2.725034
                    6          7          8          9         10
     6  C    0.000000
     7  H    1.086027   0.000000
     8  H    3.428974   4.319262   0.000000
     9  H    3.875433   4.961178   2.436775   0.000000
    10  H    2.119743   2.447543   4.977146   4.336052   0.000000
    11  O    2.338053   2.535312   2.736831   4.560377   4.457416
    12  C    3.673926   3.974102   2.562494   4.879335   5.764228
    13  H    4.041210   4.466809   2.359093   4.677794   6.038526
    14  H    4.041124   4.466000   2.367679   4.681193   6.039224
    15  H    4.357379   4.413691   3.648612   5.965162   6.477112
    16  C    3.770273   4.659164   4.606270   2.681807   2.775229
    17  C    5.064404   6.034276   5.008730   2.640423   4.282584
    18  N    4.342491   5.027117   5.813222   3.990272   2.714437
    19  C    5.803226   6.500381   6.938334   4.821167   4.159829
    20  C    6.163557   7.027930   6.511772   4.163511   4.931922
    21  H    5.237387   6.259998   4.630545   2.253276   4.786326
    22  H    5.335269   6.322422   4.981461   2.659514   4.719901
    23  H    6.237861   6.892375   7.424006   5.338076   4.560904
    24  H    6.347376   6.946292   7.728920   5.675713   4.544311
    25  H    6.535738   7.386683   6.826174   4.528124   5.337105
    26  H    7.066477   7.949623   7.177272   4.766785   5.865162
    27  H    4.070563   4.563017   6.135752   4.625071   2.122927
                   11         12         13         14         15
    11  O    0.000000
    12  C    1.439586   0.000000
    13  H    2.093029   1.094921   0.000000
    14  H    2.092747   1.094953   1.799141   0.000000
    15  H    2.021525   1.090698   1.789484   1.789305   0.000000
    16  C    5.611037   6.495848   6.492915   6.492784   7.477196
    17  C    6.603819   7.258786   7.127667   7.132890   8.307812
    18  N    6.456247   7.493878   7.552086   7.555435   8.412010
    19  C    7.859795   8.823573   8.815448   8.830586   9.780031
    20  C    7.933494   8.690266   8.616948   8.555564   9.717992
    21  H    6.500952   6.998817   6.901473   6.718618   8.068253
    22  H    6.718863   7.283496   6.990142   7.249027   8.338740
    23  H    8.301873   9.276674   9.175520   9.387026  10.219555
    24  H    8.487231   9.514345   9.601906   9.484522  10.438864
    25  H    8.262686   8.995199   9.019324   8.743621  10.017263
    26  H    8.766038   9.453468   9.281908   9.333859  10.499843
    27  H    6.336449   7.508777   7.646123   7.657703   8.344022
                   16         17         18         19         20
    16  C    0.000000
    17  C    1.508590   0.000000
    18  N    1.308735   2.297971   0.000000
    19  C    2.351558   2.431927   1.474487   0.000000
    20  C    2.404663   1.544391   2.344448   1.536351   0.000000
    21  H    2.169080   1.092652   3.139380   3.340670   2.215406
    22  H    2.122166   1.098849   2.918695   2.997014   2.209265
    23  H    2.960836   3.003645   2.096929   1.095977   2.211267
    24  H    3.158611   3.332951   2.107645   1.092343   2.221036
    25  H    2.954225   2.175521   2.895735   2.168911   1.094541
    26  H    3.304951   2.205075   3.247100   2.192593   1.092040
    27  H    2.057326   3.280956   1.017287   2.178041   3.313925
                   21         22         23         24         25
    21  H    0.000000
    22  H    1.766526   0.000000
    23  H    4.034340   3.206416   0.000000
    24  H    4.088108   4.028236   1.779636   0.000000
    25  H    2.389597   3.049904   3.050335   2.390294   0.000000
    26  H    2.815922   2.422647   2.423205   2.835493   1.773394
    27  H    4.072459   3.837858   2.596112   2.484877   3.782624
                   26         27
    26  H    0.000000
    27  H    4.187651   0.000000
 Stoichiometry    C11H14NO(1+)
 Framework group  C1[X(C11H14NO)]
 Deg. of freedom    75
 Full point group                 C1      NOp   1
 Largest Abelian subgroup         C1      NOp   1
 Largest concise Abelian subgroup C1      NOp   1
                         Standard orientation:                         
 ---------------------------------------------------------------------
 Center     Atomic      Atomic             Coordinates (Angstroms)
 Number     Number       Type             X           Y           Z
 ---------------------------------------------------------------------
      1          6           0       -2.487501    0.265690   -0.010587
      2          6           0       -1.852886   -0.987152    0.030918
      3          6           0       -0.464090   -1.047180    0.040390
      4          6           0        0.326122    0.121074    0.012445
      5          6           0       -0.336055    1.375128   -0.023348
      6          6           0       -1.714653    1.446406   -0.036564
      7          1           0       -2.222364    2.405993   -0.066176
      8          1           0       -2.425733   -1.906837    0.052829
      9          1           0        0.008180   -2.023323    0.072114
     10          1           0        0.222998    2.305942   -0.040421
     11          8           0       -3.826430    0.443003   -0.028071
     12          6           0       -4.690037   -0.708558   -0.005756
     13          1           0       -4.535018   -1.288816    0.909734
     14          1           0       -4.521107   -1.333557   -0.888797
     15          1           0       -5.703819   -0.306633   -0.023793
     16          6           0        1.766890    0.000758    0.026050
     17          6           0        2.544816   -1.290426    0.085367
     18          7           0        2.605038    1.005884    0.022069
     19          6           0        4.029927    0.635300    0.102501
     20          6           0        3.995989   -0.864752   -0.227752
     21          1           0        2.154999   -2.035644   -0.612187
     22          1           0        2.440343   -1.701901    1.098897
     23          1           0        4.386156    0.846545    1.117214
     24          1           0        4.603765    1.237905   -0.605165
     25          1           0        4.207547   -1.017421   -1.290746
     26          1           0        4.729189   -1.427546    0.353825
     27          1           0        2.319911    1.982357    0.030771
 ---------------------------------------------------------------------
 Rotational constants (GHZ):           2.8518045           0.3508185           0.3153499
 Leave Link  202 at Tue Jul  7 16:43:15 2026, MaxMem=  4026531840 cpu:               0.1 elap:               0.0
 (Enter /opt/packages/gaussian/g16RevC.01/g16/l301.exe)
 Standard basis: 6-31+G(d) (6D, 7F)
 Ernie: Thresh=  0.10000D-02 Tol=  0.10000D-05 Strict=F.
 There are   275 symmetry adapted cartesian basis functions of A   symmetry.
 There are   275 symmetry adapted basis functions of A   symmetry.
   275 basis functions,   472 primitive gaussians,   275 cartesian basis functions
    47 alpha electrons       47 beta electrons
       nuclear repulsion energy       754.7623879112 Hartrees.
 IExCor=20419 DFT=T Ex+Corr=CAM-B3LYP ExCW=0 ScaHFX=  1.000000
 ScaDFX=  1.000000  1.000000  1.000000  0.810000 ScalE2=  1.000000  1.000000
 IRadAn=      5 IRanWt=     -1 IRanGd=            0 ICorTp=0 IEmpDi=  4
 HFx  wShort=  0.000000 wLong=  0.330000 cFull=  0.190000 cShort=  0.000000 cLong=  0.460000
 DFx  wShort=  0.000000 wLong=  0.330000 cFull=  0.190000 cShort=  0.000000 cLong=  0.460000
 NAtoms=   27 NActive=   27 NUniq=   27 SFac= 1.00D+00 NAtFMM=   60 NAOKFM=F Big=F
 Integral buffers will be    131072 words long.
 Raffenetti 1 integral format.
 Two-electron integral symmetry is turned on.
 ------------------------------------------------------------------------------
 Polarizable Continuum Model (PCM)
 =================================
 Model                : PCM.
 Atomic radii         : SMD-Coulomb.
 Polarization charges : Total charges.
 Charge compensation  : None.
 Solution method      : On-the-fly selection.
 Cavity type          : VdW (van der Waals Surface) (Alpha=1.000).
 Cavity algorithm     : GePol (No added spheres)
                        Default sphere list used, NSphG=   27.
                        Lebedev-Laikov grids with approx.  5.0 points / Ang**2.
                        Smoothing algorithm: York/Karplus (Gamma=1.0000).
                        Polarization charges: spherical gaussians, with
                                              point-specific exponents (IZeta= 3).
                        Self-potential: point-specific (ISelfS= 7).
                        Self-field    : sphere-specific E.n sum rule (ISelfD= 2).
 1st derivatives      : Analytical E(r).r(x)/FMM algorithm (CHGder, D1EAlg=3).
                        Cavity 1st derivative terms included.
 Solvent              : Methanol, Eps=  32.613000 Eps(inf)=   1.765709
 ------------------------------------------------------------------------------
 GePol: Number of generator spheres                  =      27
 GePol: Total number of spheres                      =      27
 GePol: Number of exposed spheres                    =      27 (100.00%)
 GePol: Number of points                             =    1975
 GePol: Average weight of points                     =       0.11
 GePol: Minimum weight of points                     =   0.15D-11
 GePol: Maximum weight of points                     =    0.21991
 GePol: Number of points with low weight             =     101
 GePol: Fraction of low-weight points (<1% of avg)   =       5.11%
 GePol: Cavity surface area                          =    216.147 Ang**2
 GePol: Cavity volume                                =    192.155 Ang**3
 ------------------------------------------------------------------------------
 Atomic radii for non-electrostatic terms: SMD-CDS.
 ------------------------------------------------------------------------------
 PCM non-electrostatic energy =        -0.0004342228 Hartrees.
 Nuclear repulsion after PCM non-electrostatic terms =      754.7619536883 Hartrees.
 Leave Link  301 at Tue Jul  7 16:43:16 2026, MaxMem=  4026531840 cpu:               0.8 elap:               0.1
 (Enter /opt/packages/gaussian/g16RevC.01/g16/l302.exe)
 NPDir=0 NMtPBC=     1 NCelOv=     1 NCel=       1 NClECP=     1 NCelD=      1
         NCelK=      1 NCelE2=     1 NClLst=     1 CellRange=     0.0.
 One-electron integrals computed using PRISM.
 One-electron integral symmetry used in STVInt
 NBasis=   275 RedAO= T EigKep=  2.15D-06  NBF=   275
 NBsUse=   273 1.00D-06 EigRej=  9.11D-07 NBFU=   273
 Precomputing XC quadrature grid using
 IXCGrd= 4 IRadAn=           5 IRanWt=          -1 IRanGd=           0 AccXCQ= 0.00D+00.
 Generated NRdTot=       0 NPtTot=           0 NUsed=           0 NTot=          32
 NSgBfM=   274   274   274   274   274 MxSgAt=    27 MxSgA2=    27.
 Leave Link  302 at Tue Jul  7 16:43:17 2026, MaxMem=  4026531840 cpu:               1.8 elap:               0.3
 (Enter /opt/packages/gaussian/g16RevC.01/g16/l303.exe)
 DipDrv:  MaxL=1.
 Leave Link  303 at Tue Jul  7 16:43:17 2026, MaxMem=  4026531840 cpu:               0.2 elap:               0.1
 (Enter /opt/packages/gaussian/g16RevC.01/g16/l308.exe)
 Leave Link  308 at Tue Jul  7 16:43:17 2026, MaxMem=  4026531840 cpu:               1.2 elap:               0.2
 (Enter /opt/packages/gaussian/g16RevC.01/g16/l401.exe)
 ExpMin= 4.38D-02 ExpMax= 5.48D+03 ExpMxC= 8.25D+02 IAcc=3 IRadAn=         5 AccDes= 0.00D+00
 Harris functional with IExCor=20419 and IRadAn=       5 diagonalized for initial guess.
 HarFok:  IExCor=20419 AccDes= 0.00D+00 IRadAn=         5 IDoV= 1 UseB2=F ITyADJ=14
 ICtDFT=  3500011 ScaDFX=  1.000000  1.000000  1.000000  1.000000
 FoFCou: FMM=F IPFlag=           0 FMFlag=      100000 FMFlg1=           0
         NFxFlg=           0 DoJE=T BraDBF=F KetDBF=T FulRan=T
         wScrn=  0.000000 ICntrl=       500 IOpCl=  0 I1Cent=   200000004 NGrid=           0
         NMat0=    1 NMatS0=      1 NMatT0=    0 NMatD0=    1 NMtDS0=    0 NMtDT0=    0
 Petite list used in FoFCou.
 Harris En= -534.985839766747    
 JPrj=0 DoOrth=F DoCkMO=F.
 Leave Link  401 at Tue Jul  7 16:43:18 2026, MaxMem=  4026531840 cpu:               6.7 elap:               0.9
 (Enter /opt/packages/gaussian/g16RevC.01/g16/l502.exe)
 Integral symmetry usage will be decided dynamically.
 Closed shell SCF:
 Using DIIS extrapolation, IDIIS=  1040.
 NGot=  4026531840 LenX=  4026374748 LenY=  4026298682
 Requested convergence on RMS density matrix=1.00D-08 within 128 cycles.
 Requested convergence on MAX density matrix=1.00D-06.
 Requested convergence on             energy=1.00D-06.
 No special actions if energy rises.
 Fock matrices will be formed incrementally for  20 cycles.

 Cycle   1  Pass 1  IDiag  1:
 FoFJK:  IHMeth= 1 ICntrl=       0 DoSepK=T KAlg= 0 I1Cent=           0 FoldK=F
 IRaf=         1 NMat=       1 IRICut=       1 DoRegI=T DoRafI=F ISym2E= 0 IDoP0=0 IntGTp=1.
 FoFCou: FMM=F IPFlag=           0 FMFlag=      100000 FMFlg1=           0
         NFxFlg=           0 DoJE=T BraDBF=F KetDBF=F FulRan=T
         wScrn=  0.000000 ICntrl=       500 IOpCl=  0 I1Cent=           0 NGrid=           0
         NMat0=    1 NMatS0=      1 NMatT0=    0 NMatD0=    1 NMtDS0=    0 NMtDT0=    0
 Symmetry not used in FoFCou.
 Inv3:  Mode=1 IEnd=    11701875.
 Iteration    1 A*A^-1 deviation from unit magnitude is 3.11D-15 for   1447.
 Iteration    1 A*A^-1 deviation from orthogonality  is 1.86D-15 for    761    590.
 Iteration    1 A^-1*A deviation from unit magnitude is 3.55D-15 for   1447.
 Iteration    1 A^-1*A deviation from orthogonality  is 8.86D-14 for   1246   1218.
 E= -556.976360862528    
 DIIS: error= 4.71D-02 at cycle   1 NSaved=   1.
 NSaved= 1 IEnMin= 1 EnMin= -556.976360862528     IErMin= 1 ErrMin= 4.71D-02
 ErrMax= 4.71D-02  0.00D+00 EMaxC= 1.00D-01 BMatC= 4.89D-01 BMatP= 4.89D-01
 IDIUse=3 WtCom= 5.29D-01 WtEn= 4.71D-01
 Coeff-Com:  0.100D+01
 Coeff-En:   0.100D+01
 Coeff:      0.100D+01
 Gap=     0.270 Goal=   None    Shift=    0.000
 GapD=    0.270 DampG=1.000 DampE=0.500 DampFc=0.5000 IDamp=-1.
 Damping current iteration by 5.00D-01
 RMSDP=3.50D-02 MaxDP=3.22D+00              OVMax= 1.52D-01

 Cycle   2  Pass 1  IDiag  1:
 RMSU=  7.62D-03    CP:  8.13D-01
 E= -557.056464397630     Delta-E=       -0.080103535102 Rises=F Damp=T
 DIIS: error= 2.32D-02 at cycle   2 NSaved=   2.
 NSaved= 2 IEnMin= 2 EnMin= -557.056464397630     IErMin= 2 ErrMin= 2.32D-02
 ErrMax= 2.32D-02  0.00D+00 EMaxC= 1.00D-01 BMatC= 9.15D-02 BMatP= 4.89D-01
 IDIUse=3 WtCom= 7.68D-01 WtEn= 2.32D-01
 Coeff-Com: -0.241D+00 0.124D+01
 Coeff-En:   0.000D+00 0.100D+01
 Coeff:     -0.185D+00 0.119D+01
 Gap=     0.309 Goal=   None    Shift=    0.000
 RMSDP=2.22D-02 MaxDP=2.26D+00 DE=-8.01D-02 OVMax= 1.33D-01

 Cycle   3  Pass 1  IDiag  1:
 RMSU=  5.22D-03    CP:  5.63D-01  1.59D+00
 E= -557.130548208125     Delta-E=       -0.074083810495 Rises=F Damp=F
 DIIS: error= 7.42D-03 at cycle   3 NSaved=   3.
 NSaved= 3 IEnMin= 3 EnMin= -557.130548208125     IErMin= 3 ErrMin= 7.42D-03
 ErrMax= 7.42D-03  0.00D+00 EMaxC= 1.00D-01 BMatC= 3.29D-02 BMatP= 9.15D-02
 IDIUse=3 WtCom= 9.26D-01 WtEn= 7.42D-02
 Coeff-Com: -0.259D+00 0.552D+00 0.707D+00
 Coeff-En:   0.000D+00 0.000D+00 0.100D+01
 Coeff:     -0.240D+00 0.511D+00 0.729D+00
 Gap=     0.260 Goal=   None    Shift=    0.000
 RMSDP=2.78D-03 MaxDP=1.81D-01 DE=-7.41D-02 OVMax= 4.02D-02

 Cycle   4  Pass 1  IDiag  1:
 RMSU=  1.30D-03    CP:  5.42D-01  1.74D+00  7.61D-01
 E= -557.154602261422     Delta-E=       -0.024054053297 Rises=F Damp=F
 DIIS: error= 1.47D-03 at cycle   4 NSaved=   4.
 NSaved= 4 IEnMin= 4 EnMin= -557.154602261422     IErMin= 4 ErrMin= 1.47D-03
 ErrMax= 1.47D-03  0.00D+00 EMaxC= 1.00D-01 BMatC= 1.77D-03 BMatP= 3.29D-02
 IDIUse=3 WtCom= 9.85D-01 WtEn= 1.47D-02
 Coeff-Com: -0.117D+00 0.240D+00 0.388D+00 0.488D+00
 Coeff-En:   0.000D+00 0.000D+00 0.000D+00 0.100D+01
 Coeff:     -0.115D+00 0.237D+00 0.382D+00 0.496D+00
 Gap=     0.252 Goal=   None    Shift=    0.000
 RMSDP=6.00D-04 MaxDP=4.86D-02 DE=-2.41D-02 OVMax= 5.75D-03

 Cycle   5  Pass 1  IDiag  1:
 RMSU=  3.18D-04    CP:  5.38D-01  1.75D+00  8.08D-01  7.92D-01
 E= -557.155939139280     Delta-E=       -0.001336877858 Rises=F Damp=F
 DIIS: error= 1.54D-04 at cycle   5 NSaved=   5.
 NSaved= 5 IEnMin= 5 EnMin= -557.155939139280     IErMin= 5 ErrMin= 1.54D-04
 ErrMax= 1.54D-04  0.00D+00 EMaxC= 1.00D-01 BMatC= 1.16D-05 BMatP= 1.77D-03
 IDIUse=3 WtCom= 9.98D-01 WtEn= 1.54D-03
 Coeff-Com:  0.777D-02-0.178D-01-0.891D-02 0.171D-02 0.102D+01
 Coeff-En:   0.000D+00 0.000D+00 0.000D+00 0.000D+00 0.100D+01
 Coeff:      0.775D-02-0.177D-01-0.890D-02 0.170D-02 0.102D+01
 Gap=     0.253 Goal=   None    Shift=    0.000
 RMSDP=2.90D-04 MaxDP=2.36D-02 DE=-1.34D-03 OVMax= 2.21D-03

 Cycle   6  Pass 1  IDiag  1:
 RMSU=  8.58D-05    CP:  5.35D-01  1.76D+00  8.14D-01  8.61D-01  1.23D+00
 E= -557.155958433365     Delta-E=       -0.000019294085 Rises=F Damp=F
 DIIS: error= 6.99D-05 at cycle   6 NSaved=   6.
 NSaved= 6 IEnMin= 6 EnMin= -557.155958433365     IErMin= 6 ErrMin= 6.99D-05
 ErrMax= 6.99D-05  0.00D+00 EMaxC= 1.00D-01 BMatC= 2.82D-06 BMatP= 1.16D-05
 IDIUse=1 WtCom= 1.00D+00 WtEn= 0.00D+00
 Coeff-Com:  0.117D-01-0.245D-01-0.319D-01-0.434D-01 0.379D+00 0.709D+00
 Coeff:      0.117D-01-0.245D-01-0.319D-01-0.434D-01 0.379D+00 0.709D+00
 Gap=     0.253 Goal=   None    Shift=    0.000
 RMSDP=7.47D-05 MaxDP=4.95D-03 DE=-1.93D-05 OVMax= 6.48D-04

 Cycle   7  Pass 1  IDiag  1:
 RMSU=  2.50D-05    CP:  5.34D-01  1.76D+00  8.16D-01  8.71D-01  1.34D+00
                    CP:  1.01D+00
 E= -557.155961815402     Delta-E=       -0.000003382037 Rises=F Damp=F
 DIIS: error= 1.98D-05 at cycle   7 NSaved=   7.
 NSaved= 7 IEnMin= 7 EnMin= -557.155961815402     IErMin= 7 ErrMin= 1.98D-05
 ErrMax= 1.98D-05  0.00D+00 EMaxC= 1.00D-01 BMatC= 1.77D-07 BMatP= 2.82D-06
 IDIUse=1 WtCom= 1.00D+00 WtEn= 0.00D+00
 Coeff-Com:  0.182D-02-0.363D-02-0.617D-02-0.119D-01-0.179D-01 0.182D+00
 Coeff-Com:  0.855D+00
 Coeff:      0.182D-02-0.363D-02-0.617D-02-0.119D-01-0.179D-01 0.182D+00
 Coeff:      0.855D+00
 Gap=     0.253 Goal=   None    Shift=    0.000
 RMSDP=1.08D-05 MaxDP=7.93D-04 DE=-3.38D-06 OVMax= 4.16D-04

 Cycle   8  Pass 1  IDiag  1:
 RMSU=  6.60D-06    CP:  5.34D-01  1.76D+00  8.16D-01  8.71D-01  1.35D+00
                    CP:  1.04D+00  9.90D-01
 E= -557.155962145741     Delta-E=       -0.000000330339 Rises=F Damp=F
 DIIS: error= 6.33D-06 at cycle   8 NSaved=   8.
 NSaved= 8 IEnMin= 8 EnMin= -557.155962145741     IErMin= 8 ErrMin= 6.33D-06
 ErrMax= 6.33D-06  0.00D+00 EMaxC= 1.00D-01 BMatC= 2.27D-08 BMatP= 1.77D-07
 IDIUse=1 WtCom= 1.00D+00 WtEn= 0.00D+00
 Coeff-Com: -0.577D-03 0.126D-02 0.134D-02 0.271D-03-0.369D-01-0.961D-02
 Coeff-Com:  0.262D+00 0.782D+00
 Coeff:     -0.577D-03 0.126D-02 0.134D-02 0.271D-03-0.369D-01-0.961D-02
 Coeff:      0.262D+00 0.782D+00
 Gap=     0.253 Goal=   None    Shift=    0.000
 RMSDP=5.67D-06 MaxDP=3.48D-04 DE=-3.30D-07 OVMax= 8.78D-05

 Cycle   9  Pass 1  IDiag  1:
 RMSU=  3.35D-06    CP:  5.34D-01  1.76D+00  8.16D-01  8.70D-01  1.35D+00
                    CP:  1.03D+00  1.10D+00  1.10D+00
 E= -557.155962182780     Delta-E=       -0.000000037038 Rises=F Damp=F
 DIIS: error= 3.75D-06 at cycle   9 NSaved=   9.
 NSaved= 9 IEnMin= 9 EnMin= -557.155962182780     IErMin= 9 ErrMin= 3.75D-06
 ErrMax= 3.75D-06  0.00D+00 EMaxC= 1.00D-01 BMatC= 3.76D-09 BMatP= 2.27D-08
 IDIUse=1 WtCom= 1.00D+00 WtEn= 0.00D+00
 Coeff-Com: -0.501D-03 0.105D-02 0.147D-02 0.171D-02-0.127D-01-0.357D-01
 Coeff-Com: -0.192D-01 0.291D+00 0.773D+00
 Coeff:     -0.501D-03 0.105D-02 0.147D-02 0.171D-02-0.127D-01-0.357D-01
 Coeff:     -0.192D-01 0.291D+00 0.773D+00
 Gap=     0.253 Goal=   None    Shift=    0.000
 RMSDP=2.34D-06 MaxDP=1.37D-04 DE=-3.70D-08 OVMax= 7.55D-05

 Cycle  10  Pass 1  IDiag  1:
 RMSU=  1.03D-06    CP:  5.34D-01  1.76D+00  8.16D-01  8.69D-01  1.35D+00
                    CP:  1.02D+00  1.12D+00  1.27D+00  1.21D+00
 E= -557.155962190276     Delta-E=       -0.000000007496 Rises=F Damp=F
 DIIS: error= 1.17D-06 at cycle  10 NSaved=  10.
 NSaved=10 IEnMin=10 EnMin= -557.155962190276     IErMin=10 ErrMin= 1.17D-06
 ErrMax= 1.17D-06  0.00D+00 EMaxC= 1.00D-01 BMatC= 6.48D-10 BMatP= 3.76D-09
 IDIUse=1 WtCom= 1.00D+00 WtEn= 0.00D+00
 Coeff-Com: -0.671D-04 0.137D-03 0.236D-03 0.316D-03 0.681D-04-0.111D-01
 Coeff-Com: -0.228D-01 0.378D-03 0.290D+00 0.743D+00
 Coeff:     -0.671D-04 0.137D-03 0.236D-03 0.316D-03 0.681D-04-0.111D-01
 Coeff:     -0.228D-01 0.378D-03 0.290D+00 0.743D+00
 Gap=     0.253 Goal=   None    Shift=    0.000
 RMSDP=6.29D-07 MaxDP=2.44D-05 DE=-7.50D-09 OVMax= 1.91D-05

 Cycle  11  Pass 1  IDiag  1:
 RMSU=  4.14D-07    CP:  5.34D-01  1.76D+00  8.16D-01  8.69D-01  1.35D+00
                    CP:  1.02D+00  1.14D+00  1.29D+00  1.26D+00  9.59D-01
 E= -557.155962191312     Delta-E=       -0.000000001036 Rises=F Damp=F
 DIIS: error= 4.18D-07 at cycle  11 NSaved=  11.
 NSaved=11 IEnMin=11 EnMin= -557.155962191312     IErMin=11 ErrMin= 4.18D-07
 ErrMax= 4.18D-07  0.00D+00 EMaxC= 1.00D-01 BMatC= 8.94D-11 BMatP= 6.48D-10
 IDIUse=1 WtCom= 1.00D+00 WtEn= 0.00D+00
 Coeff-Com:  0.584D-04-0.125D-03-0.155D-03-0.156D-03 0.240D-02 0.142D-02
 Coeff-Com: -0.264D-02-0.683D-01-0.339D-01 0.233D+00 0.868D+00
 Coeff:      0.584D-04-0.125D-03-0.155D-03-0.156D-03 0.240D-02 0.142D-02
 Coeff:     -0.264D-02-0.683D-01-0.339D-01 0.233D+00 0.868D+00
 Gap=     0.253 Goal=   None    Shift=    0.000
 RMSDP=3.95D-07 MaxDP=1.65D-05 DE=-1.04D-09 OVMax= 1.36D-05

 Cycle  12  Pass 1  IDiag  1:
 RMSU=  1.49D-07    CP:  5.34D-01  1.76D+00  8.16D-01  8.69D-01  1.35D+00
                    CP:  1.02D+00  1.14D+00  1.31D+00  1.31D+00  1.02D+00
                    CP:  1.23D+00
 E= -557.155962191548     Delta-E=       -0.000000000236 Rises=F Damp=F
 DIIS: error= 2.19D-07 at cycle  12 NSaved=  12.
 NSaved=12 IEnMin=12 EnMin= -557.155962191548     IErMin=12 ErrMin= 2.19D-07
 ErrMax= 2.19D-07  0.00D+00 EMaxC= 1.00D-01 BMatC= 1.65D-11 BMatP= 8.94D-11
 IDIUse=1 WtCom= 1.00D+00 WtEn= 0.00D+00
 Coeff-Com:  0.302D-04-0.638D-04-0.896D-04-0.925D-04 0.905D-03 0.173D-02
 Coeff-Com:  0.369D-02-0.272D-01-0.421D-01-0.725D-02 0.325D+00 0.745D+00
 Coeff:      0.302D-04-0.638D-04-0.896D-04-0.925D-04 0.905D-03 0.173D-02
 Coeff:      0.369D-02-0.272D-01-0.421D-01-0.725D-02 0.325D+00 0.745D+00
 Gap=     0.253 Goal=   None    Shift=    0.000
 RMSDP=1.10D-07 MaxDP=6.43D-06 DE=-2.36D-10 OVMax= 4.01D-06

 Cycle  13  Pass 1  IDiag  1:
 RMSU=  5.62D-08    CP:  5.34D-01  1.76D+00  8.16D-01  8.69D-01  1.35D+00
                    CP:  1.02D+00  1.14D+00  1.31D+00  1.32D+00  1.05D+00
                    CP:  1.31D+00  1.01D+00
 E= -557.155962191575     Delta-E=       -0.000000000028 Rises=F Damp=F
 DIIS: error= 1.21D-07 at cycle  13 NSaved=  13.
 NSaved=13 IEnMin=13 EnMin= -557.155962191575     IErMin=13 ErrMin= 1.21D-07
 ErrMax= 1.21D-07  0.00D+00 EMaxC= 1.00D-01 BMatC= 2.60D-12 BMatP= 1.65D-11
 IDIUse=1 WtCom= 1.00D+00 WtEn= 0.00D+00
 Coeff-Com: -0.341D-05 0.770D-05 0.537D-05 0.122D-04-0.195D-03 0.159D-03
 Coeff-Com:  0.220D-02 0.315D-02-0.767D-02-0.582D-01-0.759D-01 0.263D+00
 Coeff-Com:  0.873D+00
 Coeff:     -0.341D-05 0.770D-05 0.537D-05 0.122D-04-0.195D-03 0.159D-03
 Coeff:      0.220D-02 0.315D-02-0.767D-02-0.582D-01-0.759D-01 0.263D+00
 Coeff:      0.873D+00
 Gap=     0.253 Goal=   None    Shift=    0.000
 RMSDP=5.68D-08 MaxDP=2.99D-06 DE=-2.75D-11 OVMax= 2.18D-06

 Cycle  14  Pass 1  IDiag  1:
 RMSU=  2.61D-08    CP:  5.34D-01  1.76D+00  8.16D-01  8.69D-01  1.35D+00
                    CP:  1.02D+00  1.15D+00  1.31D+00  1.32D+00  1.05D+00
                    CP:  1.36D+00  1.10D+00  1.16D+00
 E= -557.155962191583     Delta-E=       -0.000000000007 Rises=F Damp=F
 DIIS: error= 1.86D-08 at cycle  14 NSaved=  14.
 NSaved=14 IEnMin=14 EnMin= -557.155962191583     IErMin=14 ErrMin= 1.86D-08
 ErrMax= 1.86D-08  0.00D+00 EMaxC= 1.00D-01 BMatC= 1.87D-13 BMatP= 2.60D-12
 IDIUse=1 WtCom= 1.00D+00 WtEn= 0.00D+00
 Coeff-Com: -0.232D-05 0.505D-05 0.583D-05 0.622D-05-0.101D-03-0.893D-04
 Coeff-Com:  0.371D-03 0.245D-02 0.102D-02-0.148D-01-0.404D-01-0.728D-02
 Coeff-Com:  0.242D+00 0.817D+00
 Coeff:     -0.232D-05 0.505D-05 0.583D-05 0.622D-05-0.101D-03-0.893D-04
 Coeff:      0.371D-03 0.245D-02 0.102D-02-0.148D-01-0.404D-01-0.728D-02
 Coeff:      0.242D+00 0.817D+00
 Gap=     0.253 Goal=   None    Shift=    0.000
 RMSDP=1.52D-08 MaxDP=8.81D-07 DE=-7.28D-12 OVMax= 3.81D-07

 Cycle  15  Pass 1  IDiag  1:
 RMSU=  4.89D-09    CP:  5.34D-01  1.76D+00  8.16D-01  8.69D-01  1.35D+00
                    CP:  1.02D+00  1.15D+00  1.31D+00  1.32D+00  1.05D+00
                    CP:  1.36D+00  1.11D+00  1.26D+00  1.13D+00
 E= -557.155962191588     Delta-E=       -0.000000000005 Rises=F Damp=F
 DIIS: error= 1.18D-08 at cycle  15 NSaved=  15.
 NSaved=15 IEnMin=15 EnMin= -557.155962191588     IErMin=15 ErrMin= 1.18D-08
 ErrMax= 1.18D-08  0.00D+00 EMaxC= 1.00D-01 BMatC= 2.39D-14 BMatP= 1.87D-13
 IDIUse=1 WtCom= 1.00D+00 WtEn= 0.00D+00
 Coeff-Com: -0.643D-06 0.133D-05 0.220D-05 0.120D-05-0.163D-04-0.771D-04
 Coeff-Com: -0.151D-03 0.590D-03 0.170D-02 0.266D-02-0.385D-02-0.428D-01
 Coeff-Com: -0.115D-01 0.308D+00 0.745D+00
 Coeff:     -0.643D-06 0.133D-05 0.220D-05 0.120D-05-0.163D-04-0.771D-04
 Coeff:     -0.151D-03 0.590D-03 0.170D-02 0.266D-02-0.385D-02-0.428D-01
 Coeff:     -0.115D-01 0.308D+00 0.745D+00
 Gap=     0.253 Goal=   None    Shift=    0.000
 RMSDP=5.47D-09 MaxDP=1.73D-07 DE=-5.46D-12 OVMax= 1.18D-07

 Error on total polarization charges =  0.05329
 SCF Done:  E(RCAM-B3LYP) =  -557.155962192     A.U. after   15 cycles
            NFock= 15  Conv=0.55D-08     -V/T= 2.0098
 KE= 5.517555496091D+02 PE=-2.787105240046D+03 EE= 9.234317745574D+02
 SMD-CDS (non-electrostatic) energy       (kcal/mol) =      -0.27
 (included in total energy above)
 Leave Link  502 at Tue Jul  7 16:43:59 2026, MaxMem=  4026531840 cpu:             319.6 elap:              40.8
 (Enter /opt/packages/gaussian/g16RevC.01/g16/l801.exe)
 DoSCS=F DFT=T ScalE2(SS,OS)=  1.000000  1.000000
 ExpMin= 4.38D-02 ExpMax= 5.48D+03 ExpMxC= 8.25D+02 IAcc=3 IRadAn=         5 AccDes= 0.00D+00
 HarFok:  IExCor=  205 AccDes= 0.00D+00 IRadAn=         5 IDoV=-2 UseB2=F ITyADJ=14
 ICtDFT= 12500011 ScaDFX=  1.000000  1.000000  1.000000  1.000000
 Largest valence mixing into a core orbital is  5.35D-05
 Largest core mixing into a valence orbital is  1.09D-05
 Range of M.O.s used for correlation:    14   273
 NBasis=   275 NAE=    47 NBE=    47 NFC=    13 NFV=     0
 NROrb=    260 NOA=    34 NOB=    34 NVA=   226 NVB=   226

 **** Warning!!: The largest alpha MO coefficient is  0.12871685D+03

 Leave Link  801 at Tue Jul  7 16:44:00 2026, MaxMem=  4026531840 cpu:               0.9 elap:               0.2
 (Enter /opt/packages/gaussian/g16RevC.01/g16/l914.exe)
 RHF ground state
 Two-electron integrals replicated using symmetry.
 MDV=  4026531840 DFT=T DoStab=F Mixed=T DoRPA=T DoScal=F NonHer=T
 NEqPCM:  Using equilibrium solvation (IEInf=0, Eps=  32.6130, EpsInf=   1.7657)
 Making orbital integer symmetry assigments:
 Orbital symmetries:
       Occupied  (A) (A) (A) (A) (A) (A) (A) (A) (A) (A) (A) (A)
                 (A) (A) (A) (A) (A) (A) (A) (A) (A) (A) (A) (A)
                 (A) (A) (A) (A) (A) (A) (A) (A) (A) (A) (A) (A)
                 (A) (A) (A) (A) (A) (A) (A) (A) (A) (A) (A)
       Virtual   (A) (A) (A) (A) (A) (A) (A) (A) (A) (A) (A) (A)
                 (A) (A) (A) (A) (A) (A) (A) (A) (A) (A) (A) (A)
                 (A) (A) (A) (A) (A) (A) (A) (A) (A) (A) (A) (A)
                 (A) (A) (A) (A) (A) (A) (A) (A) (A) (A) (A) (A)
                 (A) (A) (A) (A) (A) (A) (A) (A) (A) (A) (A) (A)
                 (A) (A) (A) (A) (A) (A) (A) (A) (A) (A) (A) (A)
                 (A) (A) (A) (A) (A) (A) (A) (A) (A) (A) (A) (A)
                 (A) (A) (A) (A) (A) (A) (A) (A) (A) (A) (A) (A)
                 (A) (A) (A) (A) (A) (A) (A) (A) (A) (A) (A) (A)
                 (A) (A) (A) (A) (A) (A) (A) (A) (A) (A) (A) (A)
                 (A) (A) (A) (A) (A) (A) (A) (A) (A) (A) (A) (A)
                 (A) (A) (A) (A) (A) (A) (A) (A) (A) (A) (A) (A)
                 (A) (A) (A) (A) (A) (A) (A) (A) (A) (A) (A) (A)
                 (A) (A) (A) (A) (A) (A) (A) (A) (A) (A) (A) (A)
                 (A) (A) (A) (A) (A) (A) (A) (A) (A) (A) (A) (A)
                 (A) (A) (A) (A) (A) (A) (A) (A) (A) (A) (A) (A)
                 (A) (A) (A) (A) (A) (A) (A) (A) (A) (A) (A) (A)
                 (A) (A) (A) (A) (A) (A) (A) (A) (A) (A) (A) (A)
                 (A) (A) (A) (A) (A) (A) (A) (A) (A) (A)
    40 initial guesses have been made.
 Convergence on wavefunction:    0.000001000000000
 Davidson Disk Diagonalization:  ConvIn= 1.00D-06 SkipCon=T Conv= 1.00D-06.
 Max sub-space:  2000 roots to seek:    40 dimension of matrix:        15368
 Iteration     1 Dimension    40 NMult     0 NNew     40
 CISAX will form    40 AO SS matrices at one time.
 NMat=    40 NSing=    40 JSym2X= 0.
 FoFJK:  IHMeth= 1 ICntrl=       0 DoSepK=T KAlg= 0 I1Cent=           0 FoldK=F
 IRaf=         1 NMat=      80 IRICut=       1 DoRegI=T DoRafI=F ISym2E= 0 IDoP0=0 IntGTp=1.
 FoFCou: FMM=F IPFlag=           0 FMFlag=      100000 FMFlg1=           0
         NFxFlg=           0 DoJE=F BraDBF=F KetDBF=F FulRan=T
         wScrn=  0.000000 ICntrl=       500 IOpCl=  0 I1Cent=           0 NGrid=           0
         NMat0=   40 NMatS0=     40 NMatT0=    0 NMatD0=   40 NMtDS0=    0 NMtDT0=    0
 Symmetry not used in FoFCou.
 New state      6 was old state     12
 New state      7 was old state      8
 New state      8 was old state      6
 New state      9 was old state      7
 New state     10 was old state     22
 Excitation Energies [eV] at current iteration:
 Root      1 :     4.710552156968127
 Root      2 :     4.978751526279457
 Root      3 :     6.030261906926977
 Root      4 :     6.634606645175817
 Root      5 :     6.797123714466384
 Root      6 :     6.834467222034011
 Root      7 :     7.080852691871767
 Root      8 :     7.149495206431869
 Root      9 :     7.298217983449945
 Root     10 :     7.471858796230445
 Root     11 :     7.483432543652012
 Root     12 :     7.530359416551778
 Root     13 :     7.544863218465489
 Root     14 :     7.689091093877886
 Root     15 :     7.743495846548907
 Root     16 :     7.813046662035863
 Root     17 :     7.872063736928602
 Root     18 :     7.938080728345389
 Root     19 :     7.953832273859224
 Root     20 :     8.126224781508379
 Root     21 :     8.175679892372806
 Root     22 :     8.279965120565203
 Root     23 :     8.285176710095568
 Root     24 :     8.367163539760545
 Root     25 :     8.430198367513407
 Root     26 :     8.450598895126037
 Root     27 :     8.618972177712241
 Root     28 :     8.674327616927561
 Root     29 :     8.833784141505603
 Root     30 :     8.915287010058224
 Root     31 :     8.963816715364384
 Root     32 :     9.005983530165578
 Root     33 :     9.017880817852403
 Root     34 :     9.048991593571776
 Root     35 :     9.103914805446392
 Root     36 :     9.149442226767308
 Root     37 :     9.316292898948232
 Root     38 :     9.338721709859170
 Root     39 :     9.436163011792051
 Root     40 :     9.490619372610347
 Iteration     2 Dimension    60 NMult    40 NNew     20
 CISAX will form    20 AO SS matrices at one time.
 NMat=    20 NSing=    20 JSym2X= 0.
 Root      1 not converged, maximum delta is    0.039727474650209
 Root      2 not converged, maximum delta is    0.050509176175163
 Root      3 not converged, maximum delta is    0.067524486886060
 New state      4 was old state      5
 Root      4 not converged, maximum delta is    0.280401193560699
 New state      5 was old state      4
 Root      5 not converged, maximum delta is    0.379580602416090
 New state      6 was old state      7
 Root      6 not converged, maximum delta is    0.438654074548896
 New state      7 was old state      6
 Root      7 not converged, maximum delta is    0.262333638112143
 Root      8 not converged, maximum delta is    0.066958713217909
 Root      9 not converged, maximum delta is    0.329173729151982
 Root     10 not converged, maximum delta is    0.342156465143017
 Excitation Energies [eV] at current iteration:
 Root      1 :     4.131916488588653   Change is   -0.578635668379475
 Root      2 :     4.739700922562138   Change is   -0.239050603717319
 Root      3 :     5.578967402234722   Change is   -0.451294504692256
 Root      4 :     6.310232956996781   Change is   -0.486890757469603
 Root      5 :     6.503578103506911   Change is   -0.131028541668905
 Root      6 :     6.513915875765089   Change is   -0.566936816106678
 Root      7 :     6.605270601150505   Change is   -0.229196620883506
 Root      8 :     7.001286100740152   Change is   -0.148209105691717
 Root      9 :     7.162524591197664   Change is   -0.135693392252281
 Root     10 :     7.174994715370497   Change is   -0.296864080859949
 Iteration     3 Dimension    80 NMult    60 NNew     20
 CISAX will form    20 AO SS matrices at one time.
 NMat=    20 NSing=    20 JSym2X= 0.
 Root      1 not converged, maximum delta is    0.006769056412993
 Root      2 not converged, maximum delta is    0.004282808799527
 Root      3 not converged, maximum delta is    0.011314433348829
 Root      4 not converged, maximum delta is    0.037109116052328
 Root      5 not converged, maximum delta is    0.341274306615531
 Root      6 not converged, maximum delta is    0.292020035494447
 Root      7 not converged, maximum delta is    0.009990270276099
 New state      8 was old state      9
 Root      8 not converged, maximum delta is    0.279395331346106
 New state      9 was old state      8
 Root      9 not converged, maximum delta is    0.053194670903106
 Root     10 not converged, maximum delta is    0.271364566548962
 Excitation Energies [eV] at current iteration:
 Root      1 :     4.112804510573798   Change is   -0.019111978014855
 Root      2 :     4.730469644755679   Change is   -0.009231277806459
 Root      3 :     5.567668326173717   Change is   -0.011299076061005
 Root      4 :     6.283833539535570   Change is   -0.026399417461210
 Root      5 :     6.451606305466258   Change is   -0.051971798040652
 Root      6 :     6.506721345786657   Change is   -0.007194529978432
 Root      7 :     6.594734390146090   Change is   -0.010536211004416
 Root      8 :     6.939721475383195   Change is   -0.222803115814470
 Root      9 :     6.994206545010051   Change is   -0.007079555730100
 Root     10 :     7.162926141500189   Change is   -0.012068573870308
 Iteration     4 Dimension   100 NMult    80 NNew     20
 CISAX will form    20 AO SS matrices at one time.
 NMat=    20 NSing=    20 JSym2X= 0.
 Root      1 not converged, maximum delta is    0.001217843773134
 Root      2 not converged, maximum delta is    0.001022154312712
 Root      3 not converged, maximum delta is    0.001863981671777
 Root      4 not converged, maximum delta is    0.003567839543617
 Root      5 not converged, maximum delta is    0.014489856369395
 Root      6 not converged, maximum delta is    0.006160117991061
 Root      7 not converged, maximum delta is    0.005200190274910
 Root      8 not converged, maximum delta is    0.037010371429112
 Root      9 not converged, maximum delta is    0.020523129831345
 Root     10 not converged, maximum delta is    0.016446579307648
 Excitation Energies [eV] at current iteration:
 Root      1 :     4.111309745652164   Change is   -0.001494764921634
 Root      2 :     4.730138585610582   Change is   -0.000331059145098
 Root      3 :     5.567027421621345   Change is   -0.000640904552372
 Root      4 :     6.280794853315113   Change is   -0.003038686220458
 Root      5 :     6.443329848059949   Change is   -0.008276457406310
 Root      6 :     6.506487128608632   Change is   -0.000234217178024
 Root      7 :     6.593694202945042   Change is   -0.001040187201047
 Root      8 :     6.898970998412538   Change is   -0.040750476970657
 Root      9 :     6.993328136260446   Change is   -0.000878408749605
 Root     10 :     7.162178756228044   Change is   -0.000747385272146
 Iteration     5 Dimension   120 NMult   100 NNew     20
 CISAX will form    20 AO SS matrices at one time.
 NMat=    20 NSing=    20 JSym2X= 0.
 Root      1 not converged, maximum delta is    0.000154764517783
 Root      2 not converged, maximum delta is    0.000159332374202
 Root      3 not converged, maximum delta is    0.000563224304894
 Root      4 not converged, maximum delta is    0.000718056960802
 Root      5 not converged, maximum delta is    0.002975217529526
 Root      6 not converged, maximum delta is    0.000505706378880
 Root      7 not converged, maximum delta is    0.002542327163015
 Root      8 not converged, maximum delta is    0.008599170403627
 Root      9 not converged, maximum delta is    0.000942078811439
 Root     10 not converged, maximum delta is    0.013249086634042
 Excitation Energies [eV] at current iteration:
 Root      1 :     4.111258273929742   Change is   -0.000051471722422
 Root      2 :     4.730127608405528   Change is   -0.000010977205054
 Root      3 :     5.566982909846367   Change is   -0.000044511774978
 Root      4 :     6.280580258907441   Change is   -0.000214594407672
 Root      5 :     6.442634597590628   Change is   -0.000695250469321
 Root      6 :     6.506473124762405   Change is   -0.000014003846228
 Root      7 :     6.593558603576953   Change is   -0.000135599368089
 Root      8 :     6.895129387470044   Change is   -0.003841610942493
 Root      9 :     6.993254831230885   Change is   -0.000073305029561
 Root     10 :     7.162004318967373   Change is   -0.000174437260670
 Iteration     6 Dimension   140 NMult   120 NNew     20
 CISAX will form    20 AO SS matrices at one time.
 NMat=    20 NSing=    20 JSym2X= 0.
 Root      1 not converged, maximum delta is    0.000038329288278
 Root      2 not converged, maximum delta is    0.000021813618873
 Root      3 not converged, maximum delta is    0.000061064938063
 Root      4 not converged, maximum delta is    0.000136477412922
 Root      5 not converged, maximum delta is    0.000686032990746
 Root      6 not converged, maximum delta is    0.000065286186634
 Root      7 not converged, maximum delta is    0.000584119763281
 Root      8 not converged, maximum delta is    0.004280827976731
 Root      9 not converged, maximum delta is    0.000483544606792
 Root     10 not converged, maximum delta is    0.020944862527899
 Excitation Energies [eV] at current iteration:
 Root      1 :     4.111256848282136   Change is   -0.000001425647606
 Root      2 :     4.730127265644234   Change is   -0.000000342761294
 Root      3 :     5.566981201490845   Change is   -0.000001708355522
 Root      4 :     6.280570754662400   Change is   -0.000009504245041
 Root      5 :     6.442584482002648   Change is   -0.000050115587980
 Root      6 :     6.506472291408833   Change is   -0.000000833353572
 Root      7 :     6.593543637725233   Change is   -0.000014965851720
 Root      8 :     6.894660728046070   Change is   -0.000468659423975
 Root      9 :     6.993247457009089   Change is   -0.000007374221797
 Root     10 :     7.161881352266651   Change is   -0.000122966700722
 Iteration     7 Dimension   160 NMult   140 NNew     20
 CISAX will form    20 AO SS matrices at one time.
 NMat=    20 NSing=    20 JSym2X= 0.
 Root      1 not converged, maximum delta is    0.000004994861688
 Root      2 not converged, maximum delta is    0.000004026982874
 Root      3 not converged, maximum delta is    0.000012510981233
 Root      4 not converged, maximum delta is    0.000031935712324
 Root      5 not converged, maximum delta is    0.000105000759423
 Root      6 not converged, maximum delta is    0.000014444705998
 Root      7 not converged, maximum delta is    0.000275147377252
 Root      8 not converged, maximum delta is    0.000742041160431
 Root      9 not converged, maximum delta is    0.000335812966409
 Root     10 not converged, maximum delta is    0.010138571902398
 Excitation Energies [eV] at current iteration:
 Root      1 :     4.111256812026847   Change is   -0.000000036255289
 Root      2 :     4.730127257184526   Change is   -0.000000008459708
 Root      3 :     5.566981131114152   Change is   -0.000000070376694
 Root      4 :     6.280570322447978   Change is   -0.000000432214423
 Root      5 :     6.442581690969387   Change is   -0.000002791033261
 Root      6 :     6.506472243561871   Change is   -0.000000047846962
 Root      7 :     6.593542284864154   Change is   -0.000001352861079
 Root      8 :     6.894620795373839   Change is   -0.000039932672231
 Root      9 :     6.993246418699667   Change is   -0.000001038309421
 Root     10 :     7.161835607698309   Change is   -0.000045744568342
 Iteration     8 Dimension   180 NMult   160 NNew     20
 CISAX will form    20 AO SS matrices at one time.
 NMat=    20 NSing=    20 JSym2X= 0.
 Root      1 not converged, maximum delta is    0.000001099995207
 Root      2 has converged.
 Root      3 not converged, maximum delta is    0.000001678590621
 Root      4 not converged, maximum delta is    0.000006863038966
 Root      5 not converged, maximum delta is    0.000031568681761
 Root      6 not converged, maximum delta is    0.000006464365973
 Root      7 not converged, maximum delta is    0.000068536851222
 Root      8 not converged, maximum delta is    0.000283724790730
 Root      9 not converged, maximum delta is    0.000114680882780
 Root     10 not converged, maximum delta is    0.001007173969579
 Excitation Energies [eV] at current iteration:
 Root      1 :     4.111256811125660   Change is   -0.000000000901187
 Root      2 :     4.730127256917089   Change is   -0.000000000267437
 Root      3 :     5.566981128193301   Change is   -0.000000002920850
 Root      4 :     6.280570298792322   Change is   -0.000000023655656
 Root      5 :     6.442581538582483   Change is   -0.000000152386904
 Root      6 :     6.506472240279443   Change is   -0.000000003282427
 Root      7 :     6.593542157897563   Change is   -0.000000126966592
 Root      8 :     6.894617602274111   Change is   -0.000003193099728
 Root      9 :     6.993246251029033   Change is   -0.000000167670634
 Root     10 :     7.161831332485699   Change is   -0.000004275212610
 Iteration     9 Dimension   198 NMult   180 NNew     18
 CISAX will form    18 AO SS matrices at one time.
 NMat=    18 NSing=    18 JSym2X= 0.
 Root      1 has converged.
 Root      2 has converged.
 Root      3 has converged.
 Root      4 not converged, maximum delta is    0.000001770634578
 Root      5 not converged, maximum delta is    0.000004259563721
 Root      6 not converged, maximum delta is    0.000001204938026
 Root      7 not converged, maximum delta is    0.000010326550630
 Root      8 not converged, maximum delta is    0.000047070053922
 Root      9 not converged, maximum delta is    0.000018234580892
 Root     10 not converged, maximum delta is    0.000112317573835
 Excitation Energies [eV] at current iteration:
 Root      1 :     4.111256811102505   Change is   -0.000000000023155
 Root      2 :     4.730127256915039   Change is   -0.000000000002051
 Root      3 :     5.566981128083582   Change is   -0.000000000109718
 Root      4 :     6.280570297425929   Change is   -0.000000001366392
 Root      5 :     6.442581529894028   Change is   -0.000000008688456
 Root      6 :     6.506472240072285   Change is   -0.000000000207159
 Root      7 :     6.593542148506229   Change is   -0.000000009391333
 Root      8 :     6.894617375671241   Change is   -0.000000226602870
 Root      9 :     6.993246235099193   Change is   -0.000000015929841
 Root     10 :     7.161831010066902   Change is   -0.000000322418797
 Iteration    10 Dimension   212 NMult   198 NNew     14
 CISAX will form    14 AO SS matrices at one time.
 NMat=    14 NSing=    14 JSym2X= 0.
 Root      1 has converged.
 Root      2 has converged.
 Root      3 has converged.
 Root      4 has converged.
 Root      5 has converged.
 Root      6 has converged.
 Root      7 not converged, maximum delta is    0.000001861426544
 Root      8 not converged, maximum delta is    0.000006876335370
 Root      9 not converged, maximum delta is    0.000004359507475
 Root     10 not converged, maximum delta is    0.000012636361534
 Excitation Energies [eV] at current iteration:
 Root      1 :     4.111256811102505   Change is    0.000000000000000
 Root      2 :     4.730127256914761   Change is   -0.000000000000278
 Root      3 :     5.566981128083301   Change is   -0.000000000000281
 Root      4 :     6.280570297352368   Change is   -0.000000000073562
 Root      5 :     6.442581529462483   Change is   -0.000000000431544
 Root      6 :     6.506472240059839   Change is   -0.000000000012445
 Root      7 :     6.593542148001418   Change is   -0.000000000504812
 Root      8 :     6.894617361658450   Change is   -0.000000014012790
 Root      9 :     6.993246233982465   Change is   -0.000000001116727
 Root     10 :     7.161830988101779   Change is   -0.000000021965123
 Iteration    11 Dimension   220 NMult   212 NNew      8
 CISAX will form     8 AO SS matrices at one time.
 NMat=     8 NSing=     8 JSym2X= 0.
 Root      1 has converged.
 Root      2 has converged.
 Root      3 has converged.
 Root      4 has converged.
 Root      5 has converged.
 Root      6 has converged.
 Root      7 has converged.
 Root      8 not converged, maximum delta is    0.000001285757191
 Root      9 has converged.
 Root     10 not converged, maximum delta is    0.000002586494894
 Excitation Energies [eV] at current iteration:
 Root      1 :     4.111256811102385   Change is   -0.000000000000120
 Root      2 :     4.730127256914656   Change is   -0.000000000000104
 Root      3 :     5.566981128083125   Change is   -0.000000000000177
 Root      4 :     6.280570297351909   Change is   -0.000000000000458
 Root      5 :     6.442581529451178   Change is   -0.000000000011306
 Root      6 :     6.506472240059309   Change is   -0.000000000000531
 Root      7 :     6.593542147980807   Change is   -0.000000000020610
 Root      8 :     6.894617360848266   Change is   -0.000000000810185
 Root      9 :     6.993246233924523   Change is   -0.000000000057943
 Root     10 :     7.161830986657145   Change is   -0.000000001444634
 Iteration    12 Dimension   224 NMult   220 NNew      4
 CISAX will form     4 AO SS matrices at one time.
 NMat=     4 NSing=     4 JSym2X= 0.
 Root      1 has converged.
 Root      2 has converged.
 Root      3 has converged.
 Root      4 has converged.
 Root      5 has converged.
 Root      6 has converged.
 Root      7 has converged.
 Root      8 has converged.
 Root      9 has converged.
 Root     10 has converged.
 Excitation Energies [eV] at current iteration:
 Root      1 :     4.111256811102425   Change is    0.000000000000040
 Root      2 :     4.730127256914587   Change is   -0.000000000000069
 Root      3 :     5.566981128083168   Change is    0.000000000000044
 Root      4 :     6.280570297351830   Change is   -0.000000000000079
 Root      5 :     6.442581529450718   Change is   -0.000000000000459
 Root      6 :     6.506472240059296   Change is   -0.000000000000013
 Root      7 :     6.593542147980608   Change is   -0.000000000000199
 Root      8 :     6.894617360802742   Change is   -0.000000000045525
 Root      9 :     6.993246233924276   Change is   -0.000000000000246
 Root     10 :     7.161830986558349   Change is   -0.000000000098797
 Convergence achieved on expansion vectors.
 ***********************************************************************
 Excited states from <AA,BB:AA,BB> singles matrix:
 ***********************************************************************
 
 1PDM for each excited state written to RWF  633
 Ground to excited state transition densities written to RWF  633
 Ground to excited state transition electric dipole moments (Au):
       state          X           Y           Z        Dip. S.      Osc.
         1        -3.1135     -0.2199     -0.0401      9.7439      0.9814
         2        -0.0341      0.4985     -0.0156      0.2499      0.0290
         3         0.1005      1.5542     -0.0396      2.4271      0.3310
         4         0.8847      0.8718     -0.0068      1.5428      0.2374
         5         1.5988     -0.5172      0.0384      2.8250      0.4459
         6        -0.1296      0.0684      0.2296      0.0742      0.0118
         7         0.0262     -0.0757      0.0375      0.0078      0.0013
         8        -0.7963     -0.1773     -0.0082      0.6656      0.1124
         9         0.0256      0.0283     -0.4178      0.1760      0.0302
        10        -0.0117     -0.0027     -0.1404      0.0199      0.0035
 Ground to excited state transition velocity dipole moments (Au):
       state          X           Y           Z        Dip. S.      Osc.
         1         0.4559      0.0317      0.0062      0.2089      0.9217
         2         0.0064     -0.0843      0.0028      0.0072      0.0275
         3        -0.0182     -0.3149      0.0080      0.0995      0.3243
         4        -0.2013     -0.1934      0.0011      0.0779      0.2251
         5        -0.3676      0.1182     -0.0088      0.1492      0.4201
         6         0.0304     -0.0158     -0.0541      0.0041      0.0114
         7        -0.0059      0.0181     -0.0092      0.0004      0.0012
         8         0.2016      0.0449      0.0018      0.0426      0.1122
         9        -0.0062     -0.0075      0.0944      0.0090      0.0234
        10         0.0029      0.0005      0.0392      0.0015      0.0039
 Ground to excited state transition magnetic dipole moments (Au):
       state          X           Y           Z
         1         0.0028     -0.0171     -0.0534
         2        -0.0054      0.0183      0.7090
         3         0.0032      0.0252      0.5670
         4         0.0052      0.0383     -0.1889
         5        -0.0185     -0.0418      0.3161
         6        -0.0082     -0.6306     -0.0404
         7         0.1045      0.1847      0.0492
         8         0.0147      0.0687     -0.2167
         9        -0.2596      0.1307     -0.0550
        10        -0.6416      0.4321     -0.0430
 Ground to excited state transition velocity quadrupole moments (Au):
       state          XX          YY          ZZ          XY          XZ          YZ
         1        -0.2431      0.0335      0.0252      0.2443      0.0333      0.0042
         2         0.0842     -0.0643     -0.0179      0.0162      0.0040     -0.0002
         3         0.3934     -0.2644      0.0183      0.8423     -0.0231      0.0064
         4        -2.0977      0.2263      0.0788     -0.8128     -0.0794     -0.0754
         5         1.8637     -0.0118      0.0062      0.2123      0.0490      0.0345
         6        -0.1992     -0.0072      0.0271     -0.0050      0.5140      0.0037
         7         0.2368     -0.0188     -0.0162      0.0841     -0.0797      0.0380
         8        -3.2467      0.2818      0.0861      0.2745     -0.0629      0.0459
         9         0.0848     -0.0422      0.0522     -0.0473     -0.2339     -0.0914
        10        -0.1027     -0.0219      0.0391     -0.0101     -0.3841     -0.5955
 <0|del|b> * <b|rxdel|0> + <0|del|b> * <b|delr+rdel|0>
 Rotatory Strengths (R) in cgs (10**-40 erg-esu-cm/Gauss)
       state          XX          YY          ZZ    R(velocity)    E-M Angle
         1        -0.9876      3.2225     -0.2772      0.6526       89.07
         2         1.6232      3.8092     -3.8958      0.5122       89.64
         3        -6.8787     -4.0979     -1.0672     -4.0146       91.12
         4       -36.5225     22.6940    -12.7063     -8.8449       99.26
         5       -23.0022    -10.1397     30.4050     -0.9123       90.43
         6        30.3364      2.6379      2.1863     11.7202       72.92
         7         5.2101     -0.7601      2.2081      2.2194       60.34
         8         8.3984     15.8142     -8.4190      5.2645       83.09
         9       -17.0565      1.9806      2.4999     -4.1920       99.37
        10        -2.2962     -6.6274     -0.1531     -3.0256       96.37
 1/2[<0|r|b>*<b|rxdel|0> + (<0|rxdel|b>*<b|r|0>)*]
 Rotatory Strengths (R) in cgs (10**-40 erg-esu-cm/Gauss)
       state          XX          YY          ZZ     R(length)
         1         6.2221     -2.6562     -1.5154      0.6835
         2        -0.1298     -6.4421      7.8224      0.4168
         3        -0.2271    -27.7497     15.8798     -4.0323
         4        -3.2571    -23.6181     -0.9106     -9.2620
         5        20.9710    -15.2995     -8.5836     -0.9707
         6        -0.7473     30.5208      6.5601     12.1112
         7        -1.9356      9.8956     -1.3046      2.2185
         8         8.2627      8.6179     -1.2541      5.2088
         9         4.6918     -2.6162    -16.2651     -4.7298
        10        -5.2965      0.8174     -4.2672     -2.9154
  1/2[<0|del|b>*<b|r|0> + (<0|r|b>*<b|del|0>)*] (Au)
       state          X           Y           Z        Dip. S.   Osc.(frdel)
         1        -1.4194     -0.0070     -0.0002      1.4267      0.9511
         2        -0.0002     -0.0420     -0.0000      0.0423      0.0282
         3        -0.0018     -0.4893     -0.0003      0.4915      0.3277
         4        -0.1781     -0.1686     -0.0000      0.3467      0.2311
         5        -0.5877     -0.0611     -0.0003      0.6492      0.4328
         6        -0.0039     -0.0011     -0.0124      0.0175      0.0116
         7        -0.0002     -0.0014     -0.0003      0.0019      0.0012
         8        -0.1605     -0.0080     -0.0000      0.1685      0.1123
         9        -0.0002     -0.0002     -0.0394      0.0398      0.0265
        10        -0.0000     -0.0000     -0.0055      0.0055      0.0037

 Excitation energies and oscillator strengths:
 
 Excited State   1:      Singlet-A      4.1113 eV  301.57 nm  f=0.9814  <S**2>=0.000
      47 -> 48         0.69607
 This state for optimization and/or second-order correction.
 Total Energy, E(TD-HF/TD-DFT) =  -557.004876284    
 Copying the excited state density for this state as the 1-particle RhoCI density.
 
 Excited State   2:      Singlet-A      4.7301 eV  262.12 nm  f=0.0290  <S**2>=0.000
      46 -> 48         0.63996
      47 -> 49        -0.28015
 
 Excited State   3:      Singlet-A      5.5670 eV  222.71 nm  f=0.3310  <S**2>=0.000
      46 -> 48         0.28787
      47 -> 49         0.63458
 
 Excited State   4:      Singlet-A      6.2806 eV  197.41 nm  f=0.2374  <S**2>=0.000
      45 -> 48         0.60819
      46 -> 49         0.27556
      47 -> 56         0.13487
 
 Excited State   5:      Singlet-A      6.4426 eV  192.44 nm  f=0.4459  <S**2>=0.000
      45 -> 48        -0.29841
      46 -> 49         0.60035
      47 -> 55         0.11283
 
 Excited State   6:      Singlet-A      6.5065 eV  190.56 nm  f=0.0118  <S**2>=0.000
      47 -> 50         0.58103
      47 -> 51        -0.24828
      47 -> 54        -0.12483
      47 -> 57        -0.17485
 
 Excited State   7:      Singlet-A      6.5935 eV  188.04 nm  f=0.0013  <S**2>=0.000
      41 -> 48         0.28016
      44 -> 48         0.61513
 
 Excited State   8:      Singlet-A      6.8946 eV  179.83 nm  f=0.1124  <S**2>=0.000
      43 -> 48         0.51953
      46 -> 49        -0.17108
      47 -> 55         0.18201
      47 -> 56         0.31054
 
 Excited State   9:      Singlet-A      6.9932 eV  177.29 nm  f=0.0302  <S**2>=0.000
      45 -> 50        -0.11064
      47 -> 50         0.29544
      47 -> 51         0.42606
      47 -> 53         0.35035
      47 -> 55         0.13232
      47 -> 58        -0.11031
      47 -> 61        -0.11438
 
 Excited State  10:      Singlet-A      7.1618 eV  173.12 nm  f=0.0035  <S**2>=0.000
      46 -> 50        -0.28616
      46 -> 51         0.16228
      47 -> 51         0.24943
      47 -> 52         0.43372
      47 -> 53        -0.21517
      47 -> 54        -0.15763
      47 -> 58        -0.10042
 SavETr:  write IOETrn=   770 NScale= 10 NData=  16 NLR=1 NState=   10 LETran=     190.
 The selected state is a singlet.
 CISGrd: IGrad=1 NXY=2 DFT=T
 CISAX will form     1 AO SS matrices at one time.
 NMat=     1 NSing=     1 JSym2X= 0.
 Leave Link  914 at Tue Jul  7 16:47:55 2026, MaxMem=  4026531840 cpu:            1856.1 elap:             235.4
 (Enter /opt/packages/gaussian/g16RevC.01/g16/l1002.exe)
 Minotr:  Closed shell wavefunction.
          Computing CIS/TDA/TD derivatives.
          Using Z-Vector for PSCF gradient.
          Skipping F1 and S1 gradient terms here.
 NEqPCM:  Using equilibrium solvation (IEInf=0, Eps=  32.6130, EpsInf=   1.7657)
          Frozen-core window.
          Direct CPHF calculation.
          Differentiating once with respect to electric field.
                with respect to dipole field.
          Electric field/nuclear overlap derivatives assumed to be zero.
          Requested convergence is 1.0D-10 RMS, and 1.0D-09 maximum.
          NewPWx=F KeepS1=T KeepF1=T KeepIn=T MapXYZ=F SortEE=F KeepMc=T.
 Two-electron integral symmetry used by symmetrizing perturbed Fock matrices.
          MDV=    4026531840 using IRadAn=       5.
          Solving linear equations separately, MaxMat=     384.
          There are     1 degrees of freedom in the 1st order CPHF.  IDoFFX=0 NUNeed=     1.
 FoFJK:  IHMeth= 1 ICntrl=       0 DoSepK=T KAlg= 0 I1Cent=           0 FoldK=F
 IRaf=         1 NMat=       1 IRICut=       1 DoRegI=T DoRafI=F ISym2E=-1 IDoP0=0 IntGTp=1.
 FoFCou: FMM=F IPFlag=           0 FMFlag=      100000 FMFlg1=           0
         NFxFlg=           0 DoJE=T BraDBF=F KetDBF=F FulRan=T
         wScrn=  0.000000 ICntrl=       500 IOpCl=  0 I1Cent=           0 NGrid=           0
         NMat0=    1 NMatS0=      1 NMatT0=    0 NMatD0=    1 NMtDS0=    0 NMtDT0=    0
 Petite list used in FoFCou.
 LinEq1:  Iter=  0 NonCon=     1 RMS=4.82D-03 Max=1.57D-01 NDo=     1
 AX will form     1 AO Fock derivatives at one time.
 LinEq1:  Iter=  1 NonCon=     1 RMS=1.49D-03 Max=6.18D-02 NDo=     1
 LinEq1:  Iter=  2 NonCon=     1 RMS=7.95D-04 Max=1.87D-02 NDo=     1
 LinEq1:  Iter=  3 NonCon=     1 RMS=3.57D-04 Max=2.35D-02 NDo=     1
 LinEq1:  Iter=  4 NonCon=     1 RMS=1.57D-04 Max=7.00D-03 NDo=     1
 LinEq1:  Iter=  5 NonCon=     1 RMS=6.74D-05 Max=2.00D-03 NDo=     1
 LinEq1:  Iter=  6 NonCon=     1 RMS=2.23D-05 Max=4.13D-04 NDo=     1
 LinEq1:  Iter=  7 NonCon=     1 RMS=1.41D-05 Max=7.78D-04 NDo=     1
 LinEq1:  Iter=  8 NonCon=     1 RMS=3.68D-06 Max=7.53D-05 NDo=     1
 LinEq1:  Iter=  9 NonCon=     1 RMS=2.28D-06 Max=5.49D-05 NDo=     1
 LinEq1:  Iter= 10 NonCon=     1 RMS=8.73D-07 Max=3.50D-05 NDo=     1
 LinEq1:  Iter= 11 NonCon=     1 RMS=4.58D-07 Max=1.08D-05 NDo=     1
 LinEq1:  Iter= 12 NonCon=     1 RMS=1.66D-07 Max=3.83D-06 NDo=     1
 LinEq1:  Iter= 13 NonCon=     1 RMS=6.27D-08 Max=1.51D-06 NDo=     1
 LinEq1:  Iter= 14 NonCon=     1 RMS=2.18D-08 Max=5.46D-07 NDo=     1
 LinEq1:  Iter= 15 NonCon=     1 RMS=8.68D-09 Max=2.02D-07 NDo=     1
 LinEq1:  Iter= 16 NonCon=     1 RMS=3.63D-09 Max=1.38D-07 NDo=     1
 LinEq1:  Iter= 17 NonCon=     1 RMS=1.10D-09 Max=4.66D-08 NDo=     1
 LinEq1:  Iter= 18 NonCon=     1 RMS=5.32D-10 Max=2.20D-08 NDo=     1
 LinEq1:  Iter= 19 NonCon=     1 RMS=2.14D-10 Max=8.37D-09 NDo=     1
 LinEq1:  Iter= 20 NonCon=     1 RMS=7.88D-11 Max=2.88D-09 NDo=     1
 LinEq1:  Iter= 21 NonCon=     0 RMS=3.41D-11 Max=7.81D-10 NDo=     1
 Linear equations converged to 1.000D-10 1.000D-09 after    21 iterations.
 End of Minotr F.D. properties file   721 does not exist.
 End of Minotr F.D. properties file   722 does not exist.
 End of Minotr F.D. properties file   788 does not exist.
 Leave Link 1002 at Tue Jul  7 16:49:02 2026, MaxMem=  4026531840 cpu:             531.4 elap:              66.8
 (Enter /opt/packages/gaussian/g16RevC.01/g16/l601.exe)
 Copying SCF densities to generalized density rwf, IOpCl= 0 IROHF=0.

 **********************************************************************

            Population analysis using the CI Density.

 **********************************************************************

 Orbital symmetries:
       Occupied  (A) (A) (A) (A) (A) (A) (A) (A) (A) (A) (A) (A)
                 (A) (A) (A) (A) (A) (A) (A) (A) (A) (A) (A) (A)
                 (A) (A) (A) (A) (A) (A) (A) (A) (A) (A) (A) (A)
                 (A) (A) (A) (A) (A) (A) (A) (A) (A) (A) (A)
       Virtual   (A) (A) (A) (A) (A) (A) (A) (A) (A) (A) (A) (A)
                 (A) (A) (A) (A) (A) (A) (A) (A) (A) (A) (A) (A)
                 (A) (A) (A) (A) (A) (A) (A) (A) (A) (A) (A) (A)
                 (A) (A) (A) (A) (A) (A) (A) (A) (A) (A) (A) (A)
                 (A) (A) (A) (A) (A) (A) (A) (A) (A) (A) (A) (A)
                 (A) (A) (A) (A) (A) (A) (A) (A) (A) (A) (A) (A)
                 (A) (A) (A) (A) (A) (A) (A) (A) (A) (A) (A) (A)
                 (A) (A) (A) (A) (A) (A) (A) (A) (A) (A) (A) (A)
                 (A) (A) (A) (A) (A) (A) (A) (A) (A) (A) (A) (A)
                 (A) (A) (A) (A) (A) (A) (A) (A) (A) (A) (A) (A)
                 (A) (A) (A) (A) (A) (A) (A) (A) (A) (A) (A) (A)
                 (A) (A) (A) (A) (A) (A) (A) (A) (A) (A) (A) (A)
                 (A) (A) (A) (A) (A) (A) (A) (A) (A) (A) (A) (A)
                 (A) (A) (A) (A) (A) (A) (A) (A) (A) (A) (A) (A)
                 (A) (A) (A) (A) (A) (A) (A) (A) (A) (A) (A) (A)
                 (A) (A) (A) (A) (A) (A) (A) (A) (A) (A) (A) (A)
                 (A) (A) (A) (A) (A) (A) (A) (A) (A) (A) (A) (A)
                 (A) (A) (A) (A) (A) (A) (A) (A) (A) (A) (A) (A)
                 (A) (A) (A) (A) (A) (A) (A) (A) (A) (A)
 The electronic state is 1-A.
 Alpha  occ. eigenvalues --  -19.27881 -14.49549 -10.37761 -10.35661 -10.31137
 Alpha  occ. eigenvalues --  -10.31127 -10.29894 -10.29747 -10.29672 -10.28504
 Alpha  occ. eigenvalues --  -10.28129 -10.28092 -10.27309  -1.16842  -1.09586
 Alpha  occ. eigenvalues --   -0.96440  -0.88690  -0.88296  -0.85366  -0.82949
 Alpha  occ. eigenvalues --   -0.78526  -0.71932  -0.70867  -0.68893  -0.68651
 Alpha  occ. eigenvalues --   -0.63974  -0.60768  -0.58505  -0.57070  -0.54876
 Alpha  occ. eigenvalues --   -0.54526  -0.52831  -0.51132  -0.50406  -0.49751
 Alpha  occ. eigenvalues --   -0.48970  -0.48317  -0.47031  -0.45476  -0.44575
 Alpha  occ. eigenvalues --   -0.43718  -0.43231  -0.40847  -0.40579  -0.38117
 Alpha  occ. eigenvalues --   -0.33294  -0.29796
 Alpha virt. eigenvalues --   -0.04494   0.01764   0.03145   0.04578   0.04886
 Alpha virt. eigenvalues --    0.05664   0.05862   0.06138   0.06642   0.06950
 Alpha virt. eigenvalues --    0.07570   0.08042   0.08240   0.09259   0.09831
 Alpha virt. eigenvalues --    0.10255   0.10517   0.11051   0.12154   0.12991
 Alpha virt. eigenvalues --    0.13872   0.14414   0.14610   0.15024   0.15622
 Alpha virt. eigenvalues --    0.15982   0.16374   0.17089   0.17650   0.17945
 Alpha virt. eigenvalues --    0.18298   0.19111   0.19233   0.20042   0.20565
 Alpha virt. eigenvalues --    0.21256   0.21506   0.21816   0.22409   0.23134
 Alpha virt. eigenvalues --    0.23439   0.23943   0.24350   0.24968   0.25446
 Alpha virt. eigenvalues --    0.26467   0.26748   0.27180   0.27669   0.27792
 Alpha virt. eigenvalues --    0.28428   0.29378   0.29821   0.30305   0.30650
 Alpha virt. eigenvalues --    0.31292   0.31561   0.32011   0.32318   0.32919
 Alpha virt. eigenvalues --    0.33747   0.34325   0.34819   0.35623   0.36312
 Alpha virt. eigenvalues --    0.36767   0.37622   0.38110   0.38773   0.39894
 Alpha virt. eigenvalues --    0.40170   0.41208   0.43348   0.44143   0.44430
 Alpha virt. eigenvalues --    0.47315   0.48906   0.49303   0.50590   0.52755
 Alpha virt. eigenvalues --    0.63021   0.65491   0.67954   0.70816   0.71298
 Alpha virt. eigenvalues --    0.72495   0.72985   0.73816   0.74212   0.74687
 Alpha virt. eigenvalues --    0.75568   0.76447   0.77001   0.77288   0.77671
 Alpha virt. eigenvalues --    0.78531   0.79290   0.80609   0.81970   0.83112
 Alpha virt. eigenvalues --    0.83733   0.85201   0.87999   0.89006   0.90069
 Alpha virt. eigenvalues --    0.93880   0.95259   0.97751   0.98461   0.99632
 Alpha virt. eigenvalues --    1.00421   1.01054   1.01976   1.02979   1.04488
 Alpha virt. eigenvalues --    1.04673   1.05901   1.09240   1.10934   1.11366
 Alpha virt. eigenvalues --    1.12972   1.14401   1.15064   1.15449   1.17733
 Alpha virt. eigenvalues --    1.18859   1.20281   1.21409   1.22324   1.24372
 Alpha virt. eigenvalues --    1.26371   1.26845   1.28277   1.29522   1.30684
 Alpha virt. eigenvalues --    1.33822   1.34565   1.35780   1.38648   1.41641
 Alpha virt. eigenvalues --    1.42724   1.45778   1.47184   1.48410   1.50719
 Alpha virt. eigenvalues --    1.51330   1.51834   1.55344   1.56395   1.58995
 Alpha virt. eigenvalues --    1.60457   1.63454   1.66864   1.69919   1.77931
 Alpha virt. eigenvalues --    1.79349   1.82121   1.86913   1.88578   1.88722
 Alpha virt. eigenvalues --    1.90317   1.91924   1.94017   1.97984   1.99109
 Alpha virt. eigenvalues --    2.01506   2.01870   2.03468   2.06268   2.07053
 Alpha virt. eigenvalues --    2.08758   2.10328   2.12761   2.14101   2.15904
 Alpha virt. eigenvalues --    2.16565   2.18049   2.21203   2.21810   2.23877
 Alpha virt. eigenvalues --    2.25560   2.26085   2.29448   2.31334   2.35682
 Alpha virt. eigenvalues --    2.36881   2.37117   2.38747   2.41476   2.46176
 Alpha virt. eigenvalues --    2.46971   2.50497   2.54883   2.57679   2.60262
 Alpha virt. eigenvalues --    2.62367   2.63167   2.67740   2.69687   2.71654
 Alpha virt. eigenvalues --    2.73581   2.77501   2.81098   2.84722   2.86624
 Alpha virt. eigenvalues --    2.89084   2.92496   2.95500   3.09117   3.11377
 Alpha virt. eigenvalues --    3.18990   3.32083   3.49523   4.16201   4.29994
 Alpha virt. eigenvalues --    4.31166   4.32519   4.35393   4.38785   4.42646
 Alpha virt. eigenvalues --    4.45293   4.49189   4.56173   4.63969   4.70354
 Alpha virt. eigenvalues --    4.86207
          Condensed to atoms (all electrons):
               1          2          3          4          5          6
     1  C    7.215681   0.586805  -0.199990  -1.060145  -0.280217  -0.250137
     2  C    0.586805   6.977405   1.331359  -0.960662   0.022448  -1.958238
     3  C   -0.199990   1.331359  10.302386   2.288131  -4.822002   0.475802
     4  C   -1.060145  -0.960662   2.288131  12.631874  -5.763816   1.573864
     5  C   -0.280217   0.022448  -4.822002  -5.763816  16.137709  -3.716417
     6  C   -0.250137  -1.958238   0.475802   1.573864  -3.716417  11.667352
     7  H   -0.064450  -0.009815   0.001194   0.032100  -0.033359   0.389705
     8  H   -0.040384   0.326687  -0.019999   0.039288  -0.007496   0.015791
     9  H    0.014747  -0.023176   0.325778  -0.052865   0.028651  -0.025763
    10  H    0.016499  -0.004152   0.001769  -0.060259   0.348671  -0.039478
    11  O    0.391618   0.122829   0.028026  -0.033984   0.018369  -0.527856
    12  C   -0.166796  -0.116797  -0.005527  -0.027546   0.027664   0.094080
    13  H   -0.061917   0.027097   0.016005   0.004922  -0.002988   0.004262
    14  H   -0.043535   0.029173  -0.000524  -0.001735   0.001826  -0.002015
    15  H    0.030763  -0.037758  -0.005207  -0.000835   0.000438   0.020298
    16  C   -0.098974  -0.036294  -1.677051  -1.457863   2.984890  -1.110315
    17  C   -0.038062  -0.055005  -0.865974  -1.297143   0.744273  -0.239367
    18  N   -0.018939  -0.042914  -0.014803   0.099651  -0.017043   0.174290
    19  C   -0.004917  -0.010705  -0.034441  -0.007760  -0.086059   0.002436
    20  C   -0.022264  -0.040465  -0.260844   0.024585   0.164914   0.035942
    21  H   -0.002488  -0.000324   0.005251  -0.016521  -0.016122   0.005327
    22  H    0.000906  -0.001698  -0.009950  -0.014756   0.021698   0.002623
    23  H   -0.000366  -0.001005  -0.010424  -0.011667   0.006701   0.002587
    24  H    0.000140   0.000112   0.002585   0.005303  -0.003630  -0.000381
    25  H   -0.000081  -0.001117  -0.010698  -0.000319   0.009467   0.000962
    26  H    0.000080   0.000473   0.002763   0.000097  -0.000930  -0.000366
    27  H    0.003780  -0.004525  -0.047529  -0.117447   0.116435   0.040069
               7          8          9         10         11         12
     1  C   -0.064450  -0.040384   0.014747   0.016499   0.391618  -0.166796
     2  C   -0.009815   0.326687  -0.023176  -0.004152   0.122829  -0.116797
     3  C    0.001194  -0.019999   0.325778   0.001769   0.028026  -0.005527
     4  C    0.032100   0.039288  -0.052865  -0.060259  -0.033984  -0.027546
     5  C   -0.033359  -0.007496   0.028651   0.348671   0.018369   0.027664
     6  C    0.389705   0.015791  -0.025763  -0.039478  -0.527856   0.094080
     7  H    0.433622  -0.000085   0.000009  -0.003432  -0.003163  -0.001565
     8  H   -0.000085   0.436778  -0.003398   0.000011  -0.010019   0.000215
     9  H    0.000009  -0.003398   0.447279  -0.000086  -0.000547   0.000462
    10  H   -0.003432   0.000011  -0.000086   0.454246  -0.000358   0.000413
    11  O   -0.003163  -0.010019  -0.000547  -0.000358   8.405466   0.067038
    12  C   -0.001565   0.000215   0.000462   0.000413   0.067038   5.359145
    13  H   -0.000000  -0.001038   0.000003   0.000000  -0.029428   0.382612
    14  H    0.000000  -0.001001   0.000001   0.000000  -0.029981   0.387664
    15  H   -0.000005   0.000145  -0.000000  -0.000000  -0.049190   0.392008
    16  C   -0.004644   0.000133   0.021261   0.018258  -0.000638   0.002312
    17  C   -0.000036   0.001577   0.011455   0.012596  -0.000184  -0.000600
    18  N    0.000283   0.000084   0.000183   0.001967   0.000116  -0.000251
    19  C    0.000057   0.000014   0.001371   0.005170  -0.000027   0.000111
    20  C    0.000000  -0.000043  -0.000436  -0.000796   0.000122  -0.000401
    21  H   -0.000000   0.000000   0.000365   0.000001   0.000001  -0.000027
    22  H   -0.000000  -0.000000  -0.000989  -0.000004   0.000001   0.000002
    23  H    0.000000   0.000000  -0.000000  -0.000003   0.000000  -0.000001
    24  H    0.000000   0.000000   0.000000   0.000002  -0.000000   0.000000
    25  H    0.000000   0.000000  -0.000007  -0.000000   0.000000  -0.000001
    26  H    0.000000  -0.000000   0.000000   0.000000  -0.000000   0.000000
    27  H   -0.000000   0.000000  -0.000000   0.003906  -0.000001   0.000003
              13         14         15         16         17         18
     1  C   -0.061917  -0.043535   0.030763  -0.098974  -0.038062  -0.018939
     2  C    0.027097   0.029173  -0.037758  -0.036294  -0.055005  -0.042914
     3  C    0.016005  -0.000524  -0.005207  -1.677051  -0.865974  -0.014803
     4  C    0.004922  -0.001735  -0.000835  -1.457863  -1.297143   0.099651
     5  C   -0.002988   0.001826   0.000438   2.984890   0.744273  -0.017043
     6  C    0.004262  -0.002015   0.020298  -1.110315  -0.239367   0.174290
     7  H   -0.000000   0.000000  -0.000005  -0.004644  -0.000036   0.000283
     8  H   -0.001038  -0.001001   0.000145   0.000133   0.001577   0.000084
     9  H    0.000003   0.000001  -0.000000   0.021261   0.011455   0.000183
    10  H    0.000000   0.000000  -0.000000   0.018258   0.012596   0.001967
    11  O   -0.029428  -0.029981  -0.049190  -0.000638  -0.000184   0.000116
    12  C    0.382612   0.387664   0.392008   0.002312  -0.000600  -0.000251
    13  H    0.457158  -0.033974  -0.022873   0.000353   0.000142  -0.000001
    14  H   -0.033974   0.457190  -0.023010   0.000120  -0.000163  -0.000001
    15  H   -0.022873  -0.023010   0.443186  -0.000109  -0.000004   0.000000
    16  C    0.000353   0.000120  -0.000109   7.633396  -0.815005   0.070278
    17  C    0.000142  -0.000163  -0.000004  -0.815005   9.252250  -0.273701
    18  N   -0.000001  -0.000001   0.000000   0.070278  -0.273701   7.256641
    19  C    0.000002  -0.000001  -0.000000  -0.504965   0.358338   0.092115
    20  C    0.000005  -0.000009   0.000000   0.383160  -1.200736  -0.076343
    21  H    0.000000  -0.000000   0.000000  -0.098752   0.414819   0.008275
    22  H   -0.000000   0.000000  -0.000000  -0.067513   0.422831   0.013841
    23  H    0.000000  -0.000000   0.000000  -0.020536   0.005111  -0.050676
    24  H   -0.000000   0.000000  -0.000000  -0.017808   0.049344  -0.040284
    25  H    0.000000   0.000000   0.000000   0.024933  -0.111521   0.013040
    26  H   -0.000000   0.000000  -0.000000   0.019450  -0.071571   0.006783
    27  H   -0.000000   0.000000  -0.000000  -0.004141  -0.008391   0.265684
              19         20         21         22         23         24
     1  C   -0.004917  -0.022264  -0.002488   0.000906  -0.000366   0.000140
     2  C   -0.010705  -0.040465  -0.000324  -0.001698  -0.001005   0.000112
     3  C   -0.034441  -0.260844   0.005251  -0.009950  -0.010424   0.002585
     4  C   -0.007760   0.024585  -0.016521  -0.014756  -0.011667   0.005303
     5  C   -0.086059   0.164914  -0.016122   0.021698   0.006701  -0.003630
     6  C    0.002436   0.035942   0.005327   0.002623   0.002587  -0.000381
     7  H    0.000057   0.000000  -0.000000  -0.000000   0.000000   0.000000
     8  H    0.000014  -0.000043   0.000000  -0.000000   0.000000   0.000000
     9  H    0.001371  -0.000436   0.000365  -0.000989  -0.000000   0.000000
    10  H    0.005170  -0.000796   0.000001  -0.000004  -0.000003   0.000002
    11  O   -0.000027   0.000122   0.000001   0.000001   0.000000  -0.000000
    12  C    0.000111  -0.000401  -0.000027   0.000002  -0.000001   0.000000
    13  H    0.000002   0.000005   0.000000  -0.000000   0.000000  -0.000000
    14  H   -0.000001  -0.000009  -0.000000   0.000000  -0.000000   0.000000
    15  H   -0.000000   0.000000   0.000000  -0.000000   0.000000  -0.000000
    16  C   -0.504965   0.383160  -0.098752  -0.067513  -0.020536  -0.017808
    17  C    0.358338  -1.200736   0.414819   0.422831   0.005111   0.049344
    18  N    0.092115  -0.076343   0.008275   0.013841  -0.050676  -0.040284
    19  C    6.145913  -0.358617   0.028875  -0.001164   0.450395   0.421818
    20  C   -0.358617   7.182015  -0.006972  -0.059660  -0.061123  -0.090241
    21  H    0.028875  -0.006972   0.463009  -0.031217  -0.000111  -0.000077
    22  H   -0.001164  -0.059660  -0.031217   0.463811   0.000517  -0.000105
    23  H    0.450395  -0.061123  -0.000111   0.000517   0.473955  -0.034704
    24  H    0.421818  -0.090241  -0.000077  -0.000105  -0.034704   0.464084
    25  H   -0.087341   0.487085  -0.005718   0.002990   0.002886  -0.005568
    26  H   -0.067113   0.440766   0.001036  -0.004635  -0.003823   0.001505
    27  H   -0.025617   0.015318  -0.000103  -0.000191  -0.000056  -0.000639
              25         26         27
     1  C   -0.000081   0.000080   0.003780
     2  C   -0.001117   0.000473  -0.004525
     3  C   -0.010698   0.002763  -0.047529
     4  C   -0.000319   0.000097  -0.117447
     5  C    0.009467  -0.000930   0.116435
     6  C    0.000962  -0.000366   0.040069
     7  H    0.000000   0.000000  -0.000000
     8  H    0.000000  -0.000000   0.000000
     9  H   -0.000007   0.000000  -0.000000
    10  H   -0.000000   0.000000   0.003906
    11  O    0.000000  -0.000000  -0.000001
    12  C   -0.000001   0.000000   0.000003
    13  H    0.000000  -0.000000  -0.000000
    14  H    0.000000   0.000000   0.000000
    15  H    0.000000  -0.000000  -0.000000
    16  C    0.024933   0.019450  -0.004141
    17  C   -0.111521  -0.071571  -0.008391
    18  N    0.013040   0.006783   0.265684
    19  C   -0.087341  -0.067113  -0.025617
    20  C    0.487085   0.440766   0.015318
    21  H   -0.005718   0.001036  -0.000103
    22  H    0.002990  -0.004635  -0.000191
    23  H    0.002886  -0.003823  -0.000056
    24  H   -0.005568   0.001505  -0.000639
    25  H    0.462044  -0.025856  -0.000146
    26  H   -0.025856   0.459953  -0.000068
    27  H   -0.000146  -0.000068   0.284415
 Mulliken charges:
               1
     1  C    0.092645
     2  C   -0.119738
     3  C   -0.796086
     4  C    0.185508
     5  C    0.115926
     6  C   -0.635055
     7  H    0.263585
     8  H    0.262740
     9  H    0.255704
    10  H    0.245060
    11  O   -0.348213
    12  C   -0.394215
    13  H    0.259660
    14  H    0.259974
    15  H    0.252152
    16  C    0.756062
    17  C   -0.295272
    18  N   -0.468275
    19  C   -0.317889
    20  C   -0.554963
    21  H    0.251475
    22  H    0.262662
    23  H    0.252341
    24  H    0.248544
    25  H    0.244964
    26  H    0.241456
    27  H    0.479246
 Sum of Mulliken charges =   1.00000
 Mulliken charges with hydrogens summed into heavy atoms:
               1
     1  C    0.092645
     2  C    0.143002
     3  C   -0.540382
     4  C    0.185508
     5  C    0.360986
     6  C   -0.371471
    11  O   -0.348213
    12  C    0.377571
    16  C    0.756062
    17  C    0.218866
    18  N    0.010971
    19  C    0.182997
    20  C   -0.068543
 Electronic spatial extent (au):  <R**2>=           3394.8227
 Charge=              1.0000 electrons
 Dipole moment (field-independent basis, Debye):
    X=              0.6518    Y=             -0.4198    Z=              0.2755  Tot=              0.8228
 Quadrupole moment (field-independent basis, Debye-Ang):
   XX=            -20.8691   YY=            -60.3047   ZZ=            -78.2044
   XY=             12.2234   XZ=              0.6783   YZ=             -0.1373
 Traceless Quadrupole moment (field-independent basis, Debye-Ang):
   XX=             32.2570   YY=             -7.1786   ZZ=            -25.0783
   XY=             12.2234   XZ=              0.6783   YZ=             -0.1373
 Octapole moment (field-independent basis, Debye-Ang**2):
  XXX=            -44.7277  YYY=             15.1060  ZZZ=              0.4485  XYY=              1.1952
  XXY=            -26.1511  XXZ=              2.7926  XZZ=              1.1620  YZZ=             -2.6322
  YYZ=             -0.2255  XYZ=             -0.0012
 Hexadecapole moment (field-independent basis, Debye-Ang**3):
 XXXX=          -2735.5528 YYYY=           -486.0835 ZZZZ=           -117.1929 XXXY=            219.8514
 XXXZ=              9.1748 YYYX=             31.7624 YYYZ=             -1.3876 ZZZX=              1.1993
 ZZZY=              0.9531 XXYY=           -640.1970 XXZZ=           -639.4928 YYZZ=           -118.4435
 XXYZ=             -3.7724 YYXZ=              0.9149 ZZXY=              4.6447
 N-N= 7.547619536883D+02 E-N=-2.786994923902D+03  KE= 5.519007712231D+02
 No NMR shielding tensors so no spin-rotation constants.
 Leave Link  601 at Tue Jul  7 16:49:02 2026, MaxMem=  4026531840 cpu:               0.8 elap:               0.1
 (Enter /opt/packages/gaussian/g16RevC.01/g16/l9999.exe)
 Electronic transition elements 
                 1             2             3             4             5 
      1  -0.557005D+03 -0.556982D+03 -0.556951D+03 -0.556925D+03 -0.556919D+03
      2  -0.311351D+01 -0.340936D-01  0.100520D+00  0.884687D+00  0.159876D+01
      3  -0.219901D+00  0.498519D+00  0.155418D+01  0.871833D+00 -0.517175D+00
      4  -0.401239D-01 -0.156006D-01 -0.396076D-01 -0.681770D-02  0.383955D-01
      5   0.455896D+00  0.638478D-02 -0.182313D-01 -0.201296D+00 -0.367609D+00
      6   0.316960D-01 -0.843321D-01 -0.314850D+00 -0.193390D+00  0.118183D+00
      7   0.615419D-02  0.275462D-02  0.797869D-02  0.108077D-02 -0.882887D-02
      8   0.282594D-02 -0.538478D-02  0.319482D-02  0.520625D-02 -0.185488D-01
      9  -0.170809D-01  0.182737D-01  0.252486D-01  0.383081D-01 -0.418329D-01
     10  -0.534060D-01  0.709050D+00  0.566951D+00 -0.188875D+00  0.316131D+00
     11  -0.243122D+00  0.842390D-01  0.393386D+00 -0.209771D+01  0.186367D+01
     12   0.334531D-01 -0.643371D-01 -0.264439D+00  0.226264D+00 -0.118254D-01
     13   0.251520D-01 -0.179025D-01  0.182769D-01  0.788400D-01  0.623519D-02
     14   0.244298D+00  0.161860D-01  0.842302D+00 -0.812758D+00  0.212348D+00
     15   0.332979D-01  0.404718D-02 -0.231045D-01 -0.793720D-01  0.490138D-01
     16   0.421320D-02 -0.233800D-03  0.635322D-02 -0.754488D-01  0.345257D-01
                 6             7             8             9            10 
      1  -0.556917D+03 -0.556914D+03 -0.556903D+03 -0.556899D+03 -0.556893D+03
      2  -0.129632D+00  0.261816D-01 -0.796271D+00  0.255566D-01 -0.116736D-01
      3   0.684445D-01 -0.757449D-01 -0.177307D+00  0.283062D-01 -0.267488D-02
      4   0.229613D+00  0.374765D-01 -0.818400D-02 -0.417819D+00 -0.140446D+00
      5   0.303886D-01 -0.589605D-02  0.201554D+00 -0.619638D-02  0.294617D-02
      6  -0.157775D-01  0.181299D-01  0.449311D-01 -0.750880D-02  0.455136D-03
      7  -0.541422D-01 -0.917329D-02  0.178592D-02  0.944177D-01  0.392084D-01
      8  -0.815200D-02  0.104546D+00  0.146737D-01 -0.259604D+00 -0.641596D+00
      9  -0.630574D+00  0.184743D+00  0.687316D-01  0.130697D+00  0.432101D+00
     10  -0.404010D-01  0.492260D-01 -0.216691D+00 -0.550487D-01 -0.429647D-01
     11  -0.199240D+00  0.236822D+00 -0.324666D+01  0.848282D-01 -0.102669D+00
     12  -0.718558D-02 -0.187865D-01  0.281781D+00 -0.422010D-01 -0.218775D-01
     13   0.270707D-01 -0.162362D-01  0.861085D-01  0.521815D-01  0.391119D-01
     14  -0.496422D-02  0.840927D-01  0.274526D+00 -0.472606D-01 -0.101025D-01
     15   0.514008D+00 -0.796514D-01 -0.629115D-01 -0.233873D+00 -0.384096D+00
     16   0.371655D-02  0.380491D-01  0.459033D-01 -0.913951D-01 -0.595506D+00
 Unable to Open any file for archive entry.
 1\1\GINC-R451\SP\RCAM-B3LYP TD-FC\6-31+G(d)\C11H14N1O1(1+)\ZLAB\07-Jul
 -2026\0\\#p TD(NStates=10,Root=1) CAM-B3LYP/6-31+G(d) SCRF=(SMD,Solven
 t=Methanol) Density=Current\\Vertical excitation energies (absorption 
 spectrum)\\1,1\C,0,-2.487501,0.26569,-0.010587\C,0,-1.852886,-0.987152
 ,0.030918\C,0,-0.46409,-1.04718,0.04039\C,0,0.326122,0.121074,0.012445
 \C,0,-0.336055,1.375128,-0.023348\C,0,-1.714653,1.446406,-0.036564\H,0
 ,-2.222364,2.405993,-0.066176\H,0,-2.425733,-1.906837,0.052829\H,0,0.0
 0818,-2.023323,0.072114\H,0,0.222998,2.305942,-0.040421\O,0,-3.82643,0
 .443003,-0.028071\C,0,-4.690037,-0.708558,-0.005756\H,0,-4.535018,-1.2
 88816,0.909734\H,0,-4.521107,-1.333557,-0.888797\H,0,-5.703819,-0.3066
 33,-0.023793\C,0,1.76689,0.000758,0.02605\C,0,2.544816,-1.290426,0.085
 367\N,0,2.605038,1.005884,0.022069\C,0,4.029927,0.6353,0.102501\C,0,3.
 995989,-0.864752,-0.227752\H,0,2.154999,-2.035644,-0.612187\H,0,2.4403
 43,-1.701901,1.098897\H,0,4.386156,0.846545,1.117214\H,0,4.603765,1.23
 7905,-0.605165\H,0,4.207547,-1.017421,-1.290746\H,0,4.729189,-1.427546
 ,0.353825\H,0,2.319911,1.982357,0.030771\\Version=ES64L-G16RevC.01\Sta
 te=1-A\HF=-557.1559622\RMSD=5.475e-09\Dipole=0.2564332,-0.1651528,0.10
 8408\Quadrupole=23.9822592,-5.3371446,-18.6451146,9.0877862,0.5043112,
 -0.1020861\PG=C01 [X(C11H14N1O1)]\\@
 The archive entry for this job was punched.


 Everything starts as somebody's daydream.
                           -- Larry Niven
 Job cpu time:       0 days  0 hours 45 minutes 21.9 seconds.
 Elapsed time:       0 days  0 hours  5 minutes 45.3 seconds.
 File lengths (MBytes):  RWF=    619 Int=      0 D2E=      0 Chk=     32 Scr=      1
 Normal termination of Gaussian 16 at Tue Jul  7 16:49:03 2026.
