 Entering Gaussian System, Link 0=g16
 Initial command:
 /opt/packages/gaussian/g16RevC.01/g16/l1.exe "/ocean/projects/che200051p/zlab/tmp/Gau-70825.inp" -scrdir="/ocean/projects/che200051p/zlab/tmp/"
 Entering Link 1 = /opt/packages/gaussian/g16RevC.01/g16/l1.exe PID=     70826.
  
 Copyright (c) 1988-2019, Gaussian, Inc.  All Rights Reserved.
  
 This is part of the Gaussian(R) 16 program.  It is based on
 the Gaussian(R) 09 system (copyright 2009, Gaussian, Inc.),
 the Gaussian(R) 03 system (copyright 2003, Gaussian, Inc.),
 the Gaussian(R) 98 system (copyright 1998, Gaussian, Inc.),
 the Gaussian(R) 94 system (copyright 1995, Gaussian, Inc.),
 the Gaussian 92(TM) system (copyright 1992, Gaussian, Inc.),
 the Gaussian 90(TM) system (copyright 1990, Gaussian, Inc.),
 the Gaussian 88(TM) system (copyright 1988, Gaussian, Inc.),
 the Gaussian 86(TM) system (copyright 1986, Carnegie Mellon
 University), and the Gaussian 82(TM) system (copyright 1983,
 Carnegie Mellon University). Gaussian is a federally registered
 trademark of Gaussian, Inc.
  
 This software contains proprietary and confidential information,
 including trade secrets, belonging to Gaussian, Inc.
  
 This software is provided under written license and may be
 used, copied, transmitted, or stored only in accord with that
 written license.
  
 The following legend is applicable only to US Government
 contracts under FAR:
  
                    RESTRICTED RIGHTS LEGEND
  
 Use, reproduction and disclosure by the US Government is
 subject to restrictions as set forth in subparagraphs (a)
 and (c) of the Commercial Computer Software - Restricted
 Rights clause in FAR 52.227-19.
  
 Gaussian, Inc.
 340 Quinnipiac St., Bldg. 40, Wallingford CT 06492
  
  
 ---------------------------------------------------------------
 Warning -- This program may not be used in any manner that
 competes with the business of Gaussian, Inc. or will provide
 assistance to any competitor of Gaussian, Inc.  The licensee
 of this program is prohibited from giving any competitor of
 Gaussian, Inc. access to this program.  By using this program,
 the user acknowledges that Gaussian, Inc. is engaged in the
 business of creating and licensing software in the field of
 computational chemistry and represents and warrants to the
 licensee that it is not a competitor of Gaussian, Inc. and that
 it will not use this program in any manner prohibited above.
 ---------------------------------------------------------------
  

 Cite this work as:
 Gaussian 16, Revision C.01,
 M. J. Frisch, G. W. Trucks, H. B. Schlegel, G. E. Scuseria, 
 M. A. Robb, J. R. Cheeseman, G. Scalmani, V. Barone, 
 G. A. Petersson, H. Nakatsuji, X. Li, M. Caricato, A. V. Marenich, 
 J. Bloino, B. G. Janesko, R. Gomperts, B. Mennucci, H. P. Hratchian, 
 J. V. Ortiz, A. F. Izmaylov, J. L. Sonnenberg, D. Williams-Young, 
 F. Ding, F. Lipparini, F. Egidi, J. Goings, B. Peng, A. Petrone, 
 T. Henderson, D. Ranasinghe, V. G. Zakrzewski, J. Gao, N. Rega, 
 G. Zheng, W. Liang, M. Hada, M. Ehara, K. Toyota, R. Fukuda, 
 J. Hasegawa, M. Ishida, T. Nakajima, Y. Honda, O. Kitao, H. Nakai, 
 T. Vreven, K. Throssell, J. A. Montgomery, Jr., J. E. Peralta, 
 F. Ogliaro, M. J. Bearpark, J. J. Heyd, E. N. Brothers, K. N. Kudin, 
 V. N. Staroverov, T. A. Keith, R. Kobayashi, J. Normand, 
 K. Raghavachari, A. P. Rendell, J. C. Burant, S. S. Iyengar, 
 J. Tomasi, M. Cossi, J. M. Millam, M. Klene, C. Adamo, R. Cammi, 
 J. W. Ochterski, R. L. Martin, K. Morokuma, O. Farkas, 
 J. B. Foresman, and D. J. Fox, Gaussian, Inc., Wallingford CT, 2019.
 
 ******************************************
 Gaussian 16:  ES64L-G16RevC.01  3-Jul-2019
                29-Jul-2026 
 ******************************************
 %chk=iminium_singlet_abs.chk
 %mem=30GB
 %nprocshared=8
 Will use up to    8 processors via shared memory.
 -----------------------------------------------------------------
 #p TD(NStates=10) B3LYP/6-31+G(d) SCRF=(SMD,Solvent=Acetonitrile)
 -----------------------------------------------------------------
 1/38=1,172=1/1;
 2/12=2,17=6,18=5,40=1/2;
 3/5=1,6=6,7=11,11=9,25=1,30=1,70=32201,72=2,74=-5/1,2,3,8;
 4//1;
 5/5=2,38=5,53=2/2;
 8/6=1,10=2,108=10/1;
 9/41=10,42=1,70=2/14;
 6/7=2,8=2,9=2,10=2/1;
 99/5=1,9=1/99;
 Leave Link    1 at Wed Jul 29 14:33:26 2026, MaxMem=  4026531840 cpu:               1.1 elap:               0.2
 (Enter /opt/packages/gaussian/g16RevC.01/g16/l101.exe)
 --------------------------------------------------
 Vertical excitation energies (absorption spectrum)
 --------------------------------------------------
 Symbolic Z-matrix:
 Charge =  1 Multiplicity = 1
 C                    -2.4875    0.26569  -0.01059 
 C                    -1.85289  -0.98715   0.03092 
 C                    -0.46409  -1.04718   0.04039 
 C                     0.32612   0.12107   0.01245 
 C                    -0.33606   1.37513  -0.02335 
 C                    -1.71465   1.44641  -0.03656 
 H                    -2.22236   2.40599  -0.06618 
 H                    -2.42573  -1.90684   0.05283 
 H                     0.00818  -2.02332   0.07211 
 H                     0.223     2.30594  -0.04042 
 O                    -3.82643   0.443    -0.02807 
 C                    -4.69004  -0.70856  -0.00576 
 H                    -4.53502  -1.28882   0.90973 
 H                    -4.52111  -1.33356  -0.8888 
 H                    -5.70382  -0.30663  -0.02379 
 C                     1.76689   0.00076   0.02605 
 C                     2.54482  -1.29043   0.08537 
 N                     2.60504   1.00588   0.02207 
 C                     4.02993   0.6353    0.1025 
 C                     3.99599  -0.86475  -0.22775 
 H                     2.155    -2.03564  -0.61219 
 H                     2.44034  -1.7019    1.0989 
 H                     4.38616   0.84655   1.11721 
 H                     4.60377   1.23791  -0.60517 
 H                     4.20755  -1.01742  -1.29075 
 H                     4.72919  -1.42755   0.35383 
 H                     2.31991   1.98236   0.03077 
 
 ITRead=  0  0  0  0  0  0  0  0  0  0  0  0  0  0  0  0  0  0  0  0
 ITRead=  0  0  0  0  0  0  0
 MicOpt= -1 -1 -1 -1 -1 -1 -1 -1 -1 -1 -1 -1 -1 -1 -1 -1 -1 -1 -1 -1
 MicOpt= -1 -1 -1 -1 -1 -1 -1
 NAtoms=     27 NQM=       27 NQMF=       0 NMMI=      0 NMMIF=      0
                NMic=       0 NMicF=      0.
                    Isotopes and Nuclear Properties:
 (Nuclear quadrupole moments (NQMom) in fm**2, nuclear magnetic moments (NMagM)
  in nuclear magnetons)

  Atom         1           2           3           4           5           6           7           8           9          10
 IAtWgt=          12          12          12          12          12          12           1           1           1           1
 AtmWgt=  12.0000000  12.0000000  12.0000000  12.0000000  12.0000000  12.0000000   1.0078250   1.0078250   1.0078250   1.0078250
 NucSpn=           0           0           0           0           0           0           1           1           1           1
 AtZEff=  -0.0000000  -0.0000000  -0.0000000  -0.0000000  -0.0000000  -0.0000000  -0.0000000  -0.0000000  -0.0000000  -0.0000000
 NQMom=    0.0000000   0.0000000   0.0000000   0.0000000   0.0000000   0.0000000   0.0000000   0.0000000   0.0000000   0.0000000
 NMagM=    0.0000000   0.0000000   0.0000000   0.0000000   0.0000000   0.0000000   2.7928460   2.7928460   2.7928460   2.7928460
 AtZNuc=   6.0000000   6.0000000   6.0000000   6.0000000   6.0000000   6.0000000   1.0000000   1.0000000   1.0000000   1.0000000

  Atom        11          12          13          14          15          16          17          18          19          20
 IAtWgt=          16          12           1           1           1          12          12          14          12          12
 AtmWgt=  15.9949146  12.0000000   1.0078250   1.0078250   1.0078250  12.0000000  12.0000000  14.0030740  12.0000000  12.0000000
 NucSpn=           0           0           1           1           1           0           0           2           0           0
 AtZEff=  -0.0000000  -0.0000000  -0.0000000  -0.0000000  -0.0000000  -0.0000000  -0.0000000  -0.0000000  -0.0000000  -0.0000000
 NQMom=    0.0000000   0.0000000   0.0000000   0.0000000   0.0000000   0.0000000   0.0000000   2.0440000   0.0000000   0.0000000
 NMagM=    0.0000000   0.0000000   2.7928460   2.7928460   2.7928460   0.0000000   0.0000000   0.4037610   0.0000000   0.0000000
 AtZNuc=   8.0000000   6.0000000   1.0000000   1.0000000   1.0000000   6.0000000   6.0000000   7.0000000   6.0000000   6.0000000

  Atom        21          22          23          24          25          26          27
 IAtWgt=           1           1           1           1           1           1           1
 AtmWgt=   1.0078250   1.0078250   1.0078250   1.0078250   1.0078250   1.0078250   1.0078250
 NucSpn=           1           1           1           1           1           1           1
 AtZEff=  -0.0000000  -0.0000000  -0.0000000  -0.0000000  -0.0000000  -0.0000000  -0.0000000
 NQMom=    0.0000000   0.0000000   0.0000000   0.0000000   0.0000000   0.0000000   0.0000000
 NMagM=    2.7928460   2.7928460   2.7928460   2.7928460   2.7928460   2.7928460   2.7928460
 AtZNuc=   1.0000000   1.0000000   1.0000000   1.0000000   1.0000000   1.0000000   1.0000000
 Leave Link  101 at Wed Jul 29 14:33:26 2026, MaxMem=  4026531840 cpu:               0.5 elap:               0.1
 (Enter /opt/packages/gaussian/g16RevC.01/g16/l202.exe)
                          Input orientation:                          
 ---------------------------------------------------------------------
 Center     Atomic      Atomic             Coordinates (Angstroms)
 Number     Number       Type             X           Y           Z
 ---------------------------------------------------------------------
      1          6           0       -2.487501    0.265690   -0.010587
      2          6           0       -1.852886   -0.987152    0.030918
      3          6           0       -0.464090   -1.047180    0.040390
      4          6           0        0.326122    0.121074    0.012445
      5          6           0       -0.336055    1.375128   -0.023348
      6          6           0       -1.714653    1.446406   -0.036564
      7          1           0       -2.222364    2.405993   -0.066176
      8          1           0       -2.425733   -1.906837    0.052829
      9          1           0        0.008180   -2.023323    0.072114
     10          1           0        0.222998    2.305942   -0.040421
     11          8           0       -3.826430    0.443003   -0.028071
     12          6           0       -4.690037   -0.708558   -0.005756
     13          1           0       -4.535018   -1.288816    0.909734
     14          1           0       -4.521107   -1.333557   -0.888797
     15          1           0       -5.703819   -0.306633   -0.023793
     16          6           0        1.766890    0.000758    0.026050
     17          6           0        2.544816   -1.290426    0.085367
     18          7           0        2.605038    1.005884    0.022069
     19          6           0        4.029927    0.635300    0.102501
     20          6           0        3.995989   -0.864752   -0.227752
     21          1           0        2.154999   -2.035644   -0.612187
     22          1           0        2.440343   -1.701901    1.098897
     23          1           0        4.386156    0.846545    1.117214
     24          1           0        4.603765    1.237905   -0.605165
     25          1           0        4.207547   -1.017421   -1.290746
     26          1           0        4.729189   -1.427546    0.353825
     27          1           0        2.319911    1.982357    0.030771
 ---------------------------------------------------------------------
                    Distance matrix (angstroms):
                    1          2          3          4          5
     1  C    0.000000
     2  C    1.405017   0.000000
     3  C    2.412554   1.390125   0.000000
     4  C    2.817431   2.444705   1.410685   0.000000
     5  C    2.420689   2.807862   2.426527   1.418595   0.000000
     6  C    1.411403   2.438415   2.790663   2.433859   1.380503
     7  H    2.157379   3.414583   3.876505   3.423714   2.150042
     8  H    2.174330   1.083722   2.141777   3.418590   3.891510
     9  H    3.387454   2.130473   1.084850   2.168660   3.417174
    10  H    3.392687   3.893437   3.423748   2.187939   1.085931
    11  O    1.350732   2.437970   3.678405   4.165209   3.612699
    12  C    2.408391   2.851032   4.239743   5.084336   4.826926
    13  H    2.730532   2.838512   4.169724   5.140389   5.059499
    14  H    2.732105   2.843462   4.171905   5.140410   5.059707
    15  H    3.266868   3.910983   5.292191   6.045199   5.625052
    16  C    4.262789   3.752168   2.464884   1.445847   2.512710
    17  C    5.268294   4.408483   3.019057   2.630637   3.926374
    18  N    5.146155   4.883171   3.692554   2.444676   2.964529
    19  C    6.528880   6.102865   4.799040   3.740416   4.430009
    20  C    6.584884   5.855871   4.471855   3.807555   4.881132
    21  H    5.216404   4.192381   2.874464   2.895926   4.264440
    22  H    5.420887   4.481435   3.159878   2.995588   4.293708
    23  H    6.989742   6.593036   5.317013   4.269742   4.886672
    24  H    7.182254   6.858850   5.596562   4.463965   4.975858
    25  H    6.936054   6.202948   4.857674   4.249699   5.289131
    26  H    7.421621   6.604690   5.216614   4.679932   5.801201
    27  H    5.104887   5.121545   4.114468   2.727619   2.725034
                    6          7          8          9         10
     6  C    0.000000
     7  H    1.086027   0.000000
     8  H    3.428974   4.319262   0.000000
     9  H    3.875433   4.961178   2.436775   0.000000
    10  H    2.119743   2.447543   4.977146   4.336052   0.000000
    11  O    2.338053   2.535312   2.736831   4.560377   4.457416
    12  C    3.673926   3.974102   2.562494   4.879335   5.764228
    13  H    4.041210   4.466809   2.359093   4.677794   6.038526
    14  H    4.041124   4.466000   2.367679   4.681193   6.039224
    15  H    4.357379   4.413691   3.648612   5.965162   6.477112
    16  C    3.770273   4.659164   4.606270   2.681807   2.775229
    17  C    5.064404   6.034276   5.008730   2.640423   4.282584
    18  N    4.342491   5.027117   5.813222   3.990272   2.714437
    19  C    5.803226   6.500381   6.938334   4.821167   4.159829
    20  C    6.163557   7.027930   6.511772   4.163511   4.931922
    21  H    5.237387   6.259998   4.630545   2.253276   4.786326
    22  H    5.335269   6.322422   4.981461   2.659514   4.719901
    23  H    6.237861   6.892375   7.424006   5.338076   4.560904
    24  H    6.347376   6.946292   7.728920   5.675713   4.544311
    25  H    6.535738   7.386683   6.826174   4.528124   5.337105
    26  H    7.066477   7.949623   7.177272   4.766785   5.865162
    27  H    4.070563   4.563017   6.135752   4.625071   2.122927
                   11         12         13         14         15
    11  O    0.000000
    12  C    1.439586   0.000000
    13  H    2.093029   1.094921   0.000000
    14  H    2.092747   1.094953   1.799141   0.000000
    15  H    2.021525   1.090698   1.789484   1.789305   0.000000
    16  C    5.611037   6.495848   6.492915   6.492784   7.477196
    17  C    6.603819   7.258786   7.127667   7.132890   8.307812
    18  N    6.456247   7.493878   7.552086   7.555435   8.412010
    19  C    7.859795   8.823573   8.815448   8.830586   9.780031
    20  C    7.933494   8.690266   8.616948   8.555564   9.717992
    21  H    6.500952   6.998817   6.901473   6.718618   8.068253
    22  H    6.718863   7.283496   6.990142   7.249027   8.338740
    23  H    8.301873   9.276674   9.175520   9.387026  10.219555
    24  H    8.487231   9.514345   9.601906   9.484522  10.438864
    25  H    8.262686   8.995199   9.019324   8.743621  10.017263
    26  H    8.766038   9.453468   9.281908   9.333859  10.499843
    27  H    6.336449   7.508777   7.646123   7.657703   8.344022
                   16         17         18         19         20
    16  C    0.000000
    17  C    1.508590   0.000000
    18  N    1.308735   2.297971   0.000000
    19  C    2.351558   2.431927   1.474487   0.000000
    20  C    2.404663   1.544391   2.344448   1.536351   0.000000
    21  H    2.169080   1.092652   3.139380   3.340670   2.215406
    22  H    2.122166   1.098849   2.918695   2.997014   2.209265
    23  H    2.960836   3.003645   2.096929   1.095977   2.211267
    24  H    3.158611   3.332951   2.107645   1.092343   2.221036
    25  H    2.954225   2.175521   2.895735   2.168911   1.094541
    26  H    3.304951   2.205075   3.247100   2.192593   1.092040
    27  H    2.057326   3.280956   1.017287   2.178041   3.313925
                   21         22         23         24         25
    21  H    0.000000
    22  H    1.766526   0.000000
    23  H    4.034340   3.206416   0.000000
    24  H    4.088108   4.028236   1.779636   0.000000
    25  H    2.389597   3.049904   3.050335   2.390294   0.000000
    26  H    2.815922   2.422647   2.423205   2.835493   1.773394
    27  H    4.072459   3.837858   2.596112   2.484877   3.782624
                   26         27
    26  H    0.000000
    27  H    4.187651   0.000000
 Stoichiometry    C11H14NO(1+)
 Framework group  C1[X(C11H14NO)]
 Deg. of freedom    75
 Full point group                 C1      NOp   1
 Largest Abelian subgroup         C1      NOp   1
 Largest concise Abelian subgroup C1      NOp   1
                         Standard orientation:                         
 ---------------------------------------------------------------------
 Center     Atomic      Atomic             Coordinates (Angstroms)
 Number     Number       Type             X           Y           Z
 ---------------------------------------------------------------------
      1          6           0       -2.487501    0.265690   -0.010587
      2          6           0       -1.852886   -0.987152    0.030918
      3          6           0       -0.464090   -1.047180    0.040390
      4          6           0        0.326122    0.121074    0.012445
      5          6           0       -0.336055    1.375128   -0.023348
      6          6           0       -1.714653    1.446406   -0.036564
      7          1           0       -2.222364    2.405993   -0.066176
      8          1           0       -2.425733   -1.906837    0.052829
      9          1           0        0.008180   -2.023323    0.072114
     10          1           0        0.222998    2.305942   -0.040421
     11          8           0       -3.826430    0.443003   -0.028071
     12          6           0       -4.690037   -0.708558   -0.005756
     13          1           0       -4.535018   -1.288816    0.909734
     14          1           0       -4.521107   -1.333557   -0.888797
     15          1           0       -5.703819   -0.306633   -0.023793
     16          6           0        1.766890    0.000758    0.026050
     17          6           0        2.544816   -1.290426    0.085367
     18          7           0        2.605038    1.005884    0.022069
     19          6           0        4.029927    0.635300    0.102501
     20          6           0        3.995989   -0.864752   -0.227752
     21          1           0        2.154999   -2.035644   -0.612187
     22          1           0        2.440343   -1.701901    1.098897
     23          1           0        4.386156    0.846545    1.117214
     24          1           0        4.603765    1.237905   -0.605165
     25          1           0        4.207547   -1.017421   -1.290746
     26          1           0        4.729189   -1.427546    0.353825
     27          1           0        2.319911    1.982357    0.030771
 ---------------------------------------------------------------------
 Rotational constants (GHZ):           2.8518045           0.3508185           0.3153499
 Leave Link  202 at Wed Jul 29 14:33:26 2026, MaxMem=  4026531840 cpu:               0.0 elap:               0.0
 (Enter /opt/packages/gaussian/g16RevC.01/g16/l301.exe)
 Standard basis: 6-31+G(d) (6D, 7F)
 Ernie: Thresh=  0.10000D-02 Tol=  0.10000D-05 Strict=F.
 There are   275 symmetry adapted cartesian basis functions of A   symmetry.
 There are   275 symmetry adapted basis functions of A   symmetry.
   275 basis functions,   472 primitive gaussians,   275 cartesian basis functions
    47 alpha electrons       47 beta electrons
       nuclear repulsion energy       754.7623879112 Hartrees.
 IExCor=  402 DFT=T Ex+Corr=B3LYP ExCW=0 ScaHFX=  0.200000
 ScaDFX=  0.800000  0.720000  1.000000  0.810000 ScalE2=  1.000000  1.000000
 IRadAn=      5 IRanWt=     -1 IRanGd=            0 ICorTp=0 IEmpDi=  4
 NAtoms=   27 NActive=   27 NUniq=   27 SFac= 1.00D+00 NAtFMM=   60 NAOKFM=F Big=F
 Integral buffers will be    131072 words long.
 Regular integral format.
 Two-electron integral symmetry is turned on.
 ------------------------------------------------------------------------------
 Polarizable Continuum Model (PCM)
 =================================
 Model                : PCM.
 Atomic radii         : SMD-Coulomb.
 Polarization charges : Total charges.
 Charge compensation  : None.
 Solution method      : On-the-fly selection.
 Cavity type          : VdW (van der Waals Surface) (Alpha=1.000).
 Cavity algorithm     : GePol (No added spheres)
                        Default sphere list used, NSphG=   27.
                        Lebedev-Laikov grids with approx.  5.0 points / Ang**2.
                        Smoothing algorithm: York/Karplus (Gamma=1.0000).
                        Polarization charges: spherical gaussians, with
                                              point-specific exponents (IZeta= 3).
                        Self-potential: point-specific (ISelfS= 7).
                        Self-field    : sphere-specific E.n sum rule (ISelfD= 2).
 Solvent              : Acetonitrile, Eps=  35.688000 Eps(inf)=   1.806874
 ------------------------------------------------------------------------------
 GePol: Number of generator spheres                  =      27
 GePol: Total number of spheres                      =      27
 GePol: Number of exposed spheres                    =      27 (100.00%)
 GePol: Number of points                             =    1963
 GePol: Average weight of points                     =       0.11
 GePol: Minimum weight of points                     =   0.15D-11
 GePol: Maximum weight of points                     =    0.21559
 GePol: Number of points with low weight             =     101
 GePol: Fraction of low-weight points (<1% of avg)   =       5.15%
 GePol: Cavity surface area                          =    221.983 Ang**2
 GePol: Cavity volume                                =    202.832 Ang**3
 ------------------------------------------------------------------------------
 Atomic radii for non-electrostatic terms: SMD-CDS.
 ------------------------------------------------------------------------------
 PCM non-electrostatic energy =        -0.0034944533 Hartrees.
 Nuclear repulsion after PCM non-electrostatic terms =      754.7588934579 Hartrees.
 Leave Link  301 at Wed Jul 29 14:33:26 2026, MaxMem=  4026531840 cpu:               0.4 elap:               0.1
 (Enter /opt/packages/gaussian/g16RevC.01/g16/l302.exe)
 NPDir=0 NMtPBC=     1 NCelOv=     1 NCel=       1 NClECP=     1 NCelD=      1
         NCelK=      1 NCelE2=     1 NClLst=     1 CellRange=     0.0.
 One-electron integrals computed using PRISM.
 One-electron integral symmetry used in STVInt
 NBasis=   275 RedAO= T EigKep=  2.15D-06  NBF=   275
 NBsUse=   273 1.00D-06 EigRej=  9.11D-07 NBFU=   273
 Precomputing XC quadrature grid using
 IXCGrd= 4 IRadAn=           5 IRanWt=          -1 IRanGd=           0 AccXCQ= 0.00D+00.
 Generated NRdTot=       0 NPtTot=           0 NUsed=           0 NTot=          32
 NSgBfM=   274   274   274   274   274 MxSgAt=    27 MxSgA2=    27.
 Leave Link  302 at Wed Jul 29 14:33:27 2026, MaxMem=  4026531840 cpu:               1.5 elap:               0.2
 (Enter /opt/packages/gaussian/g16RevC.01/g16/l303.exe)
 DipDrv:  MaxL=1.
 Leave Link  303 at Wed Jul 29 14:33:27 2026, MaxMem=  4026531840 cpu:               0.1 elap:               0.0
 (Enter /opt/packages/gaussian/g16RevC.01/g16/l308.exe)
 Leave Link  308 at Wed Jul 29 14:33:27 2026, MaxMem=  4026531840 cpu:               0.2 elap:               0.0
 (Enter /opt/packages/gaussian/g16RevC.01/g16/l401.exe)
 ExpMin= 4.38D-02 ExpMax= 5.48D+03 ExpMxC= 8.25D+02 IAcc=3 IRadAn=         5 AccDes= 0.00D+00
 Harris functional with IExCor=  402 and IRadAn=       5 diagonalized for initial guess.
 HarFok:  IExCor=  402 AccDes= 0.00D+00 IRadAn=         5 IDoV= 1 UseB2=F ITyADJ=14
 ICtDFT=  3500011 ScaDFX=  1.000000  1.000000  1.000000  1.000000
 FoFCou: FMM=F IPFlag=           0 FMFlag=      100000 FMFlg1=           0
         NFxFlg=           0 DoJE=T BraDBF=F KetDBF=T FulRan=T
         wScrn=  0.000000 ICntrl=       500 IOpCl=  0 I1Cent=   200000004 NGrid=           0
         NMat0=    1 NMatS0=      1 NMatT0=    0 NMatD0=    1 NMtDS0=    0 NMtDT0=    0
 Petite list used in FoFCou.
 Harris En= -557.370653837523    
 JPrj=0 DoOrth=F DoCkMO=F.
 Leave Link  401 at Wed Jul 29 14:33:27 2026, MaxMem=  4026531840 cpu:               6.2 elap:               0.8
 (Enter /opt/packages/gaussian/g16RevC.01/g16/l502.exe)
 Integral symmetry usage will be decided dynamically.
 Closed shell SCF:
 Using DIIS extrapolation, IDIIS=  1040.
 NGot=  4026531840 LenX=  4026374748 LenY=  4026298682
 Requested convergence on RMS density matrix=1.00D-08 within 128 cycles.
 Requested convergence on MAX density matrix=1.00D-06.
 Requested convergence on             energy=1.00D-06.
 No special actions if energy rises.
 Fock matrices will be formed incrementally for  20 cycles.

 Cycle   1  Pass 1  IDiag  1:
 FoFJK:  IHMeth= 1 ICntrl=       0 DoSepK=F KAlg= 0 I1Cent=           0 FoldK=F
 IRaf= 880000000 NMat=       1 IRICut=       1 DoRegI=T DoRafI=F ISym2E= 0 IDoP0=0 IntGTp=1.
 FoFCou: FMM=F IPFlag=           0 FMFlag=      100000 FMFlg1=           0
         NFxFlg=           0 DoJE=F BraDBF=F KetDBF=F FulRan=T
         wScrn=  0.000000 ICntrl=         0 IOpCl=  0 I1Cent=           0 NGrid=           0
         NMat0=    1 NMatS0=      1 NMatT0=    0 NMatD0=    1 NMtDS0=    0 NMtDT0=    0
 Symmetry not used in FoFCou.
 Inv3:  Mode=1 IEnd=    11560107.
 Iteration    1 A*A^-1 deviation from unit magnitude is 2.66D-15 for    722.
 Iteration    1 A*A^-1 deviation from orthogonality  is 2.21D-15 for    990    771.
 Iteration    1 A^-1*A deviation from unit magnitude is 2.66D-15 for    722.
 Iteration    1 A^-1*A deviation from orthogonality  is 1.22D-13 for   1014    975.
 E= -557.235381281227    
 DIIS: error= 2.26D-02 at cycle   1 NSaved=   1.
 NSaved= 1 IEnMin= 1 EnMin= -557.235381281227     IErMin= 1 ErrMin= 2.26D-02
 ErrMax= 2.26D-02  0.00D+00 EMaxC= 1.00D-01 BMatC= 2.23D-01 BMatP= 2.23D-01
 IDIUse=3 WtCom= 7.74D-01 WtEn= 2.26D-01
 Coeff-Com:  0.100D+01
 Coeff-En:   0.100D+01
 Coeff:      0.100D+01
 Gap=     0.139 Goal=   None    Shift=    0.000
 GapD=    0.139 DampG=1.000 DampE=0.500 DampFc=0.5000 IDamp=-1.
 Damping current iteration by 5.00D-01
 RMSDP=1.62D-02 MaxDP=9.43D-01              OVMax= 1.66D-01

 Cycle   2  Pass 1  IDiag  1:
 RMSU=  7.55D-03    CP:  9.59D-01
 E= -557.342669442708     Delta-E=       -0.107288161482 Rises=F Damp=T
 DIIS: error= 5.25D-03 at cycle   2 NSaved=   2.
 NSaved= 2 IEnMin= 2 EnMin= -557.342669442708     IErMin= 2 ErrMin= 5.25D-03
 ErrMax= 5.25D-03  0.00D+00 EMaxC= 1.00D-01 BMatC= 1.51D-02 BMatP= 2.23D-01
 IDIUse=3 WtCom= 9.48D-01 WtEn= 5.25D-02
 Coeff-Com: -0.178D-02 0.100D+01
 Coeff-En:   0.601D-02 0.994D+00
 Coeff:     -0.137D-02 0.100D+01
 Gap=     0.186 Goal=   None    Shift=    0.000
 RMSDP=2.02D-02 MaxDP=2.06D+00 DE=-1.07D-01 OVMax= 1.18D-01

 Cycle   3  Pass 1  IDiag  1:
 RMSU=  7.91D-03    CP:  7.04D-01  5.61D-01
 E= -557.457635096277     Delta-E=       -0.114965653569 Rises=F Damp=F
 DIIS: error= 2.63D-03 at cycle   3 NSaved=   3.
 NSaved= 3 IEnMin= 3 EnMin= -557.457635096277     IErMin= 3 ErrMin= 2.63D-03
 ErrMax= 2.63D-03  0.00D+00 EMaxC= 1.00D-01 BMatC= 5.66D-03 BMatP= 1.51D-02
 IDIUse=3 WtCom= 9.74D-01 WtEn= 2.63D-02
 Coeff-Com: -0.567D-01 0.372D+00 0.685D+00
 Coeff-En:   0.000D+00 0.000D+00 0.100D+01
 Coeff:     -0.552D-01 0.362D+00 0.693D+00
 Gap=     0.157 Goal=   None    Shift=    0.000
 RMSDP=1.61D-03 MaxDP=6.91D-02 DE=-1.15D-01 OVMax= 3.18D-02

 Cycle   4  Pass 1  IDiag  1:
 RMSU=  1.55D-03    CP:  7.03D-01  5.10D-01  1.02D+00
 E= -557.461702962419     Delta-E=       -0.004067866141 Rises=F Damp=F
 DIIS: error= 1.59D-03 at cycle   4 NSaved=   4.
 NSaved= 4 IEnMin= 4 EnMin= -557.461702962419     IErMin= 4 ErrMin= 1.59D-03
 ErrMax= 1.59D-03  0.00D+00 EMaxC= 1.00D-01 BMatC= 1.31D-03 BMatP= 5.66D-03
 IDIUse=3 WtCom= 9.84D-01 WtEn= 1.59D-02
 Coeff-Com: -0.295D-01 0.103D+00 0.369D+00 0.557D+00
 Coeff-En:   0.000D+00 0.000D+00 0.167D+00 0.833D+00
 Coeff:     -0.291D-01 0.101D+00 0.366D+00 0.562D+00
 Gap=     0.159 Goal=   None    Shift=    0.000
 RMSDP=1.02D-03 MaxDP=4.55D-02 DE=-4.07D-03 OVMax= 1.44D-02

 Cycle   5  Pass 1  IDiag  1:
 RMSU=  5.67D-04    CP:  7.03D-01  5.61D-01  9.64D-01  6.28D-01
 E= -557.462899961353     Delta-E=       -0.001196998934 Rises=F Damp=F
 DIIS: error= 4.53D-04 at cycle   5 NSaved=   5.
 NSaved= 5 IEnMin= 5 EnMin= -557.462899961353     IErMin= 5 ErrMin= 4.53D-04
 ErrMax= 4.53D-04  0.00D+00 EMaxC= 1.00D-01 BMatC= 1.00D-04 BMatP= 1.31D-03
 IDIUse=3 WtCom= 9.95D-01 WtEn= 4.53D-03
 Coeff-Com: -0.106D-01 0.255D-01 0.133D+00 0.293D+00 0.558D+00
 Coeff-En:   0.000D+00 0.000D+00 0.000D+00 0.000D+00 0.100D+01
 Coeff:     -0.106D-01 0.254D-01 0.133D+00 0.292D+00 0.560D+00
 Gap=     0.159 Goal=   None    Shift=    0.000
 RMSDP=2.45D-04 MaxDP=1.84D-02 DE=-1.20D-03 OVMax= 3.74D-03

 Cycle   6  Pass 1  IDiag  1:
 RMSU=  1.63D-04    CP:  7.05D-01  5.58D-01  9.65D-01  6.44D-01  7.79D-01
 E= -557.462980400560     Delta-E=       -0.000080439207 Rises=F Damp=F
 DIIS: error= 1.73D-04 at cycle   6 NSaved=   6.
 NSaved= 6 IEnMin= 6 EnMin= -557.462980400560     IErMin= 6 ErrMin= 1.73D-04
 ErrMax= 1.73D-04  0.00D+00 EMaxC= 1.00D-01 BMatC= 1.30D-05 BMatP= 1.00D-04
 IDIUse=3 WtCom= 9.98D-01 WtEn= 1.73D-03
 Coeff-Com: -0.417D-02 0.721D-02 0.489D-01 0.130D+00 0.338D+00 0.480D+00
 Coeff-En:   0.000D+00 0.000D+00 0.000D+00 0.000D+00 0.535D-01 0.947D+00
 Coeff:     -0.416D-02 0.719D-02 0.488D-01 0.130D+00 0.338D+00 0.481D+00
 Gap=     0.159 Goal=   None    Shift=    0.000
 RMSDP=9.31D-05 MaxDP=6.99D-03 DE=-8.04D-05 OVMax= 1.02D-03

 Cycle   7  Pass 1  IDiag  1:
 RMSU=  4.34D-05    CP:  7.05D-01  5.57D-01  9.70D-01  6.50D-01  7.50D-01
                    CP:  6.77D-01
 E= -557.462992247709     Delta-E=       -0.000011847149 Rises=F Damp=F
 DIIS: error= 1.93D-05 at cycle   7 NSaved=   7.
 NSaved= 7 IEnMin= 7 EnMin= -557.462992247709     IErMin= 7 ErrMin= 1.93D-05
 ErrMax= 1.93D-05  0.00D+00 EMaxC= 1.00D-01 BMatC= 3.05D-07 BMatP= 1.30D-05
 IDIUse=1 WtCom= 1.00D+00 WtEn= 0.00D+00
 Coeff-Com: -0.138D-02 0.202D-02 0.150D-01 0.444D-01 0.127D+00 0.210D+00
 Coeff-Com:  0.603D+00
 Coeff:     -0.138D-02 0.202D-02 0.150D-01 0.444D-01 0.127D+00 0.210D+00
 Coeff:      0.603D+00
 Gap=     0.159 Goal=   None    Shift=    0.000
 RMSDP=1.23D-05 MaxDP=4.64D-04 DE=-1.18D-05 OVMax= 2.00D-04

 Cycle   8  Pass 1  IDiag  1:
 RMSU=  8.39D-06    CP:  7.05D-01  5.57D-01  9.70D-01  6.49D-01  7.55D-01
                    CP:  6.75D-01  8.48D-01
 E= -557.462992500622     Delta-E=       -0.000000252914 Rises=F Damp=F
 DIIS: error= 8.17D-06 at cycle   8 NSaved=   8.
 NSaved= 8 IEnMin= 8 EnMin= -557.462992500622     IErMin= 8 ErrMin= 8.17D-06
 ErrMax= 8.17D-06  0.00D+00 EMaxC= 1.00D-01 BMatC= 4.59D-08 BMatP= 3.05D-07
 IDIUse=1 WtCom= 1.00D+00 WtEn= 0.00D+00
 Coeff-Com: -0.630D-04-0.109D-03-0.169D-03 0.230D-02 0.121D-01 0.250D-01
 Coeff-Com:  0.293D+00 0.668D+00
 Coeff:     -0.630D-04-0.109D-03-0.169D-03 0.230D-02 0.121D-01 0.250D-01
 Coeff:      0.293D+00 0.668D+00
 Gap=     0.159 Goal=   None    Shift=    0.000
 RMSDP=6.78D-06 MaxDP=4.17D-04 DE=-2.53D-07 OVMax= 9.19D-05

 Cycle   9  Pass 1  IDiag  1:
 RMSU=  3.17D-06    CP:  7.05D-01  5.57D-01  9.70D-01  6.51D-01  7.58D-01
                    CP:  6.77D-01  9.04D-01  7.34D-01
 E= -557.462992544357     Delta-E=       -0.000000043734 Rises=F Damp=F
 DIIS: error= 2.76D-06 at cycle   9 NSaved=   9.
 NSaved= 9 IEnMin= 9 EnMin= -557.462992544357     IErMin= 9 ErrMin= 2.76D-06
 ErrMax= 2.76D-06  0.00D+00 EMaxC= 1.00D-01 BMatC= 2.84D-09 BMatP= 4.59D-08
 IDIUse=1 WtCom= 1.00D+00 WtEn= 0.00D+00
 Coeff-Com:  0.243D-04-0.123D-03-0.705D-03-0.830D-03 0.284D-03 0.136D-02
 Coeff-Com:  0.105D+00 0.304D+00 0.592D+00
 Coeff:      0.243D-04-0.123D-03-0.705D-03-0.830D-03 0.284D-03 0.136D-02
 Coeff:      0.105D+00 0.304D+00 0.592D+00
 Gap=     0.159 Goal=   None    Shift=    0.000
 RMSDP=1.26D-06 MaxDP=5.14D-05 DE=-4.37D-08 OVMax= 3.41D-05

 Cycle  10  Pass 1  IDiag  1:
 RMSU=  7.78D-07    CP:  7.05D-01  5.57D-01  9.70D-01  6.51D-01  7.58D-01
                    CP:  6.77D-01  9.11D-01  7.93D-01  8.95D-01
 E= -557.462992546803     Delta-E=       -0.000000002447 Rises=F Damp=F
 DIIS: error= 1.36D-06 at cycle  10 NSaved=  10.
 NSaved=10 IEnMin=10 EnMin= -557.462992546803     IErMin=10 ErrMin= 1.36D-06
 ErrMax= 1.36D-06  0.00D+00 EMaxC= 1.00D-01 BMatC= 6.60D-10 BMatP= 2.84D-09
 IDIUse=1 WtCom= 1.00D+00 WtEn= 0.00D+00
 Coeff-Com:  0.271D-04-0.561D-04-0.438D-03-0.992D-03-0.200D-02-0.390D-02
 Coeff-Com:  0.140D-01 0.707D-01 0.351D+00 0.572D+00
 Coeff:      0.271D-04-0.561D-04-0.438D-03-0.992D-03-0.200D-02-0.390D-02
 Coeff:      0.140D-01 0.707D-01 0.351D+00 0.572D+00
 Gap=     0.159 Goal=   None    Shift=    0.000
 RMSDP=3.48D-07 MaxDP=1.20D-05 DE=-2.45D-09 OVMax= 1.00D-05

 Cycle  11  Pass 1  IDiag  1:
 RMSU=  1.63D-07    CP:  7.05D-01  5.57D-01  9.70D-01  6.51D-01  7.58D-01
                    CP:  6.77D-01  9.14D-01  7.84D-01  9.29D-01  7.22D-01
 E= -557.462992547497     Delta-E=       -0.000000000694 Rises=F Damp=F
 DIIS: error= 3.13D-07 at cycle  11 NSaved=  11.
 NSaved=11 IEnMin=11 EnMin= -557.462992547497     IErMin=11 ErrMin= 3.13D-07
 ErrMax= 3.13D-07  0.00D+00 EMaxC= 1.00D-01 BMatC= 2.87D-11 BMatP= 6.60D-10
 IDIUse=1 WtCom= 1.00D+00 WtEn= 0.00D+00
 Coeff-Com:  0.128D-04-0.232D-04-0.196D-03-0.473D-03-0.103D-02-0.209D-02
 Coeff-Com:  0.221D-02 0.213D-01 0.153D+00 0.282D+00 0.546D+00
 Coeff:      0.128D-04-0.232D-04-0.196D-03-0.473D-03-0.103D-02-0.209D-02
 Coeff:      0.221D-02 0.213D-01 0.153D+00 0.282D+00 0.546D+00
 Gap=     0.159 Goal=   None    Shift=    0.000
 RMSDP=8.37D-08 MaxDP=4.59D-06 DE=-6.94D-10 OVMax= 2.50D-06

 Cycle  12  Pass 1  IDiag  1:
 RMSU=  6.06D-08    CP:  7.05D-01  5.57D-01  9.70D-01  6.51D-01  7.58D-01
                    CP:  6.77D-01  9.14D-01  7.86D-01  9.25D-01  7.29D-01
                    CP:  9.32D-01
 E= -557.462992547521     Delta-E=       -0.000000000024 Rises=F Damp=F
 DIIS: error= 9.11D-08 at cycle  12 NSaved=  12.
 NSaved=12 IEnMin=12 EnMin= -557.462992547521     IErMin=12 ErrMin= 9.11D-08
 ErrMax= 9.11D-08  0.00D+00 EMaxC= 1.00D-01 BMatC= 4.29D-12 BMatP= 2.87D-11
 IDIUse=1 WtCom= 1.00D+00 WtEn= 0.00D+00
 Coeff-Com:  0.129D-05-0.770D-06-0.184D-04-0.561D-04-0.153D-03-0.377D-03
 Coeff-Com: -0.161D-02-0.284D-02 0.140D-01 0.329D-01 0.289D+00 0.669D+00
 Coeff:      0.129D-05-0.770D-06-0.184D-04-0.561D-04-0.153D-03-0.377D-03
 Coeff:     -0.161D-02-0.284D-02 0.140D-01 0.329D-01 0.289D+00 0.669D+00
 Gap=     0.159 Goal=   None    Shift=    0.000
 RMSDP=4.27D-08 MaxDP=2.45D-06 DE=-2.42D-11 OVMax= 6.79D-07

 Cycle  13  Pass 1  IDiag  1:
 RMSU=  1.78D-08    CP:  7.05D-01  5.57D-01  9.70D-01  6.51D-01  7.58D-01
                    CP:  6.77D-01  9.14D-01  7.86D-01  9.33D-01  7.42D-01
                    CP:  9.56D-01  7.98D-01
 E= -557.462992547532     Delta-E=       -0.000000000011 Rises=F Damp=F
 DIIS: error= 2.88D-08 at cycle  13 NSaved=  13.
 NSaved=13 IEnMin=13 EnMin= -557.462992547532     IErMin=13 ErrMin= 2.88D-08
 ErrMax= 2.88D-08  0.00D+00 EMaxC= 1.00D-01 BMatC= 4.48D-13 BMatP= 4.29D-12
 IDIUse=1 WtCom= 1.00D+00 WtEn= 0.00D+00
 Coeff-Com:  0.315D-07 0.810D-06-0.746D-06-0.673D-05-0.289D-04-0.103D-03
 Coeff-Com: -0.918D-03-0.247D-02 0.921D-03 0.334D-02 0.139D+00 0.383D+00
 Coeff-Com:  0.477D+00
 Coeff:      0.315D-07 0.810D-06-0.746D-06-0.673D-05-0.289D-04-0.103D-03
 Coeff:     -0.918D-03-0.247D-02 0.921D-03 0.334D-02 0.139D+00 0.383D+00
 Coeff:      0.477D+00
 Gap=     0.159 Goal=   None    Shift=    0.000
 RMSDP=7.09D-09 MaxDP=2.07D-07 DE=-1.08D-11 OVMax= 2.57D-07

 Error on total polarization charges =  0.04722
 SCF Done:  E(RB3LYP) =  -557.462992548     A.U. after   13 cycles
            NFock= 13  Conv=0.71D-08     -V/T= 2.0099
 KE= 5.519851719794D+02 PE=-2.787463726914D+03 EE= 9.232566689288D+02
 SMD-CDS (non-electrostatic) energy       (kcal/mol) =      -2.19
 (included in total energy above)
 Leave Link  502 at Wed Jul 29 14:33:53 2026, MaxMem=  4026531840 cpu:             198.3 elap:              25.0
 (Enter /opt/packages/gaussian/g16RevC.01/g16/l801.exe)
 DoSCS=F DFT=T ScalE2(SS,OS)=  1.000000  1.000000
 ExpMin= 4.38D-02 ExpMax= 5.48D+03 ExpMxC= 8.25D+02 IAcc=3 IRadAn=         5 AccDes= 0.00D+00
 HarFok:  IExCor=  205 AccDes= 0.00D+00 IRadAn=         5 IDoV=-2 UseB2=F ITyADJ=14
 ICtDFT= 12500011 ScaDFX=  1.000000  1.000000  1.000000  1.000000
 Largest valence mixing into a core orbital is  5.41D-05
 Largest core mixing into a valence orbital is  1.15D-05
 Range of M.O.s used for correlation:    14   273
 NBasis=   275 NAE=    47 NBE=    47 NFC=    13 NFV=     0
 NROrb=    260 NOA=    34 NOB=    34 NVA=   226 NVB=   226

 **** Warning!!: The largest alpha MO coefficient is  0.13020069D+03

 Leave Link  801 at Wed Jul 29 14:33:53 2026, MaxMem=  4026531840 cpu:               0.7 elap:               0.1
 (Enter /opt/packages/gaussian/g16RevC.01/g16/l914.exe)
 RHF ground state
 Keep R1, R2, and R3 ints in memory in canonical form, NReq=2278855055.
 FoFCou: FMM=F IPFlag=           0 FMFlag=           0 FMFlg1=           0
         NFxFlg=           0 DoJE=F BraDBF=F KetDBF=F FulRan=T
         wScrn=  0.000000 ICntrl=       600 IOpCl=  0 I1Cent=           0 NGrid=           0
         NMat0=    1 NMatS0=  37950 NMatT0=    0 NMatD0=    1 NMtDS0=    0 NMtDT0=    0
 Symmetry not used in FoFCou.
 Two-electron integral symmetry not used.
 MDV=  4026531840 DFT=T DoStab=F Mixed=T DoRPA=T DoScal=F NonHer=T
 NEqPCM:  Using non-equilibrium solvation (IEInf=1, Eps=  35.6880, EpsInf=   1.8069)
 Inv3:  Mode=1 IEnd=    11560107.
 Iteration    1 A*A^-1 deviation from unit magnitude is 3.55D-15 for   1832.
 Iteration    1 A*A^-1 deviation from orthogonality  is 2.70D-15 for    950    497.
 Iteration    1 A^-1*A deviation from unit magnitude is 3.33D-15 for   1832.
 Iteration    1 A^-1*A deviation from orthogonality  is 1.57D-15 for    879    473.
 Making orbital integer symmetry assigments:
 Orbital symmetries:
       Occupied  (A) (A) (A) (A) (A) (A) (A) (A) (A) (A) (A) (A)
                 (A) (A) (A) (A) (A) (A) (A) (A) (A) (A) (A) (A)
                 (A) (A) (A) (A) (A) (A) (A) (A) (A) (A) (A) (A)
                 (A) (A) (A) (A) (A) (A) (A) (A) (A) (A) (A)
       Virtual   (A) (A) (A) (A) (A) (A) (A) (A) (A) (A) (A) (A)
                 (A) (A) (A) (A) (A) (A) (A) (A) (A) (A) (A) (A)
                 (A) (A) (A) (A) (A) (A) (A) (A) (A) (A) (A) (A)
                 (A) (A) (A) (A) (A) (A) (A) (A) (A) (A) (A) (A)
                 (A) (A) (A) (A) (A) (A) (A) (A) (A) (A) (A) (A)
                 (A) (A) (A) (A) (A) (A) (A) (A) (A) (A) (A) (A)
                 (A) (A) (A) (A) (A) (A) (A) (A) (A) (A) (A) (A)
                 (A) (A) (A) (A) (A) (A) (A) (A) (A) (A) (A) (A)
                 (A) (A) (A) (A) (A) (A) (A) (A) (A) (A) (A) (A)
                 (A) (A) (A) (A) (A) (A) (A) (A) (A) (A) (A) (A)
                 (A) (A) (A) (A) (A) (A) (A) (A) (A) (A) (A) (A)
                 (A) (A) (A) (A) (A) (A) (A) (A) (A) (A) (A) (A)
                 (A) (A) (A) (A) (A) (A) (A) (A) (A) (A) (A) (A)
                 (A) (A) (A) (A) (A) (A) (A) (A) (A) (A) (A) (A)
                 (A) (A) (A) (A) (A) (A) (A) (A) (A) (A) (A) (A)
                 (A) (A) (A) (A) (A) (A) (A) (A) (A) (A) (A) (A)
                 (A) (A) (A) (A) (A) (A) (A) (A) (A) (A) (A) (A)
                 (A) (A) (A) (A) (A) (A) (A) (A) (A) (A) (A) (A)
                 (A) (A) (A) (A) (A) (A) (A) (A) (A) (A)
    40 initial guesses have been made.
 Convergence on wavefunction:    0.001000000000000
 Davidson Disk Diagonalization:  ConvIn= 1.00D-03 SkipCon=T Conv= 1.00D-03.
 Max sub-space:  2000 roots to seek:    40 dimension of matrix:        15368
 Iteration     1 Dimension    40 NMult     0 NNew     40
 CISAX will form    40 AO SS matrices at one time.
 NMat=    40 NSing=    40 JSym2X= 0.
 New state      4 was old state      7
 New state      6 was old state      4
 New state      7 was old state      9
 New state      9 was old state     11
 New state     10 was old state     15
 Excitation Energies [eV] at current iteration:
 Root      1 :     4.578286576514336
 Root      2 :     4.633251934593318
 Root      3 :     5.658481147362318
 Root      4 :     6.005777550919717
 Root      5 :     6.067037668784932
 Root      6 :     6.101108605167407
 Root      7 :     6.480930907053759
 Root      8 :     6.619626605370887
 Root      9 :     6.649532842834102
 Root     10 :     6.706888725958517
 Root     11 :     6.807757906880116
 Root     12 :     6.834093818853267
 Root     13 :     6.881999941394096
 Root     14 :     6.952569867497965
 Root     15 :     6.987680323134327
 Root     16 :     6.998509855265493
 Root     17 :     7.111506936862080
 Root     18 :     7.160331286739424
 Root     19 :     7.350287011837644
 Root     20 :     7.371532264723329
 Root     21 :     7.394612602605851
 Root     22 :     7.450280552511913
 Root     23 :     7.470058533498155
 Root     24 :     7.484283644394562
 Root     25 :     7.515483870458272
 Root     26 :     7.588835349783335
 Root     27 :     7.650649759105960
 Root     28 :     7.697217888681005
 Root     29 :     7.794066657235277
 Root     30 :     7.867103221386650
 Root     31 :     7.892910610120367
 Root     32 :     7.923660630175720
 Root     33 :     8.011809033949831
 Root     34 :     8.043033003885187
 Root     35 :     8.076023352457455
 Root     36 :     8.171602328066232
 Root     37 :     8.190402526940069
 Root     38 :     8.331731259468601
 Root     39 :     8.556097117595352
 Root     40 :     8.736011349418087
 Iteration     2 Dimension    60 NMult    40 NNew     20
 CISAX will form    20 AO SS matrices at one time.
 NMat=    20 NSing=    20 JSym2X= 0.
 Root      1 not converged, maximum delta is    0.382114893879269
 Root      2 not converged, maximum delta is    0.365333544366219
 Root      3 not converged, maximum delta is    0.104944354071138
 New state      4 was old state      6
 Root      4 not converged, maximum delta is    0.312604767616825
 New state      5 was old state      4
 Root      5 not converged, maximum delta is    0.112290629131438
 New state      6 was old state      5
 Root      6 not converged, maximum delta is    0.270290906950404
 New state      7 was old state      8
 Root      7 not converged, maximum delta is    0.236521411956284
 New state      8 was old state      7
 Root      8 not converged, maximum delta is    0.028177149288605
 Root      9 not converged, maximum delta is    0.104024593731239
 Root     10 not converged, maximum delta is    0.225044614172368
 Excitation Energies [eV] at current iteration:
 Root      1 :     4.080918972953336   Change is   -0.497367603561000
 Root      2 :     4.417392547664109   Change is   -0.215859386929209
 Root      3 :     5.354231030371293   Change is   -0.304250116991024
 Root      4 :     5.766334892095919   Change is   -0.334773713071488
 Root      5 :     5.961449386619021   Change is   -0.044328164300696
 Root      6 :     6.054950929800616   Change is   -0.012086738984316
 Root      7 :     6.315755193835901   Change is   -0.303871411534986
 Root      8 :     6.459553710429720   Change is   -0.021377196624039
 Root      9 :     6.627183492111094   Change is   -0.022349350723008
 Root     10 :     6.642667659424255   Change is   -0.064221066534262
 Iteration     3 Dimension    80 NMult    60 NNew     20
 CISAX will form    20 AO SS matrices at one time.
 NMat=    20 NSing=    20 JSym2X= 0.
 Root      1 not converged, maximum delta is    0.012912557156836
 Root      2 not converged, maximum delta is    0.003960806368712
 Root      3 not converged, maximum delta is    0.004823013783184
 Root      4 not converged, maximum delta is    0.023195866391252
 Root      5 not converged, maximum delta is    0.004097685100173
 Root      6 not converged, maximum delta is    0.003887569890435
 Root      7 not converged, maximum delta is    0.054798703315601
 Root      8 not converged, maximum delta is    0.029463901109232
 Root      9 not converged, maximum delta is    0.572951767751693
 No map to state     10
 Excitation Energies [eV] at current iteration:
 Root      1 :     4.058666185291665   Change is   -0.022252787661671
 Root      2 :     4.411422655077516   Change is   -0.005969892586593
 Root      3 :     5.341559552972525   Change is   -0.012671477398769
 Root      4 :     5.742501919941304   Change is   -0.023832972154615
 Root      5 :     5.959914573207246   Change is   -0.001534813411775
 Root      6 :     6.054472450918195   Change is   -0.000478478882421
 Root      7 :     6.299847642175720   Change is   -0.015907551660181
 Root      8 :     6.458393865869986   Change is   -0.001159844559734
 Root      9 :     6.604723883911811   Change is   -0.022459608199282
 Root     10 :     6.627244272968988
 Iteration     4 Dimension   100 NMult    80 NNew     20
 CISAX will form    20 AO SS matrices at one time.
 NMat=    20 NSing=    20 JSym2X= 0.
 Root      1 not converged, maximum delta is    0.001158984686514
 Root      2 has converged.
 Root      3 not converged, maximum delta is    0.001555398730793
 Root      4 not converged, maximum delta is    0.003528354089177
 Root      5 has converged.
 Root      6 not converged, maximum delta is    0.001187658097237
 Root      7 not converged, maximum delta is    0.053911049421394
 New state      8 was old state      9
 Root      8 not converged, maximum delta is    0.162564062921371
 New state      9 was old state      8
 Root      9 not converged, maximum delta is    0.137259541041827
 Root     10 not converged, maximum delta is    0.096750755526232
 Excitation Energies [eV] at current iteration:
 Root      1 :     4.057147284918448   Change is   -0.001518900373218
 Root      2 :     4.411149560094550   Change is   -0.000273094982965
 Root      3 :     5.340734235997212   Change is   -0.000825316975313
 Root      4 :     5.740144518491514   Change is   -0.002357401449791
 Root      5 :     5.959774018453551   Change is   -0.000140554753695
 Root      6 :     6.054428914381724   Change is   -0.000043536536471
 Root      7 :     6.295851681359773   Change is   -0.003995960815947
 Root      8 :     6.428235023021696   Change is   -0.176488860890116
 Root      9 :     6.460802135226576   Change is    0.002408269356589
 Root     10 :     6.626318409096560   Change is   -0.000925863872429
 Iteration     5 Dimension   116 NMult   100 NNew     16
 CISAX will form    16 AO SS matrices at one time.
 NMat=    16 NSing=    16 JSym2X= 0.
 Root      1 has converged.
 Root      2 has converged.
 Root      3 has converged.
 Root      4 has converged.
 Root      5 has converged.
 Root      6 has converged.
 Root      7 not converged, maximum delta is    0.012768905221263
 Root      8 not converged, maximum delta is    0.061047325412469
 Root      9 not converged, maximum delta is    0.036459331838853
 Root     10 not converged, maximum delta is    0.003111147772747
 Excitation Energies [eV] at current iteration:
 Root      1 :     4.057073889421632   Change is   -0.000073395496815
 Root      2 :     4.411141253031940   Change is   -0.000008307062611
 Root      3 :     5.340668000863485   Change is   -0.000066235133727
 Root      4 :     5.739964809043764   Change is   -0.000179709447749
 Root      5 :     5.959771584196942   Change is   -0.000002434256609
 Root      6 :     6.054424929018672   Change is   -0.000003985363052
 Root      7 :     6.295244308180234   Change is   -0.000607373179540
 Root      8 :     6.413486203018874   Change is   -0.014748820002821
 Root      9 :     6.460071651502092   Change is   -0.000730483724483
 Root     10 :     6.626289489687412   Change is   -0.000028919409147
 Iteration     6 Dimension   124 NMult   116 NNew      8
 CISAX will form     8 AO SS matrices at one time.
 NMat=     8 NSing=     8 JSym2X= 0.
 Root      1 has converged.
 Root      2 has converged.
 Root      3 has converged.
 Root      4 has converged.
 Root      5 has converged.
 Root      6 has converged.
 Root      7 not converged, maximum delta is    0.001087516319203
 Root      8 not converged, maximum delta is    0.003516319962293
 Root      9 not converged, maximum delta is    0.002033083133180
 Root     10 has converged.
 Excitation Energies [eV] at current iteration:
 Root      1 :     4.057073642033948   Change is   -0.000000247387684
 Root      2 :     4.411140527101669   Change is   -0.000000725930270
 Root      3 :     5.340667735553051   Change is   -0.000000265310434
 Root      4 :     5.739963445900208   Change is   -0.000001363143557
 Root      5 :     5.959771364538825   Change is   -0.000000219658118
 Root      6 :     6.054424849142933   Change is   -0.000000079875739
 Root      7 :     6.295186666132768   Change is   -0.000057642047465
 Root      8 :     6.412308423381904   Change is   -0.001177779636971
 Root      9 :     6.460033013804642   Change is   -0.000038637697450
 Root     10 :     6.626286634697026   Change is   -0.000002854990387
 Iteration     7 Dimension   130 NMult   124 NNew      6
 CISAX will form     6 AO SS matrices at one time.
 NMat=     6 NSing=     6 JSym2X= 0.
 Root      1 has converged.
 Root      2 has converged.
 Root      3 has converged.
 Root      4 has converged.
 Root      5 has converged.
 Root      6 has converged.
 Root      7 has converged.
 Root      8 has converged.
 Root      9 has converged.
 Root     10 has converged.
 Excitation Energies [eV] at current iteration:
 Root      1 :     4.057073586935142   Change is   -0.000000055098806
 Root      2 :     4.411140314528262   Change is   -0.000000212573408
 Root      3 :     5.340667716072891   Change is   -0.000000019480160
 Root      4 :     5.739963212555204   Change is   -0.000000233345004
 Root      5 :     5.959771179937273   Change is   -0.000000184601551
 Root      6 :     6.054424838100444   Change is   -0.000000011042489
 Root      7 :     6.295180180686819   Change is   -0.000006485445949
 Root      8 :     6.412171242005162   Change is   -0.000137181376741
 Root      9 :     6.460028643109233   Change is   -0.000004370695409
 Root     10 :     6.626286529390875   Change is   -0.000000105306151
 Convergence achieved on expansion vectors.
 ***********************************************************************
 Excited states from <AA,BB:AA,BB> singles matrix:
 ***********************************************************************
 
 1PDM for each excited state written to RWF  633
 Ground to excited state transition densities written to RWF  633
 Ground to excited state transition electric dipole moments (Au):
       state          X           Y           Z        Dip. S.      Osc.
         1        -2.6641     -0.1389     -0.0324      7.1177      0.7075
         2        -0.0757      0.3457     -0.0116      0.1254      0.0135
         3         0.0515      0.8503     -0.0217      0.7261      0.0950
         4         0.5807      0.6299     -0.0011      0.7341      0.1032
         5        -0.0192     -0.0238      0.0240      0.0015      0.0002
         6         0.0206      0.0431      0.0955      0.0114      0.0017
         7         0.7467     -0.2086      0.0228      0.6016      0.0928
         8         1.1512     -0.0441     -0.0350      1.3284      0.2087
         9        -0.1725      0.0213     -0.3117      0.1274      0.0202
        10         0.0224     -0.0096     -0.0139      0.0008      0.0001
 Ground to excited state transition velocity dipole moments (Au):
       state          X           Y           Z        Dip. S.      Osc.
         1         0.3842      0.0195      0.0049      0.1480      0.6619
         2         0.0126     -0.0551      0.0019      0.0032      0.0131
         3        -0.0080     -0.1676      0.0042      0.0282      0.0957
         4        -0.1237     -0.1279     -0.0000      0.0317      0.1000
         5         0.0043      0.0052     -0.0043      0.0001      0.0002
         6        -0.0043     -0.0094     -0.0238      0.0007      0.0020
         7        -0.1707      0.0484     -0.0053      0.0315      0.0908
         8        -0.2610      0.0100      0.0076      0.0683      0.1932
         9         0.0398     -0.0055      0.0669      0.0061      0.0171
        10        -0.0061      0.0025      0.0076      0.0001      0.0003
 Ground to excited state transition magnetic dipole moments (Au):
       state          X           Y           Z
         1         0.0038     -0.0141     -0.1474
         2        -0.0071      0.0193      0.6862
         3        -0.0010      0.0176      0.2377
         4         0.0223      0.0230     -0.0330
         5         0.1647      0.1044     -0.0018
         6        -0.0473     -0.4008     -0.0450
         7        -0.0034      0.0304     -0.1886
         8        -0.0386      0.0560      0.2034
         9        -0.1949      0.2574     -0.0945
        10        -0.1268      0.2090     -0.0206
 Ground to excited state transition velocity quadrupole moments (Au):
       state          XX          YY          ZZ          XY          XZ          YZ
         1        -0.2320      0.0264      0.0190      0.1015      0.0262      0.0034
         2         0.0935     -0.0520     -0.0151      0.0375      0.0036      0.0006
         3         0.3993     -0.1784      0.0152      0.5809     -0.0141      0.0082
         4        -1.3460      0.1137      0.0307     -0.5528     -0.0662     -0.0585
         5         0.0645     -0.0049     -0.0073      0.0419     -0.0169      0.0387
         6        -0.0700     -0.0035      0.0291     -0.0231      0.2903      0.0046
         7        -1.1397      0.1206      0.0238     -0.0108     -0.0257      0.0261
         8         0.2613      0.1075      0.0616     -0.1657     -0.0554     -0.0368
         9        -0.1012     -0.0299      0.0304     -0.0127     -0.2766     -0.1203
        10        -0.1107      0.0050      0.0055      0.0208     -0.1885     -0.2055
 <0|del|b> * <b|rxdel|0> + <0|del|b> * <b|delr+rdel|0>
 Rotatory Strengths (R) in cgs (10**-40 erg-esu-cm/Gauss)
       state          XX          YY          ZZ    R(velocity)    E-M Angle
         1        -2.4001      3.6387      0.8910      0.7099       89.55
         2         1.1745      2.5613     -2.9633      0.2575       89.74
         3        -3.3235     -2.7260     -0.9307     -2.3267       92.78
         4       -19.1275      7.5088     -7.4804     -6.3663      134.10
         5         0.7466      1.7042      1.6072      1.3527       36.34
         6        12.9344      1.1212      2.0120      5.3559       61.33
         7         5.7653     -4.4752      8.0623      3.1175       84.83
         8         2.0970     33.7054      0.7181     12.1735       77.46
         9       -15.0160    -26.8541     -4.2687    -15.3796      126.17
        10         1.4295      2.5040     -0.6276      1.1019       62.53
 1/2[<0|r|b>*<b|rxdel|0> + (<0|rxdel|b>*<b|r|0>)*]
 Rotatory Strengths (R) in cgs (10**-40 erg-esu-cm/Gauss)
       state          XX          YY          ZZ     R(length)
         1         7.0809     -1.3850     -3.3742      0.7739
         2        -0.3806     -4.7191      5.6281      0.1761
         3         0.0348    -10.5939      3.6536     -2.3019
         4        -9.1442    -10.2518     -0.0265     -6.4742
         5         2.2359      1.7559      0.0310      1.3409
         6         0.6902     12.2188      3.0384      5.3158
         7         1.8151      4.4912      3.0355      3.1139
         8        31.4183      1.7450      5.0312     12.7315
         9       -23.7688     -3.8698    -20.8307    -16.1564
        10         2.0099      1.4195     -0.2027      1.0756
  1/2[<0|del|b>*<b|r|0> + (<0|r|b>*<b|del|0>)*] (Au)
       state          X           Y           Z        Dip. S.   Osc.(frdel)
         1        -1.0236     -0.0027     -0.0002      1.0265      0.6843
         2        -0.0010     -0.0190     -0.0000      0.0200      0.0133
         3        -0.0004     -0.1425     -0.0001      0.1430      0.0953
         4        -0.0718     -0.0806      0.0000      0.1524      0.1016
         5        -0.0001     -0.0001     -0.0001      0.0003      0.0002
         6        -0.0001     -0.0004     -0.0023      0.0028      0.0018
         7        -0.1275     -0.0101     -0.0001      0.1377      0.0918
         8        -0.3005     -0.0004     -0.0003      0.3012      0.2008
         9        -0.0069     -0.0001     -0.0208      0.0278      0.0186
        10        -0.0001     -0.0000     -0.0001      0.0003      0.0002

 Excitation energies and oscillator strengths:
 
 Excited State   1:      Singlet-A      4.0571 eV  305.60 nm  f=0.7075  <S**2>=0.000
      47 -> 48         0.70108
 This state for optimization and/or second-order correction.
 Total Energy, E(TD-HF/TD-DFT) =  -557.313897837    
 Copying the excited state density for this state as the 1-particle RhoCI density.
 
 Excited State   2:      Singlet-A      4.4111 eV  281.07 nm  f=0.0135  <S**2>=0.000
      46 -> 48         0.66878
      47 -> 49        -0.22289
 
 Excited State   3:      Singlet-A      5.3407 eV  232.15 nm  f=0.0950  <S**2>=0.000
      45 -> 48        -0.11089
      46 -> 48         0.21597
      46 -> 52         0.12416
      47 -> 49         0.64595
 
 Excited State   4:      Singlet-A      5.7400 eV  216.00 nm  f=0.1032  <S**2>=0.000
      45 -> 48         0.67888
 
 Excited State   5:      Singlet-A      5.9598 eV  208.04 nm  f=0.0002  <S**2>=0.000
      41 -> 48         0.13006
      44 -> 48         0.68838
 
 Excited State   6:      Singlet-A      6.0544 eV  204.78 nm  f=0.0017  <S**2>=0.000
      47 -> 50         0.68742
      47 -> 51        -0.12346
 
 Excited State   7:      Singlet-A      6.2952 eV  196.95 nm  f=0.0928  <S**2>=0.000
      43 -> 48         0.65372
      46 -> 49         0.20879
 
 Excited State   8:      Singlet-A      6.4122 eV  193.36 nm  f=0.2087  <S**2>=0.000
      43 -> 48        -0.21931
      46 -> 49         0.51729
      47 -> 51         0.22613
      47 -> 52        -0.34135
 
 Excited State   9:      Singlet-A      6.4600 eV  191.93 nm  f=0.0202  <S**2>=0.000
      47 -> 50         0.12274
      47 -> 51         0.59761
      47 -> 52         0.27943
      47 -> 54        -0.17563
 
 Excited State  10:      Singlet-A      6.6263 eV  187.11 nm  f=0.0001  <S**2>=0.000
      41 -> 48        -0.10973
      42 -> 48        -0.17043
      47 -> 53         0.59317
      47 -> 54         0.26601
      47 -> 55        -0.10399
 SavETr:  write IOETrn=   770 NScale= 10 NData=  16 NLR=1 NState=   10 LETran=     190.
 Leave Link  914 at Wed Jul 29 14:35:33 2026, MaxMem=  4026531840 cpu:             798.8 elap:             100.4
 (Enter /opt/packages/gaussian/g16RevC.01/g16/l601.exe)
 Copying SCF densities to generalized density rwf, IOpCl= 0 IROHF=0.

 **********************************************************************

            Population analysis using the SCF Density.

 **********************************************************************

 Orbital symmetries:
       Occupied  (A) (A) (A) (A) (A) (A) (A) (A) (A) (A) (A) (A)
                 (A) (A) (A) (A) (A) (A) (A) (A) (A) (A) (A) (A)
                 (A) (A) (A) (A) (A) (A) (A) (A) (A) (A) (A) (A)
                 (A) (A) (A) (A) (A) (A) (A) (A) (A) (A) (A)
       Virtual   (A) (A) (A) (A) (A) (A) (A) (A) (A) (A) (A) (A)
                 (A) (A) (A) (A) (A) (A) (A) (A) (A) (A) (A) (A)
                 (A) (A) (A) (A) (A) (A) (A) (A) (A) (A) (A) (A)
                 (A) (A) (A) (A) (A) (A) (A) (A) (A) (A) (A) (A)
                 (A) (A) (A) (A) (A) (A) (A) (A) (A) (A) (A) (A)
                 (A) (A) (A) (A) (A) (A) (A) (A) (A) (A) (A) (A)
                 (A) (A) (A) (A) (A) (A) (A) (A) (A) (A) (A) (A)
                 (A) (A) (A) (A) (A) (A) (A) (A) (A) (A) (A) (A)
                 (A) (A) (A) (A) (A) (A) (A) (A) (A) (A) (A) (A)
                 (A) (A) (A) (A) (A) (A) (A) (A) (A) (A) (A) (A)
                 (A) (A) (A) (A) (A) (A) (A) (A) (A) (A) (A) (A)
                 (A) (A) (A) (A) (A) (A) (A) (A) (A) (A) (A) (A)
                 (A) (A) (A) (A) (A) (A) (A) (A) (A) (A) (A) (A)
                 (A) (A) (A) (A) (A) (A) (A) (A) (A) (A) (A) (A)
                 (A) (A) (A) (A) (A) (A) (A) (A) (A) (A) (A) (A)
                 (A) (A) (A) (A) (A) (A) (A) (A) (A) (A) (A) (A)
                 (A) (A) (A) (A) (A) (A) (A) (A) (A) (A) (A) (A)
                 (A) (A) (A) (A) (A) (A) (A) (A) (A) (A) (A) (A)
                 (A) (A) (A) (A) (A) (A) (A) (A) (A) (A)
 The electronic state is 1-A.
 Alpha  occ. eigenvalues --  -19.20534 -14.42042 -10.29777 -10.28050 -10.23889
 Alpha  occ. eigenvalues --  -10.23838 -10.22567 -10.22231 -10.22173 -10.21160
 Alpha  occ. eigenvalues --  -10.20835 -10.20834 -10.20043  -1.08641  -1.01145
 Alpha  occ. eigenvalues --   -0.88050  -0.80510  -0.80106  -0.77311  -0.75017
 Alpha  occ. eigenvalues --   -0.70740  -0.64300  -0.63379  -0.61472  -0.61272
 Alpha  occ. eigenvalues --   -0.56672  -0.53775  -0.51301  -0.49996  -0.47763
 Alpha  occ. eigenvalues --   -0.47679  -0.46091  -0.44488  -0.43812  -0.43142
 Alpha  occ. eigenvalues --   -0.42395  -0.41554  -0.40570  -0.38918  -0.38202
 Alpha  occ. eigenvalues --   -0.37328  -0.36972  -0.34515  -0.34211  -0.32044
 Alpha  occ. eigenvalues --   -0.27839  -0.24707
 Alpha virt. eigenvalues --   -0.08813  -0.02878   0.00190   0.01612   0.01790
 Alpha virt. eigenvalues --    0.02204   0.02809   0.03128   0.03496   0.04088
 Alpha virt. eigenvalues --    0.04833   0.05178   0.05384   0.06275   0.07134
 Alpha virt. eigenvalues --    0.07510   0.07676   0.08312   0.09381   0.09996
 Alpha virt. eigenvalues --    0.10994   0.11174   0.11702   0.11905   0.12743
 Alpha virt. eigenvalues --    0.12949   0.13061   0.13572   0.14172   0.14403
 Alpha virt. eigenvalues --    0.14947   0.15350   0.16077   0.16518   0.16667
 Alpha virt. eigenvalues --    0.16947   0.18045   0.18449   0.18792   0.19341
 Alpha virt. eigenvalues --    0.20015   0.20040   0.20401   0.21346   0.21678
 Alpha virt. eigenvalues --    0.22538   0.23004   0.23443   0.23786   0.24154
 Alpha virt. eigenvalues --    0.24410   0.25511   0.26018   0.26154   0.26702
 Alpha virt. eigenvalues --    0.26954   0.27172   0.27997   0.28200   0.29043
 Alpha virt. eigenvalues --    0.29898   0.30193   0.30591   0.30980   0.31681
 Alpha virt. eigenvalues --    0.32206   0.32971   0.33082   0.34469   0.35160
 Alpha virt. eigenvalues --    0.35677   0.36522   0.38252   0.38883   0.39591
 Alpha virt. eigenvalues --    0.42614   0.44106   0.44179   0.45327   0.47338
 Alpha virt. eigenvalues --    0.56878   0.59270   0.62340   0.64947   0.65460
 Alpha virt. eigenvalues --    0.66834   0.67251   0.68216   0.68502   0.68870
 Alpha virt. eigenvalues --    0.69901   0.70459   0.71123   0.71588   0.71802
 Alpha virt. eigenvalues --    0.72706   0.73394   0.74739   0.75998   0.77216
 Alpha virt. eigenvalues --    0.77721   0.79366   0.82122   0.83004   0.84082
 Alpha virt. eigenvalues --    0.87839   0.89226   0.91607   0.92209   0.93216
 Alpha virt. eigenvalues --    0.94215   0.94857   0.95798   0.96641   0.98364
 Alpha virt. eigenvalues --    0.98545   0.99861   1.02893   1.04701   1.05074
 Alpha virt. eigenvalues --    1.06709   1.08170   1.08792   1.09342   1.11242
 Alpha virt. eigenvalues --    1.12481   1.13855   1.15203   1.15833   1.18097
 Alpha virt. eigenvalues --    1.20273   1.20527   1.21711   1.22730   1.24591
 Alpha virt. eigenvalues --    1.27678   1.28000   1.29430   1.32378   1.35370
 Alpha virt. eigenvalues --    1.35863   1.39196   1.40811   1.41910   1.43707
 Alpha virt. eigenvalues --    1.44203   1.45357   1.48305   1.49751   1.52317
 Alpha virt. eigenvalues --    1.53560   1.56937   1.60331   1.63285   1.71169
 Alpha virt. eigenvalues --    1.72501   1.75129   1.80012   1.81483   1.81664
 Alpha virt. eigenvalues --    1.83409   1.84938   1.87005   1.90975   1.92090
 Alpha virt. eigenvalues --    1.94300   1.94738   1.96219   1.98840   1.99857
 Alpha virt. eigenvalues --    2.01652   2.03046   2.05507   2.06826   2.08646
 Alpha virt. eigenvalues --    2.09325   2.10721   2.13864   2.14567   2.16631
 Alpha virt. eigenvalues --    2.18286   2.18825   2.22304   2.23977   2.28283
 Alpha virt. eigenvalues --    2.29463   2.29687   2.31333   2.34341   2.38852
 Alpha virt. eigenvalues --    2.39642   2.43233   2.47479   2.50393   2.52937
 Alpha virt. eigenvalues --    2.54997   2.55805   2.60403   2.62488   2.64195
 Alpha virt. eigenvalues --    2.66350   2.70229   2.73956   2.77472   2.79386
 Alpha virt. eigenvalues --    2.81906   2.85385   2.88281   3.02024   3.04214
 Alpha virt. eigenvalues --    3.11687   3.24731   3.42069   4.09427   4.23022
 Alpha virt. eigenvalues --    4.24204   4.25687   4.28444   4.32024   4.35704
 Alpha virt. eigenvalues --    4.38295   4.42261   4.49386   4.57057   4.63477
 Alpha virt. eigenvalues --    4.79258
          Condensed to atoms (all electrons):
               1          2          3          4          5          6
     1  C    7.099185   0.457084  -0.105148  -0.891213  -0.568428   0.024201
     2  C    0.457084   7.327893   1.431705  -0.918762  -0.104027  -2.141570
     3  C   -0.105148   1.431705  10.289419   2.645300  -5.223369   0.472162
     4  C   -0.891213  -0.918762   2.645300  12.549242  -5.530798   1.439568
     5  C   -0.568428  -0.104027  -5.223369  -5.530798  16.192076  -3.690325
     6  C    0.024201  -2.141570   0.472162   1.439568  -3.690325  11.926805
     7  H   -0.061045  -0.002720   0.001233   0.032956  -0.029411   0.368086
     8  H   -0.053569   0.321390  -0.011758   0.045732  -0.013982   0.021967
     9  H    0.015806  -0.028731   0.301396  -0.049697   0.038396  -0.030677
    10  H    0.017821  -0.006151  -0.000889  -0.066703   0.322068  -0.028138
    11  O    0.438368   0.135001   0.022701  -0.026079   0.001955  -0.571626
    12  C   -0.159170  -0.132680   0.009726  -0.017584   0.002537   0.119323
    13  H   -0.070956   0.047902   0.014350   0.002190  -0.001565  -0.007202
    14  H   -0.059821   0.038452   0.009190   0.000899   0.000044  -0.002507
    15  H    0.038645  -0.048892  -0.006678  -0.001042   0.001186   0.024596
    16  C   -0.146535  -0.046824  -1.568765  -1.798936   3.305141  -1.238027
    17  C   -0.025298  -0.052906  -1.054107  -1.396679   0.825550  -0.288988
    18  N   -0.021113  -0.051452  -0.111403   0.153544  -0.028983   0.190942
    19  C   -0.000909  -0.006756  -0.028837  -0.052543  -0.052275  -0.007074
    20  C   -0.000349  -0.001900  -0.150341  -0.046090   0.174710   0.005871
    21  H   -0.000333   0.003832   0.017801  -0.020006  -0.013179   0.004095
    22  H   -0.001287  -0.007825  -0.040119   0.009768   0.017355   0.004535
    23  H   -0.000196  -0.000679  -0.006676  -0.014419   0.007606   0.001541
    24  H    0.000035  -0.000052   0.001212   0.004409  -0.003424   0.000005
    25  H   -0.000075  -0.001069  -0.010984  -0.000833   0.009439   0.000804
    26  H    0.000064   0.000466   0.003842   0.000731  -0.001631  -0.000317
    27  H    0.003362  -0.004438  -0.047106  -0.117040   0.111537   0.038092
               7          8          9         10         11         12
     1  C   -0.061045  -0.053569   0.015806   0.017821   0.438368  -0.159170
     2  C   -0.002720   0.321390  -0.028731  -0.006151   0.135001  -0.132680
     3  C    0.001233  -0.011758   0.301396  -0.000889   0.022701   0.009726
     4  C    0.032956   0.045732  -0.049697  -0.066703  -0.026079  -0.017584
     5  C   -0.029411  -0.013982   0.038396   0.322068   0.001955   0.002537
     6  C    0.368086   0.021967  -0.030677  -0.028138  -0.571626   0.119323
     7  H    0.468695  -0.000108   0.000012  -0.004092  -0.004071  -0.001973
     8  H   -0.000108   0.468381  -0.003973   0.000013  -0.011405  -0.000387
     9  H    0.000012  -0.003973   0.471140  -0.000108  -0.000617   0.000560
    10  H   -0.004092   0.000013  -0.000108   0.478842  -0.000419   0.000452
    11  O   -0.004071  -0.011405  -0.000617  -0.000419   8.463604   0.066319
    12  C   -0.001973  -0.000387   0.000560   0.000452   0.066319   5.318732
    13  H    0.000002  -0.000844   0.000003   0.000000  -0.031822   0.387747
    14  H    0.000002  -0.000847   0.000003   0.000000  -0.032259   0.386912
    15  H   -0.000008   0.000136  -0.000000  -0.000000  -0.052572   0.393286
    16  C   -0.003687  -0.000362   0.032065   0.030267  -0.001652   0.000062
    17  C   -0.000056   0.001566   0.011358   0.017444  -0.000516  -0.000187
    18  N    0.000287   0.000097   0.000083  -0.000259   0.000029  -0.000308
    19  C    0.000089   0.000017   0.001755   0.005086  -0.000034   0.000140
    20  C   -0.000000  -0.000079  -0.000315  -0.000926   0.000072  -0.000213
    21  H   -0.000000   0.000001   0.000296   0.000001  -0.000000  -0.000017
    22  H   -0.000000  -0.000000  -0.000948  -0.000003   0.000000  -0.000006
    23  H    0.000000   0.000000  -0.000000  -0.000004   0.000000  -0.000000
    24  H    0.000000   0.000000   0.000000   0.000002   0.000000   0.000000
    25  H    0.000000   0.000000  -0.000007  -0.000000   0.000000  -0.000000
    26  H    0.000000  -0.000000   0.000001   0.000000  -0.000000   0.000000
    27  H   -0.000001   0.000000   0.000001   0.004814  -0.000001   0.000002
              13         14         15         16         17         18
     1  C   -0.070956  -0.059821   0.038645  -0.146535  -0.025298  -0.021113
     2  C    0.047902   0.038452  -0.048892  -0.046824  -0.052906  -0.051452
     3  C    0.014350   0.009190  -0.006678  -1.568765  -1.054107  -0.111403
     4  C    0.002190   0.000899  -0.001042  -1.798936  -1.396679   0.153544
     5  C   -0.001565   0.000044   0.001186   3.305141   0.825550  -0.028983
     6  C   -0.007202  -0.002507   0.024596  -1.238027  -0.288988   0.190942
     7  H    0.000002   0.000002  -0.000008  -0.003687  -0.000056   0.000287
     8  H   -0.000844  -0.000847   0.000136  -0.000362   0.001566   0.000097
     9  H    0.000003   0.000003  -0.000000   0.032065   0.011358   0.000083
    10  H    0.000000   0.000000  -0.000000   0.030267   0.017444  -0.000259
    11  O   -0.031822  -0.032259  -0.052572  -0.001652  -0.000516   0.000029
    12  C    0.387747   0.386912   0.393286   0.000062  -0.000187  -0.000308
    13  H    0.483995  -0.036417  -0.025431   0.000476   0.000007   0.000000
    14  H   -0.036417   0.483782  -0.025444   0.000045  -0.000031  -0.000000
    15  H   -0.025431  -0.025444   0.467476  -0.000129  -0.000003   0.000000
    16  C    0.000476   0.000045  -0.000129   7.467707  -0.846339   0.278921
    17  C    0.000007  -0.000031  -0.000003  -0.846339   9.160561  -0.319978
    18  N    0.000000  -0.000000   0.000000   0.278921  -0.319978   7.008019
    19  C    0.000003  -0.000001  -0.000000  -0.524589   0.462976   0.109441
    20  C   -0.000009   0.000006   0.000000   0.355635  -0.921985  -0.061660
    21  H   -0.000000   0.000000   0.000000  -0.083874   0.415074   0.008746
    22  H    0.000000  -0.000000   0.000000  -0.030338   0.360836   0.005665
    23  H   -0.000000   0.000000   0.000000  -0.024156   0.022296  -0.035254
    24  H    0.000000  -0.000000   0.000000  -0.012669   0.039246  -0.036363
    25  H    0.000000  -0.000000   0.000000   0.025919  -0.109683   0.012685
    26  H   -0.000000   0.000000  -0.000000   0.026636  -0.075953   0.005884
    27  H    0.000000  -0.000000  -0.000000  -0.001761  -0.002101   0.253126
              19         20         21         22         23         24
     1  C   -0.000909  -0.000349  -0.000333  -0.001287  -0.000196   0.000035
     2  C   -0.006756  -0.001900   0.003832  -0.007825  -0.000679  -0.000052
     3  C   -0.028837  -0.150341   0.017801  -0.040119  -0.006676   0.001212
     4  C   -0.052543  -0.046090  -0.020006   0.009768  -0.014419   0.004409
     5  C   -0.052275   0.174710  -0.013179   0.017355   0.007606  -0.003424
     6  C   -0.007074   0.005871   0.004095   0.004535   0.001541   0.000005
     7  H    0.000089  -0.000000  -0.000000  -0.000000   0.000000   0.000000
     8  H    0.000017  -0.000079   0.000001  -0.000000   0.000000   0.000000
     9  H    0.001755  -0.000315   0.000296  -0.000948  -0.000000   0.000000
    10  H    0.005086  -0.000926   0.000001  -0.000003  -0.000004   0.000002
    11  O   -0.000034   0.000072  -0.000000   0.000000   0.000000   0.000000
    12  C    0.000140  -0.000213  -0.000017  -0.000006  -0.000000   0.000000
    13  H    0.000003  -0.000009  -0.000000   0.000000  -0.000000   0.000000
    14  H   -0.000001   0.000006   0.000000  -0.000000   0.000000  -0.000000
    15  H   -0.000000   0.000000   0.000000   0.000000   0.000000   0.000000
    16  C   -0.524589   0.355635  -0.083874  -0.030338  -0.024156  -0.012669
    17  C    0.462976  -0.921985   0.415074   0.360836   0.022296   0.039246
    18  N    0.109441  -0.061660   0.008746   0.005665  -0.035254  -0.036363
    19  C    6.058542  -0.367099   0.022317   0.010193   0.419623   0.427239
    20  C   -0.367099   6.835903  -0.035409  -0.021992  -0.055965  -0.092075
    21  H    0.022317  -0.035409   0.439820  -0.024555  -0.000194  -0.000036
    22  H    0.010193  -0.021992  -0.024555   0.434992   0.001097  -0.000170
    23  H    0.419623  -0.055965  -0.000194   0.001097   0.461393  -0.031532
    24  H    0.427239  -0.092075  -0.000036  -0.000170  -0.031532   0.457672
    25  H   -0.082680   0.477483  -0.005586   0.003032   0.003051  -0.005784
    26  H   -0.062026   0.430384   0.001144  -0.004810  -0.003824   0.001571
    27  H   -0.023613   0.015757  -0.000095  -0.000225   0.000029  -0.000787
              25         26         27
     1  C   -0.000075   0.000064   0.003362
     2  C   -0.001069   0.000466  -0.004438
     3  C   -0.010984   0.003842  -0.047106
     4  C   -0.000833   0.000731  -0.117040
     5  C    0.009439  -0.001631   0.111537
     6  C    0.000804  -0.000317   0.038092
     7  H    0.000000   0.000000  -0.000001
     8  H    0.000000  -0.000000   0.000000
     9  H   -0.000007   0.000001   0.000001
    10  H   -0.000000   0.000000   0.004814
    11  O    0.000000  -0.000000  -0.000001
    12  C   -0.000000   0.000000   0.000002
    13  H    0.000000  -0.000000   0.000000
    14  H   -0.000000   0.000000  -0.000000
    15  H    0.000000  -0.000000  -0.000000
    16  C    0.025919   0.026636  -0.001761
    17  C   -0.109683  -0.075953  -0.002101
    18  N    0.012685   0.005884   0.253126
    19  C   -0.082680  -0.062026  -0.023613
    20  C    0.477483   0.430384   0.015757
    21  H   -0.005586   0.001144  -0.000095
    22  H    0.003032  -0.004810  -0.000225
    23  H    0.003051  -0.003824   0.000029
    24  H   -0.005784   0.001571  -0.000787
    25  H    0.462027  -0.025474  -0.000168
    26  H   -0.025474   0.459129  -0.000074
    27  H   -0.000168  -0.000074   0.279706
 Mulliken charges:
               1
     1  C    0.070875
     2  C   -0.206293
     3  C   -0.853861
     4  C    0.064086
     5  C    0.251795
     6  C   -0.636142
     7  H    0.235811
     8  H    0.238014
     9  H    0.242197
    10  H    0.230884
    11  O   -0.394977
    12  C   -0.373273
    13  H    0.237570
    14  H    0.237992
    15  H    0.234875
    16  C    0.805771
    17  C   -0.222101
    18  N   -0.360695
    19  C   -0.308985
    20  C   -0.539414
    21  H    0.270157
    22  H    0.284805
    23  H    0.256262
    24  H    0.251500
    25  H    0.247906
    26  H    0.244258
    27  H    0.490984
 Sum of Mulliken charges =   1.00000
 Mulliken charges with hydrogens summed into heavy atoms:
               1
     1  C    0.070875
     2  C    0.031722
     3  C   -0.611664
     4  C    0.064086
     5  C    0.482679
     6  C   -0.400331
    11  O   -0.394977
    12  C    0.337164
    16  C    0.805771
    17  C    0.332861
    18  N    0.130288
    19  C    0.198777
    20  C   -0.047250
 Electronic spatial extent (au):  <R**2>=           3395.5939
 Charge=              1.0000 electrons
 Dipole moment (field-independent basis, Debye):
    X=              6.6251    Y=             -0.3130    Z=              0.3374  Tot=              6.6410
 Quadrupole moment (field-independent basis, Debye-Ang):
   XX=            -23.8642   YY=            -58.9798   ZZ=            -77.5716
   XY=             12.0248   XZ=              0.8239   YZ=             -0.2412
 Traceless Quadrupole moment (field-independent basis, Debye-Ang):
   XX=             29.6076   YY=             -5.5079   ZZ=            -24.0997
   XY=             12.0248   XZ=              0.8239   YZ=             -0.2412
 Octapole moment (field-independent basis, Debye-Ang**2):
  XXX=             33.0276  YYY=             14.6788  ZZZ=              0.7117  XYY=             13.3970
  XXY=            -22.1872  XXZ=              3.4438  XZZ=              7.5831  YZZ=             -2.4222
  YYZ=              0.0364  XYZ=             -0.3270
 Hexadecapole moment (field-independent basis, Debye-Ang**3):
 XXXX=          -2828.2962 YYYY=           -477.1953 ZZZZ=           -114.2400 XXXY=            203.1926
 XXXZ=             11.1518 YYYX=             29.6771 YYYZ=             -1.5745 ZZZX=              1.9768
 ZZZY=              0.5348 XXYY=           -637.9575 XXZZ=           -636.5505 YYZZ=           -114.7851
 XXYZ=             -4.1380 YYXZ=              1.3767 ZZXY=              3.5578
 N-N= 7.547588934579D+02 E-N=-2.787463729375D+03  KE= 5.519851719794D+02
 Leave Link  601 at Wed Jul 29 14:35:33 2026, MaxMem=  4026531840 cpu:               0.2 elap:               0.0
 (Enter /opt/packages/gaussian/g16RevC.01/g16/l9999.exe)
 Electronic transition elements 
                 1             2             3             4             5 
      1  -0.557314D+03 -0.557301D+03 -0.557267D+03 -0.557252D+03 -0.557244D+03
      2  -0.266409D+01 -0.757036D-01  0.514780D-01  0.580732D+00 -0.191972D-01
      3  -0.138942D+00  0.345690D+00  0.850280D+00  0.629930D+00 -0.237870D-01
      4  -0.323734D-01 -0.115981D-01 -0.217346D-01 -0.113311D-02  0.239971D-01
      5   0.384213D+00  0.125571D-01 -0.802701D-02 -0.123659D+00  0.426624D-02
      6   0.195409D-01 -0.550508D-01 -0.167594D+00 -0.127924D+00  0.523387D-02
      7   0.488259D-02  0.193683D-02  0.423984D-02 -0.122944D-04 -0.429231D-02
      8   0.375856D-02 -0.710968D-02 -0.954660D-03  0.222664D-01  0.164697D+00
      9  -0.140965D-01  0.193043D-01  0.176187D-01  0.230137D-01  0.104384D+00
     10  -0.147389D+00  0.686211D+00  0.237709D+00 -0.330422D-01 -0.182644D-02
     11  -0.232019D+00  0.935032D-01  0.399277D+00 -0.134595D+01  0.644529D-01
     12   0.264113D-01 -0.520072D-01 -0.178362D+00  0.113741D+00 -0.494317D-02
     13   0.189946D-01 -0.150897D-01  0.152494D-01  0.307429D-01 -0.730608D-02
     14   0.101470D+00  0.375126D-01  0.580916D+00 -0.552781D+00  0.419182D-01
     15   0.262212D-01  0.362295D-02 -0.140988D-01 -0.662446D-01 -0.168532D-01
     16   0.339737D-02  0.568897D-03  0.817971D-02 -0.585436D-01  0.387259D-01
                 6             7             8             9            10 
      1  -0.557240D+03 -0.557232D+03 -0.557227D+03 -0.557226D+03 -0.557219D+03
      2   0.206319D-01  0.746701D+00  0.115120D+01 -0.172452D+00  0.224201D-01
      3   0.431142D-01 -0.208593D+00 -0.441031D-01  0.212619D-01 -0.960570D-02
      4   0.954583D-01  0.227568D-01 -0.349716D-01 -0.311737D+00 -0.139405D-01
      5  -0.432633D-02 -0.170741D+00 -0.261030D+00  0.398458D-01 -0.613420D-02
      6  -0.943189D-02  0.483504D-01  0.998795D-02 -0.546080D-02  0.247214D-02
      7  -0.237898D-01 -0.530445D-02  0.755326D-02  0.668596D-01  0.758136D-02
      8  -0.473026D-01 -0.343737D-02 -0.385931D-01 -0.194902D+00 -0.126770D+00
      9  -0.400764D+00  0.304465D-01  0.559517D-01  0.257376D+00  0.208965D+00
     10  -0.450095D-01 -0.188626D+00  0.203439D+00 -0.944919D-01 -0.205603D-01
     11  -0.699549D-01 -0.113974D+01  0.261284D+00 -0.101219D+00 -0.110668D+00
     12  -0.350311D-02  0.120635D+00  0.107466D+00 -0.299071D-01  0.504248D-02
     13   0.290781D-01  0.237506D-01  0.615825D-01  0.304005D-01  0.548076D-02
     14  -0.231183D-01 -0.107874D-01 -0.165720D+00 -0.126905D-01  0.208202D-01
     15   0.290338D+00 -0.256926D-01 -0.554454D-01 -0.276579D+00 -0.188461D+00
     16   0.460237D-02  0.261115D-01 -0.367792D-01 -0.120341D+00 -0.205500D+00
 Unable to Open any file for archive entry.
 1\1\GINC-R064\SP\RB3LYP TD-FC\6-31+G(d)\C11H14N1O1(1+)\ZLAB\29-Jul-202
 6\0\\#p TD(NStates=10) B3LYP/6-31+G(d) SCRF=(SMD,Solvent=Acetonitrile)
 \\Vertical excitation energies (absorption spectrum)\\1,1\C,0,-2.48750
 1,0.26569,-0.010587\C,0,-1.852886,-0.987152,0.030918\C,0,-0.46409,-1.0
 4718,0.04039\C,0,0.326122,0.121074,0.012445\C,0,-0.336055,1.375128,-0.
 023348\C,0,-1.714653,1.446406,-0.036564\H,0,-2.222364,2.405993,-0.0661
 76\H,0,-2.425733,-1.906837,0.052829\H,0,0.00818,-2.023323,0.072114\H,0
 ,0.222998,2.305942,-0.040421\O,0,-3.82643,0.443003,-0.028071\C,0,-4.69
 0037,-0.708558,-0.005756\H,0,-4.535018,-1.288816,0.909734\H,0,-4.52110
 7,-1.333557,-0.888797\H,0,-5.703819,-0.306633,-0.023793\C,0,1.76689,0.
 000758,0.02605\C,0,2.544816,-1.290426,0.085367\N,0,2.605038,1.005884,0
 .022069\C,0,4.029927,0.6353,0.102501\C,0,3.995989,-0.864752,-0.227752\
 H,0,2.154999,-2.035644,-0.612187\H,0,2.440343,-1.701901,1.098897\H,0,4
 .386156,0.846545,1.117214\H,0,4.603765,1.237905,-0.605165\H,0,4.207547
 ,-1.017421,-1.290746\H,0,4.729189,-1.427546,0.353825\H,0,2.319911,1.98
 2357,0.030771\\Version=ES64L-G16RevC.01\State=1-A\HF=-557.4629925\RMSD
 =7.090e-09\PG=C01 [X(C11H14N1O1)]\\@
 The archive entry for this job was punched.


 THE GREAT THING ABOUT BEING IMPERFECT IS THE JOY IT BRINGS OTHERS.
   -- SIGN OUTSIDE LAKE AGASSIZ JR. HIGH SCHOOL, FARGO, N.D.
 Job cpu time:       0 days  0 hours 16 minutes 49.3 seconds.
 Elapsed time:       0 days  0 hours  2 minutes  7.2 seconds.
 File lengths (MBytes):  RWF=    686 Int=      0 D2E=      0 Chk=     52 Scr=      1
 Normal termination of Gaussian 16 at Wed Jul 29 14:35:33 2026.
