31
	Energy: -421664.5803647
C          2.05946       -0.50560       -0.02210
C          1.21738       -1.61599       -0.07159
C         -0.17092       -1.48270       -0.07094
C         -0.82469       -0.20428       -0.01047
C          0.00677        0.91107        0.03490
C          1.43148        0.79292        0.02681
O          2.04470        1.96593        0.06994
H          1.64231       -2.61203       -0.11806
H         -0.76044       -2.39276       -0.12679
H         -0.38844        1.92043        0.08430
O          3.40600       -0.54633       -0.01334
C          4.06516       -1.82513       -0.04707
H          3.81346       -2.35991       -0.96944
H          3.78580       -2.42078        0.82901
H          5.13100       -1.59656       -0.02313
C         -2.25664       -0.04730        0.01272
C         -3.03234        1.23712       -0.04646
N         -3.12054       -1.10554        0.07823
C         -4.50873       -0.66283        0.25881
C         -4.47709        0.75856       -0.32326
H         -2.66205        1.92624       -0.81506
H         -2.97079        1.77327        0.91560
H         -4.76703       -0.65661        1.32823
H         -5.19754       -1.33689       -0.25871
H         -4.65600        0.72031       -1.40397
H         -5.23387        1.40635        0.12704
H         -2.83337       -2.00576        0.45101
C          3.47735        2.18535        0.05955
H          3.92689        1.72240        0.93964
H          3.57854        3.26948        0.09174
H          3.90662        1.77744       -0.85715
