31
	Energy: -421674.1609966
C          2.06502       -0.51565       -0.10214
C          1.23856       -1.63656        0.06960
C         -0.14353       -1.48558        0.10135
C         -0.74284       -0.21902       -0.04741
C          0.09914        0.90800       -0.21393
C          1.47251        0.76939       -0.23495
O          2.27446        1.86860       -0.45343
H          1.66801       -2.62600        0.17477
H         -0.75635       -2.37122        0.23209
H         -0.29997        1.91176       -0.32605
O          3.40941       -0.55287       -0.16196
C          4.08297       -1.82157       -0.05409
H          3.77884       -2.48808       -0.86772
H          3.87955       -2.28366        0.91743
H          5.14490       -1.58845       -0.14081
C         -2.18544       -0.10774       -0.03784
C         -3.15682       -1.23915        0.18466
N         -2.85343        0.99575       -0.25631
C         -4.32112        0.85126       -0.24910
C         -4.50974       -0.52734        0.40277
H         -2.86020       -1.87301        1.02382
H         -3.15796       -1.86715       -0.71709
H         -4.67786        0.89264       -1.28447
H         -4.76631        1.67711        0.31030
H         -4.70074       -0.41047        1.47419
H         -5.34422       -1.07661       -0.03817
H         -2.41551        1.88351       -0.49238
C          2.80095        2.48547        0.74266
H          1.98135        2.86597        1.36351
H          3.42568        3.31442        0.40313
H          3.40582        1.77407        1.31534
