31
	Energy: -421418.7945235
C         -1.97699       -0.51249        0.02355
C         -1.08330       -1.58764        0.09924
C          0.26885       -1.34649        0.08258
C          0.79811       -0.01260       -0.04314
C         -0.08983        1.05265       -0.11281
C         -1.46228        0.85412       -0.06651
O         -2.20690        1.94220       -0.12805
H         -1.46030       -2.59940        0.17661
H          0.96303       -2.17725        0.15406
H          0.27530        2.06977       -0.20458
O         -3.27817       -0.63740        0.02039
C         -3.89686       -1.93805        0.08670
H         -3.62589       -2.42797        1.02408
H         -3.59095       -2.53565       -0.77442
H         -4.96628       -1.73977        0.05454
C          2.23951        0.18598       -0.10227
C          3.13849       -0.41292       -1.14748
N          2.94913        0.25015        1.09515
C          4.39495        0.13167        0.85240
C          4.51984        0.07497       -0.67626
H          2.89168       -0.08003       -2.15975
H          3.09193       -1.51490       -1.14522
H          4.76913       -0.78524        1.32044
H          4.93290        0.97773        1.28845
H          4.70611        1.07813       -1.07329
H          5.33365       -0.57798       -1.00168
H          2.63433        0.89563        1.80926
C         -3.64535        2.01694       -0.03460
H         -4.10706        1.51961       -0.88706
H         -3.85333        3.08571       -0.05998
H         -3.98833        1.58540        0.90544
