27
	Energy: -349808.4666800
C         -2.49299        0.24573       -0.01302
C         -1.86807       -1.01974        0.08508
C         -0.48864       -1.09600        0.09636
C          0.33488        0.09247       -0.00734
C         -0.32006        1.35515       -0.11112
C         -1.69679        1.43681       -0.10663
H         -2.20633        2.39313       -0.17497
H         -2.45883       -1.92668        0.15002
H         -0.02485       -2.07211        0.19176
H          0.26672        2.26376       -0.19373
O         -3.81445        0.45310       -0.03216
C         -4.72981       -0.65468        0.06659
H         -4.57132       -1.18669        1.01089
H         -4.58849       -1.33237       -0.78258
H         -5.72312       -0.20798        0.03907
C          1.77516        0.02663       -0.01769
C          2.74979        1.16550        0.03588
N          2.45388       -1.14984       -0.09624
C          3.89658       -0.95994       -0.22069
C          4.09479        0.46002        0.33413
H          2.48566        1.91447        0.79137
H          2.77947        1.68955       -0.93456
H          4.18846       -1.03039       -1.28188
H          4.43516       -1.73986        0.32786
H          4.26028        0.41442        1.41625
H          4.94874        0.96446       -0.12454
H          2.01786       -2.03139       -0.35332
