27
	Energy: -349811.5400012
C         -2.48750        0.26569       -0.01059
C         -1.85289       -0.98715        0.03092
C         -0.46409       -1.04718        0.04039
C          0.32612        0.12107        0.01244
C         -0.33605        1.37513       -0.02335
C         -1.71465        1.44641       -0.03656
H         -2.22236        2.40599       -0.06618
H         -2.42573       -1.90684        0.05283
H          0.00818       -2.02332        0.07211
H          0.22300        2.30594       -0.04042
O         -3.82643        0.44300       -0.02807
C         -4.69004       -0.70856       -0.00576
H         -4.53502       -1.28882        0.90973
H         -4.52111       -1.33356       -0.88880
H         -5.70382       -0.30663       -0.02379
C          1.76689        0.00076        0.02605
C          2.54482       -1.29043        0.08537
N          2.60504        1.00588        0.02207
C          4.02993        0.63530        0.10250
C          3.99599       -0.86475       -0.22775
H          2.15500       -2.03564       -0.61219
H          2.44034       -1.70190        1.09890
H          4.38616        0.84654        1.11721
H          4.60377        1.23791       -0.60516
H          4.20755       -1.01742       -1.29075
H          4.72919       -1.42755        0.35383
H          2.31991        1.98236        0.03077
