27
	Energy: -349780.9093658
C          2.48528        0.23239        0.00925
C          1.77582       -1.00646       -0.05160
C          0.40408       -0.97414       -0.03845
C         -0.32321        0.25920        0.03372
C          0.40750        1.47965        0.09631
C          1.77882        1.47937        0.08251
H          2.35991        2.39464        0.12673
H          2.30973       -1.94774       -0.10802
H         -0.15296       -1.90495       -0.08639
H         -0.13840        2.41612        0.15559
O          3.79365        0.33959        0.00582
C          4.66166       -0.82453       -0.05836
H          4.47060       -1.37077       -0.98470
H          4.49134       -1.45283        0.81865
H          5.67025       -0.41501       -0.05123
C         -1.79940        0.26394        0.06364
C         -2.59707       -0.33706        1.19677
N         -2.49441        0.03123       -1.12595
C         -3.91517       -0.26872       -0.85337
C         -4.04283       -0.15523        0.67832
H         -2.42342        0.17070        2.15137
H         -2.36460       -1.40559        1.34660
H         -4.14212       -1.28222       -1.20518
H         -4.56890        0.42992       -1.38486
H         -4.40587        0.84217        0.95118
H         -4.73408       -0.89588        1.09203
H         -2.27268        0.59569       -1.93917
