35
-785.963752 Frame 1
C 2.3299 0.5429 0.6222
C 1.7614 -0.7543 0.3196
C 0.3940 -0.8856 0.2098
C -0.4717 0.2303 0.3901
C 0.0554 1.4820 0.6956
C 1.4343 1.6733 0.8132
O 1.8196 2.9158 1.0999
O 2.6566 -1.7455 0.1676
H -0.0407 -1.8477 -0.0318
H -0.5997 2.3350 0.8464
O 3.6079 0.8143 0.7409
C 4.7357 -0.1038 0.6420
H 4.7660 -0.5495 -0.3523
H 4.6557 -0.8680 1.4149
H 5.6021 0.5353 0.8107
C -1.9417 0.0577 0.2529
C -2.7805 -0.7721 1.1898
N -2.4903 -0.0360 -1.0287
C -3.8882 -0.5145 -0.9637
C -4.1808 -0.6398 0.5457
H -2.7533 -0.4015 2.2205
H -2.4625 -1.8304 1.2172
H -3.9588 -1.4848 -1.4710
H -4.5652 0.1806 -1.4707
H -4.6660 0.2745 0.9088
H -4.8355 -1.4874 0.7727
H -2.2744 0.6874 -1.7071
C 3.1727 3.4023 1.2866
H 3.6503 2.9014 2.1315
H 3.0382 4.4621 1.5061
H 3.7578 3.2750 0.3742
C 2.1849 -3.0852 -0.0614
H 1.5601 -3.4161 0.7749
H 3.0839 -3.6998 -0.1187
H 1.6337 -3.1471 -1.0060
