35
	Energy: -493528.1252806
C         -1.92565       -0.15349       -0.10937
C         -1.19311        1.08473        0.03345
C          0.23229        1.11289        0.03612
C          0.97040       -0.06685       -0.04571
C          0.22805       -1.29979       -0.12598
C         -1.16307       -1.33136       -0.15272
O         -1.80293       -2.54109       -0.29185
O         -1.93022        2.17188        0.17723
H          0.72820        2.07402        0.08516
H          0.73872       -2.25628       -0.17991
O         -3.26669       -0.26760       -0.09812
C         -4.13613        0.72497       -0.69673
H         -3.67890        1.14007       -1.59929
H         -4.36000        1.51692        0.02106
H         -5.04732        0.17945       -0.94977
C          2.40828       -0.02316       -0.06531
C          3.28712        1.18046        0.12526
N          3.18301       -1.12871       -0.25969
C          4.60405       -0.79035       -0.39453
C          4.68874        0.55981        0.33384
H          2.97471        1.80843        0.96794
H          3.26665        1.81943       -0.77321
H          4.86867       -0.69598       -1.45834
H          5.22842       -1.57208        0.04788
H          4.86693        0.39338        1.40232
H          5.49387        1.18871       -0.05482
H          2.82131       -1.97428       -0.69054
C         -2.23347       -3.15255        0.94633
H         -1.36711       -3.36943        1.58179
H         -2.72989       -4.08280        0.66271
H         -2.93631       -2.50130        1.47689
C         -1.34509        3.48004        0.39127
H         -0.74643        3.46937        1.30515
H         -2.19831        4.14863        0.49468
H         -0.73991        3.75708       -0.47552
