35
	Energy: -493532.3610536
C          1.83207        0.12958       -0.21024
C          1.13490       -1.09922       -0.16734
C         -0.25549       -1.11481       -0.13236
C         -1.00365        0.07671       -0.11480
C         -0.30870        1.30716       -0.12452
C          1.07267        1.33152       -0.16625
O          1.72785        2.54071       -0.24618
O          1.81598       -2.29859       -0.19161
H         -0.74337       -2.08339       -0.11815
H         -0.82128        2.26389       -0.11731
O          3.16704        0.29162       -0.26496
C          4.04792       -0.70499       -0.83521
H          3.63166       -1.09691       -1.76609
H          4.23776       -1.51258       -0.12604
H          4.97374       -0.16313       -1.03872
C         -2.45011       -0.00162       -0.09574
C         -3.26340       -1.27110       -0.10058
N         -3.25687        1.02683       -0.10589
C         -4.69376        0.69529       -0.14276
C         -4.69483       -0.79509        0.23053
H         -2.87800       -2.00729        0.60911
H         -3.19216       -1.71344       -1.10404
H         -5.06642        0.88840       -1.15511
H         -5.23265        1.33526        0.55952
H         -4.88771       -0.91152        1.30158
H         -5.45573       -1.35282       -0.31939
H         -2.94460        1.99417       -0.15383
C          2.21272        3.05770        1.01291
H          1.37325        3.24459        1.69296
H          2.71642        3.99762        0.77723
H          2.92143        2.36177        1.47436
C          2.05520       -2.87751        1.10913
H          2.65301       -2.19993        1.73007
H          2.60643       -3.80318        0.93000
H          1.10614       -3.10090        1.61042
