 Entering Gaussian System, Link 0=g16
 Initial command:
 /opt/packages/gaussian/g16RevC.01/g16/l1.exe "/ocean/projects/che200051p/zlab/tmp/Gau-69180.inp" -scrdir="/ocean/projects/che200051p/zlab/tmp/"
 Entering Link 1 = /opt/packages/gaussian/g16RevC.01/g16/l1.exe PID=     69181.
  
 Copyright (c) 1988-2019, Gaussian, Inc.  All Rights Reserved.
  
 This is part of the Gaussian(R) 16 program.  It is based on
 the Gaussian(R) 09 system (copyright 2009, Gaussian, Inc.),
 the Gaussian(R) 03 system (copyright 2003, Gaussian, Inc.),
 the Gaussian(R) 98 system (copyright 1998, Gaussian, Inc.),
 the Gaussian(R) 94 system (copyright 1995, Gaussian, Inc.),
 the Gaussian 92(TM) system (copyright 1992, Gaussian, Inc.),
 the Gaussian 90(TM) system (copyright 1990, Gaussian, Inc.),
 the Gaussian 88(TM) system (copyright 1988, Gaussian, Inc.),
 the Gaussian 86(TM) system (copyright 1986, Carnegie Mellon
 University), and the Gaussian 82(TM) system (copyright 1983,
 Carnegie Mellon University). Gaussian is a federally registered
 trademark of Gaussian, Inc.
  
 This software contains proprietary and confidential information,
 including trade secrets, belonging to Gaussian, Inc.
  
 This software is provided under written license and may be
 used, copied, transmitted, or stored only in accord with that
 written license.
  
 The following legend is applicable only to US Government
 contracts under FAR:
  
                    RESTRICTED RIGHTS LEGEND
  
 Use, reproduction and disclosure by the US Government is
 subject to restrictions as set forth in subparagraphs (a)
 and (c) of the Commercial Computer Software - Restricted
 Rights clause in FAR 52.227-19.
  
 Gaussian, Inc.
 340 Quinnipiac St., Bldg. 40, Wallingford CT 06492
  
  
 ---------------------------------------------------------------
 Warning -- This program may not be used in any manner that
 competes with the business of Gaussian, Inc. or will provide
 assistance to any competitor of Gaussian, Inc.  The licensee
 of this program is prohibited from giving any competitor of
 Gaussian, Inc. access to this program.  By using this program,
 the user acknowledges that Gaussian, Inc. is engaged in the
 business of creating and licensing software in the field of
 computational chemistry and represents and warrants to the
 licensee that it is not a competitor of Gaussian, Inc. and that
 it will not use this program in any manner prohibited above.
 ---------------------------------------------------------------
  

 Cite this work as:
 Gaussian 16, Revision C.01,
 M. J. Frisch, G. W. Trucks, H. B. Schlegel, G. E. Scuseria, 
 M. A. Robb, J. R. Cheeseman, G. Scalmani, V. Barone, 
 G. A. Petersson, H. Nakatsuji, X. Li, M. Caricato, A. V. Marenich, 
 J. Bloino, B. G. Janesko, R. Gomperts, B. Mennucci, H. P. Hratchian, 
 J. V. Ortiz, A. F. Izmaylov, J. L. Sonnenberg, D. Williams-Young, 
 F. Ding, F. Lipparini, F. Egidi, J. Goings, B. Peng, A. Petrone, 
 T. Henderson, D. Ranasinghe, V. G. Zakrzewski, J. Gao, N. Rega, 
 G. Zheng, W. Liang, M. Hada, M. Ehara, K. Toyota, R. Fukuda, 
 J. Hasegawa, M. Ishida, T. Nakajima, Y. Honda, O. Kitao, H. Nakai, 
 T. Vreven, K. Throssell, J. A. Montgomery, Jr., J. E. Peralta, 
 F. Ogliaro, M. J. Bearpark, J. J. Heyd, E. N. Brothers, K. N. Kudin, 
 V. N. Staroverov, T. A. Keith, R. Kobayashi, J. Normand, 
 K. Raghavachari, A. P. Rendell, J. C. Burant, S. S. Iyengar, 
 J. Tomasi, M. Cossi, J. M. Millam, M. Klene, C. Adamo, R. Cammi, 
 J. W. Ochterski, R. L. Martin, K. Morokuma, O. Farkas, 
 J. B. Foresman, and D. J. Fox, Gaussian, Inc., Wallingford CT, 2019.
 
 ******************************************
 Gaussian 16:  ES64L-G16RevC.01  3-Jul-2019
                29-Jul-2026 
 ******************************************
 %chk=dmp_s0_abs.chk
 %mem=30GB
 %nprocshared=8
 Will use up to    8 processors via shared memory.
 -----------------------------------------------------------------
 #p TD(NStates=10) B3LYP/6-31+G(d) SCRF=(SMD,Solvent=Acetonitrile)
 -----------------------------------------------------------------
 1/38=1,172=1/1;
 2/12=2,17=6,18=5,40=1/2;
 3/5=1,6=6,7=11,11=9,25=1,30=1,70=32201,72=2,74=-5/1,2,3,8;
 4//1;
 5/5=2,38=5,53=2/2;
 8/6=1,10=2,108=10/1;
 9/41=10,42=1,70=2/14;
 6/7=2,8=2,9=2,10=2/1;
 99/5=1,9=1/99;
 Leave Link    1 at Wed Jul 29 14:30:04 2026, MaxMem=  4026531840 cpu:               1.3 elap:               0.2
 (Enter /opt/packages/gaussian/g16RevC.01/g16/l101.exe)
 --------------------------------------------------
 Vertical excitation energies (absorption spectrum)
 --------------------------------------------------
 Symbolic Z-matrix:
 Charge =  1 Multiplicity = 1
 C                     2.06502  -0.51565  -0.10214 
 C                     1.23856  -1.63656   0.0696 
 C                    -0.14353  -1.48558   0.10135 
 C                    -0.74284  -0.21902  -0.04741 
 C                     0.09914   0.908    -0.21393 
 C                     1.47251   0.76939  -0.23495 
 O                     2.27446   1.8686   -0.45343 
 H                     1.66801  -2.626     0.17477 
 H                    -0.75635  -2.37122   0.23209 
 H                    -0.29997   1.91176  -0.32605 
 O                     3.40941  -0.55287  -0.16196 
 C                     4.08297  -1.82157  -0.05409 
 H                     3.77884  -2.48808  -0.86772 
 H                     3.87955  -2.28366   0.91743 
 H                     5.1449   -1.58845  -0.14081 
 C                    -2.18544  -0.10774  -0.03784 
 C                    -3.15682  -1.23915   0.18466 
 N                    -2.85343   0.99575  -0.25631 
 C                    -4.32112   0.85126  -0.2491 
 C                    -4.50974  -0.52734   0.40277 
 H                    -2.8602   -1.87301   1.02382 
 H                    -3.15796  -1.86715  -0.71709 
 H                    -4.67786   0.89264  -1.28447 
 H                    -4.76631   1.67711   0.3103 
 H                    -4.70074  -0.41047   1.47419 
 H                    -5.34422  -1.07661  -0.03817 
 H                    -2.41551   1.88351  -0.49238 
 C                     2.80095   2.48547   0.74266 
 H                     1.98135   2.86597   1.36351 
 H                     3.42568   3.31442   0.40313 
 H                     3.40582   1.77407   1.31534 
 
 ITRead=  0  0  0  0  0  0  0  0  0  0  0  0  0  0  0  0  0  0  0  0
 ITRead=  0  0  0  0  0  0  0  0  0  0  0
 MicOpt= -1 -1 -1 -1 -1 -1 -1 -1 -1 -1 -1 -1 -1 -1 -1 -1 -1 -1 -1 -1
 MicOpt= -1 -1 -1 -1 -1 -1 -1 -1 -1 -1 -1
 NAtoms=     31 NQM=       31 NQMF=       0 NMMI=      0 NMMIF=      0
                NMic=       0 NMicF=      0.
                    Isotopes and Nuclear Properties:
 (Nuclear quadrupole moments (NQMom) in fm**2, nuclear magnetic moments (NMagM)
  in nuclear magnetons)

  Atom         1           2           3           4           5           6           7           8           9          10
 IAtWgt=          12          12          12          12          12          12          16           1           1           1
 AtmWgt=  12.0000000  12.0000000  12.0000000  12.0000000  12.0000000  12.0000000  15.9949146   1.0078250   1.0078250   1.0078250
 NucSpn=           0           0           0           0           0           0           0           1           1           1
 AtZEff=  -0.0000000  -0.0000000  -0.0000000  -0.0000000  -0.0000000  -0.0000000  -0.0000000  -0.0000000  -0.0000000  -0.0000000
 NQMom=    0.0000000   0.0000000   0.0000000   0.0000000   0.0000000   0.0000000   0.0000000   0.0000000   0.0000000   0.0000000
 NMagM=    0.0000000   0.0000000   0.0000000   0.0000000   0.0000000   0.0000000   0.0000000   2.7928460   2.7928460   2.7928460
 AtZNuc=   6.0000000   6.0000000   6.0000000   6.0000000   6.0000000   6.0000000   8.0000000   1.0000000   1.0000000   1.0000000

  Atom        11          12          13          14          15          16          17          18          19          20
 IAtWgt=          16          12           1           1           1          12          12          14          12          12
 AtmWgt=  15.9949146  12.0000000   1.0078250   1.0078250   1.0078250  12.0000000  12.0000000  14.0030740  12.0000000  12.0000000
 NucSpn=           0           0           1           1           1           0           0           2           0           0
 AtZEff=  -0.0000000  -0.0000000  -0.0000000  -0.0000000  -0.0000000  -0.0000000  -0.0000000  -0.0000000  -0.0000000  -0.0000000
 NQMom=    0.0000000   0.0000000   0.0000000   0.0000000   0.0000000   0.0000000   0.0000000   2.0440000   0.0000000   0.0000000
 NMagM=    0.0000000   0.0000000   2.7928460   2.7928460   2.7928460   0.0000000   0.0000000   0.4037610   0.0000000   0.0000000
 AtZNuc=   8.0000000   6.0000000   1.0000000   1.0000000   1.0000000   6.0000000   6.0000000   7.0000000   6.0000000   6.0000000

  Atom        21          22          23          24          25          26          27          28          29          30
 IAtWgt=           1           1           1           1           1           1           1          12           1           1
 AtmWgt=   1.0078250   1.0078250   1.0078250   1.0078250   1.0078250   1.0078250   1.0078250  12.0000000   1.0078250   1.0078250
 NucSpn=           1           1           1           1           1           1           1           0           1           1
 AtZEff=  -0.0000000  -0.0000000  -0.0000000  -0.0000000  -0.0000000  -0.0000000  -0.0000000  -0.0000000  -0.0000000  -0.0000000
 NQMom=    0.0000000   0.0000000   0.0000000   0.0000000   0.0000000   0.0000000   0.0000000   0.0000000   0.0000000   0.0000000
 NMagM=    2.7928460   2.7928460   2.7928460   2.7928460   2.7928460   2.7928460   2.7928460   0.0000000   2.7928460   2.7928460
 AtZNuc=   1.0000000   1.0000000   1.0000000   1.0000000   1.0000000   1.0000000   1.0000000   6.0000000   1.0000000   1.0000000

  Atom        31
 IAtWgt=           1
 AtmWgt=   1.0078250
 NucSpn=           1
 AtZEff=  -0.0000000
 NQMom=    0.0000000
 NMagM=    2.7928460
 AtZNuc=   1.0000000
 Leave Link  101 at Wed Jul 29 14:30:04 2026, MaxMem=  4026531840 cpu:               0.5 elap:               0.1
 (Enter /opt/packages/gaussian/g16RevC.01/g16/l202.exe)
                          Input orientation:                          
 ---------------------------------------------------------------------
 Center     Atomic      Atomic             Coordinates (Angstroms)
 Number     Number       Type             X           Y           Z
 ---------------------------------------------------------------------
      1          6           0        2.065020   -0.515650   -0.102140
      2          6           0        1.238560   -1.636560    0.069600
      3          6           0       -0.143530   -1.485580    0.101350
      4          6           0       -0.742840   -0.219020   -0.047410
      5          6           0        0.099140    0.908000   -0.213930
      6          6           0        1.472510    0.769390   -0.234950
      7          8           0        2.274460    1.868600   -0.453430
      8          1           0        1.668010   -2.626000    0.174770
      9          1           0       -0.756350   -2.371220    0.232090
     10          1           0       -0.299970    1.911760   -0.326050
     11          8           0        3.409410   -0.552870   -0.161960
     12          6           0        4.082970   -1.821570   -0.054090
     13          1           0        3.778840   -2.488080   -0.867720
     14          1           0        3.879550   -2.283660    0.917430
     15          1           0        5.144900   -1.588450   -0.140810
     16          6           0       -2.185440   -0.107740   -0.037840
     17          6           0       -3.156820   -1.239150    0.184660
     18          7           0       -2.853430    0.995750   -0.256310
     19          6           0       -4.321120    0.851260   -0.249100
     20          6           0       -4.509740   -0.527340    0.402770
     21          1           0       -2.860200   -1.873010    1.023820
     22          1           0       -3.157960   -1.867150   -0.717090
     23          1           0       -4.677860    0.892640   -1.284470
     24          1           0       -4.766310    1.677110    0.310300
     25          1           0       -4.700740   -0.410470    1.474190
     26          1           0       -5.344220   -1.076610   -0.038170
     27          1           0       -2.415510    1.883510   -0.492380
     28          6           0        2.800950    2.485470    0.742660
     29          1           0        1.981350    2.865970    1.363510
     30          1           0        3.425680    3.314420    0.403130
     31          1           0        3.405820    1.774070    1.315340
 ---------------------------------------------------------------------
                    Distance matrix (angstroms):
                    1          2          3          4          5
     1  C    0.000000
     2  C    1.403200   0.000000
     3  C    2.420716   1.390675   0.000000
     4  C    2.824015   2.439069   1.409069   0.000000
     5  C    2.429807   2.802401   2.426420   1.416627   0.000000
     6  C    1.421279   2.436407   2.794561   2.433085   1.380507
     7  O    2.419074   3.692262   4.171928   3.691491   2.390006
     8  H    2.165150   1.083734   2.141874   3.413959   3.886077
     9  H    3.393373   2.132087   1.084896   2.170315   3.418198
    10  H    3.396415   3.887697   3.427691   2.194082   1.085999
    11  O    1.346235   2.437333   3.682752   4.167224   3.618664
    12  C    2.404134   2.853103   4.242682   5.084944   4.831874
    13  H    2.722824   2.838429   4.162822   5.125147   5.049851
    14  H    2.730916   2.848224   4.181876   5.153653   5.075251
    15  H    3.261603   3.912298   5.294971   6.045622   5.630036
    16  C    4.270472   3.751348   2.467228   1.446917   2.506400
    17  C    5.279519   4.414809   3.024497   2.630935   3.920511
    18  N    5.147742   4.876439   3.691677   2.444155   2.954178
    19  C    6.532444   6.099251   4.799572   3.740356   4.420764
    20  C    6.594129   5.863815   4.480275   3.806213   4.866446
    21  H    5.231444   4.215006   2.895056   2.892478   4.245437
    22  H    5.429939   4.472297   3.146781   2.999601   4.308518
    23  H    6.989107   6.575286   5.304392   4.272059   4.895510
    24  H    7.186472   6.862711   5.605030   4.462239   4.953681
    25  H    6.947761   6.225067   4.879417   4.244631   5.256135
    26  H    7.430720   6.607431   5.218611   4.680624   5.796528
    27  H    5.097392   5.104796   4.106723   2.723317   2.711571
    28  C    3.203436   4.459283   4.985025   4.527353   3.271583
    29  H    3.686527   4.743281   5.004413   4.350755   3.140808
    30  H    4.095867   5.422817   5.989185   5.483133   4.151805
    31  H    3.008291   4.228626   4.969605   4.800091   3.744713
                    6          7          8          9         10
     6  C    0.000000
     7  O    1.378086   0.000000
     8  H    3.425604   4.578629   0.000000
     9  H    3.879352   5.256598   2.438385   0.000000
    10  H    2.110686   2.577941   4.971422   4.343238   0.000000
    11  O    2.346333   2.690090   2.728320   4.562371   4.456549
    12  C    3.682429   4.128866   2.555683   4.878835   5.763842
    13  H    4.041122   4.627684   2.358264   4.668103   6.024009
    14  H    4.054989   4.657986   2.357891   4.687102   6.051130
    15  H    4.365171   4.504259   3.642096   5.964607   6.475523
    16  C    3.766803   4.895850   4.608244   2.690446   2.777849
    17  C    5.063694   6.289998   5.020203   2.654447   4.283766
    18  N    4.331911   5.205380   5.809159   3.996594   2.713687
    19  C    5.794226   6.676706   6.938349   4.829442   4.159354
    20  C    6.154308   7.245618   6.528472   4.185327   4.919609
    21  H    5.228686   6.522779   4.668251   2.302441   4.764600
    22  H    5.350239   6.598222   4.966010   2.631114   4.754070
    23  H    6.240491   7.069503   7.401370   5.322685   4.595987
    24  H    6.328043   7.084659   7.741808   5.698673   4.517543
    25  H    6.513236   7.587048   6.867171   4.576633   5.291540
    26  H    7.065002   8.178691   7.184520   4.774684   5.870067
    27  H    4.052682   4.690155   6.120123   4.623894   2.122257
    28  C    2.380211   1.445113   5.266230   6.041730   3.329713
    29  H    2.685077   2.093306   5.627879   6.016915   2.994921
    30  H    3.270963   2.037007   6.199205   7.060108   4.047175
    31  H    2.674036   2.101775   4.866364   5.973317   4.055367
                   11         12         13         14         15
    11  O    0.000000
    12  C    1.440458   0.000000
    13  H    2.092753   1.094863   0.000000
    14  H    2.093263   1.094878   1.799636   0.000000
    15  H    2.021089   1.090670   1.789931   1.790056   0.000000
    16  C    5.613902   6.498495   6.475134   6.513929   7.479104
    17  C    6.611089   7.267102   7.125357   7.151116   8.315437
    18  N    6.452154   7.489448   7.516508   7.580581   8.406231
    19  C    7.857498   8.821042   8.783122   8.856608   9.775963
    20  C    7.939302   8.701633   8.611574   8.586601   9.727975
    21  H    6.515892   7.026532   6.930591   6.753087   8.094379
    22  H    6.720554   7.271363   6.966164   7.236828   8.327500
    23  H    8.291771   9.253805   9.116947   9.389702  10.195606
    24  H    8.487534   9.522778   9.578942   9.529281  10.445069
    25  H    8.274769   9.026650   9.039042   8.800011  10.046516
    26  H    8.770158   9.456592   9.268798   9.351367  10.502102
    27  H    6.322564   7.493328   7.590893   7.679886   8.326939
    28  C    3.228013   4.563878   5.318439   4.892701   4.782410
    29  H    4.006854   5.329111   6.072496   5.506436   5.666823
    30  H    3.908391   5.198026   5.950528   5.639947   5.223957
    31  H    2.756280   3.906725   4.803209   4.104622   4.056022
                   16         17         18         19         20
    16  C    0.000000
    17  C    1.507705   0.000000
    18  N    1.308293   2.298103   0.000000
    19  C    2.350626   2.431780   1.474803   0.000000
    20  C    2.402618   1.544227   2.344686   1.536571   0.000000
    21  H    2.167626   1.092681   3.141427   3.343091   2.217547
    22  H    2.121956   1.098881   2.915691   2.993611   2.208277
    23  H    2.960913   3.002738   2.096733   1.095886   2.211648
    24  H    3.157179   3.333289   2.108177   1.092314   2.221256
    25  H    2.950358   2.175612   2.895624   2.169286   1.094569
    26  H    3.304028   2.204720   3.247506   2.192694   1.092008
    27  H    2.055387   3.280081   1.017655   2.180843   3.316518
    28  C    5.674328   7.048346   5.932050   7.374152   7.914464
    29  H    5.307436   6.681503   5.431081   6.810337   7.387274
    30  H    6.587131   8.006999   6.725943   8.155089   8.816462
    31  H    6.052644   7.309321   6.500314   7.937547   8.293694
                   21         22         23         24         25
    21  H    0.000000
    22  H    1.766200   0.000000
    23  H    4.034961   3.201321   0.000000
    24  H    4.092153   4.025432   1.779468   0.000000
    25  H    2.393626   3.050212   3.051037   2.391010   0.000000
    26  H    2.816457   2.421904   2.423890   2.835205   1.773427
    27  H    4.075298   3.830036   2.593734   2.492620   3.788406
    28  C    7.150106   7.522286   7.910687   7.622585   8.074463
    29  H    6.783357   7.289981   7.433095   6.932067   7.442959
    30  H    8.173553   8.452685   8.624406   8.354526   9.003370
    31  H    7.255976   7.776404   8.537085   8.234271   8.397247
                   26         27         28         29         30
    26  H    0.000000
    27  H    4.188790   0.000000
    28  C    8.924231   5.394361   0.000000
    29  H    8.436387   4.872569   1.096348   0.000000
    30  H    9.817690   6.080209   1.092120   1.791515   0.000000
    31  H    9.301697   6.096533   1.095409   1.795461   1.790307
                   31
    31  H    0.000000
 Stoichiometry    C12H16NO2(1+)
 Framework group  C1[X(C12H16NO2)]
 Deg. of freedom    87
 Full point group                 C1      NOp   1
 Largest Abelian subgroup         C1      NOp   1
 Largest concise Abelian subgroup C1      NOp   1
                         Standard orientation:                         
 ---------------------------------------------------------------------
 Center     Atomic      Atomic             Coordinates (Angstroms)
 Number     Number       Type             X           Y           Z
 ---------------------------------------------------------------------
      1          6           0        2.065021   -0.515650   -0.102141
      2          6           0        1.238560   -1.636560    0.069599
      3          6           0       -0.143530   -1.485580    0.101349
      4          6           0       -0.742839   -0.219020   -0.047411
      5          6           0        0.099141    0.908000   -0.213931
      6          6           0        1.472511    0.769390   -0.234951
      7          8           0        2.274461    1.868600   -0.453431
      8          1           0        1.668010   -2.626000    0.174769
      9          1           0       -0.756350   -2.371220    0.232089
     10          1           0       -0.299969    1.911760   -0.326051
     11          8           0        3.409411   -0.552870   -0.161961
     12          6           0        4.082970   -1.821570   -0.054091
     13          1           0        3.778840   -2.488080   -0.867721
     14          1           0        3.879550   -2.283660    0.917429
     15          1           0        5.144900   -1.588450   -0.140811
     16          6           0       -2.185439   -0.107740   -0.037841
     17          6           0       -3.156819   -1.239150    0.184659
     18          7           0       -2.853429    0.995750   -0.256311
     19          6           0       -4.321119    0.851260   -0.249101
     20          6           0       -4.509739   -0.527340    0.402769
     21          1           0       -2.860200   -1.873010    1.023819
     22          1           0       -3.157960   -1.867150   -0.717091
     23          1           0       -4.677859    0.892640   -1.284471
     24          1           0       -4.766309    1.677110    0.310299
     25          1           0       -4.700739   -0.410470    1.474189
     26          1           0       -5.344219   -1.076610   -0.038171
     27          1           0       -2.415509    1.883510   -0.492381
     28          6           0        2.800951    2.485470    0.742659
     29          1           0        1.981351    2.865970    1.363509
     30          1           0        3.425681    3.314420    0.403129
     31          1           0        3.405821    1.774070    1.315339
 ---------------------------------------------------------------------
 Rotational constants (GHZ):           1.2819988           0.3046416           0.2528487
 Leave Link  202 at Wed Jul 29 14:30:04 2026, MaxMem=  4026531840 cpu:               0.1 elap:               0.0
 (Enter /opt/packages/gaussian/g16RevC.01/g16/l301.exe)
 Standard basis: 6-31+G(d) (6D, 7F)
 Ernie: Thresh=  0.10000D-02 Tol=  0.10000D-05 Strict=F.
 There are   317 symmetry adapted cartesian basis functions of A   symmetry.
 There are   317 symmetry adapted basis functions of A   symmetry.
   317 basis functions,   544 primitive gaussians,   317 cartesian basis functions
    55 alpha electrons       55 beta electrons
       nuclear repulsion energy       980.2616742499 Hartrees.
 IExCor=  402 DFT=T Ex+Corr=B3LYP ExCW=0 ScaHFX=  0.200000
 ScaDFX=  0.800000  0.720000  1.000000  0.810000 ScalE2=  1.000000  1.000000
 IRadAn=      5 IRanWt=     -1 IRanGd=            0 ICorTp=0 IEmpDi=  4
 NAtoms=   31 NActive=   31 NUniq=   31 SFac= 1.00D+00 NAtFMM=   60 NAOKFM=F Big=F
 Integral buffers will be    131072 words long.
 Regular integral format.
 Two-electron integral symmetry is turned on.
 ------------------------------------------------------------------------------
 Polarizable Continuum Model (PCM)
 =================================
 Model                : PCM.
 Atomic radii         : SMD-Coulomb.
 Polarization charges : Total charges.
 Charge compensation  : None.
 Solution method      : On-the-fly selection.
 Cavity type          : VdW (van der Waals Surface) (Alpha=1.000).
 Cavity algorithm     : GePol (No added spheres)
                        Default sphere list used, NSphG=   31.
                        Lebedev-Laikov grids with approx.  5.0 points / Ang**2.
                        Smoothing algorithm: York/Karplus (Gamma=1.0000).
                        Polarization charges: spherical gaussians, with
                                              point-specific exponents (IZeta= 3).
                        Self-potential: point-specific (ISelfS= 7).
                        Self-field    : sphere-specific E.n sum rule (ISelfD= 2).
 Solvent              : Acetonitrile, Eps=  35.688000 Eps(inf)=   1.806874
 ------------------------------------------------------------------------------
 GePol: Number of generator spheres                  =      31
 GePol: Total number of spheres                      =      31
 GePol: Number of exposed spheres                    =      31 (100.00%)
 GePol: Number of points                             =    2236
 GePol: Average weight of points                     =       0.11
 GePol: Minimum weight of points                     =   0.25D-09
 GePol: Maximum weight of points                     =    0.21559
 GePol: Number of points with low weight             =     140
 GePol: Fraction of low-weight points (<1% of avg)   =       6.26%
 GePol: Cavity surface area                          =    252.073 Ang**2
 GePol: Cavity volume                                =    237.255 Ang**3
 ------------------------------------------------------------------------------
 Atomic radii for non-electrostatic terms: SMD-CDS.
 ------------------------------------------------------------------------------
 PCM non-electrostatic energy =        -0.0023764924 Hartrees.
 Nuclear repulsion after PCM non-electrostatic terms =      980.2592977575 Hartrees.
 Leave Link  301 at Wed Jul 29 14:30:05 2026, MaxMem=  4026531840 cpu:               0.7 elap:               0.1
 (Enter /opt/packages/gaussian/g16RevC.01/g16/l302.exe)
 NPDir=0 NMtPBC=     1 NCelOv=     1 NCel=       1 NClECP=     1 NCelD=      1
         NCelK=      1 NCelE2=     1 NClLst=     1 CellRange=     0.0.
 One-electron integrals computed using PRISM.
 One-electron integral symmetry used in STVInt
 NBasis=   317 RedAO= T EigKep=  1.42D-06  NBF=   317
 NBsUse=   315 1.00D-06 EigRej=  7.81D-07 NBFU=   315
 Precomputing XC quadrature grid using
 IXCGrd= 4 IRadAn=           5 IRanWt=          -1 IRanGd=           0 AccXCQ= 0.00D+00.
 Generated NRdTot=       0 NPtTot=           0 NUsed=           0 NTot=          32
 NSgBfM=   316   316   316   316   316 MxSgAt=    31 MxSgA2=    31.
 Leave Link  302 at Wed Jul 29 14:30:05 2026, MaxMem=  4026531840 cpu:               2.1 elap:               0.3
 (Enter /opt/packages/gaussian/g16RevC.01/g16/l303.exe)
 DipDrv:  MaxL=1.
 Leave Link  303 at Wed Jul 29 14:30:05 2026, MaxMem=  4026531840 cpu:               0.2 elap:               0.1
 (Enter /opt/packages/gaussian/g16RevC.01/g16/l308.exe)
 Leave Link  308 at Wed Jul 29 14:30:06 2026, MaxMem=  4026531840 cpu:               0.2 elap:               0.1
 (Enter /opt/packages/gaussian/g16RevC.01/g16/l401.exe)
 ExpMin= 4.38D-02 ExpMax= 5.48D+03 ExpMxC= 8.25D+02 IAcc=3 IRadAn=         5 AccDes= 0.00D+00
 Harris functional with IExCor=  402 and IRadAn=       5 diagonalized for initial guess.
 HarFok:  IExCor=  402 AccDes= 0.00D+00 IRadAn=         5 IDoV= 1 UseB2=F ITyADJ=14
 ICtDFT=  3500011 ScaDFX=  1.000000  1.000000  1.000000  1.000000
 FoFCou: FMM=F IPFlag=           0 FMFlag=      100000 FMFlg1=           0
         NFxFlg=           0 DoJE=T BraDBF=F KetDBF=T FulRan=T
         wScrn=  0.000000 ICntrl=       500 IOpCl=  0 I1Cent=   200000004 NGrid=           0
         NMat0=    1 NMatS0=      1 NMatT0=    0 NMatD0=    1 NMtDS0=    0 NMtDT0=    0
 Petite list used in FoFCou.
 Harris En= -671.880985339690    
 JPrj=0 DoOrth=F DoCkMO=F.
 Leave Link  401 at Wed Jul 29 14:30:07 2026, MaxMem=  4026531840 cpu:               8.1 elap:               1.1
 (Enter /opt/packages/gaussian/g16RevC.01/g16/l502.exe)
 Integral symmetry usage will be decided dynamically.
 Closed shell SCF:
 Using DIIS extrapolation, IDIIS=  1040.
 NGot=  4026531840 LenX=  4026324160 LenY=  4026223230
 Requested convergence on RMS density matrix=1.00D-08 within 128 cycles.
 Requested convergence on MAX density matrix=1.00D-06.
 Requested convergence on             energy=1.00D-06.
 No special actions if energy rises.
 Fock matrices will be formed incrementally for  20 cycles.

 Cycle   1  Pass 1  IDiag  1:
 FoFJK:  IHMeth= 1 ICntrl=       0 DoSepK=F KAlg= 0 I1Cent=           0 FoldK=F
 IRaf= 870000000 NMat=       1 IRICut=       1 DoRegI=T DoRafI=F ISym2E= 0 IDoP0=0 IntGTp=1.
 FoFCou: FMM=F IPFlag=           0 FMFlag=      100000 FMFlg1=           0
         NFxFlg=           0 DoJE=F BraDBF=F KetDBF=F FulRan=T
         wScrn=  0.000000 ICntrl=         0 IOpCl=  0 I1Cent=           0 NGrid=           0
         NMat0=    1 NMatS0=      1 NMatT0=    0 NMatD0=    1 NMtDS0=    0 NMtDT0=    0
 Symmetry not used in FoFCou.
 Inv3:  Mode=1 IEnd=    14999088.
 Iteration    1 A*A^-1 deviation from unit magnitude is 3.00D-15 for   1631.
 Iteration    1 A*A^-1 deviation from orthogonality  is 2.32D-15 for    560    354.
 Iteration    1 A^-1*A deviation from unit magnitude is 2.89D-15 for    543.
 Iteration    1 A^-1*A deviation from orthogonality  is 1.80D-15 for    761    707.
 E= -671.728854472471    
 DIIS: error= 1.64D-02 at cycle   1 NSaved=   1.
 NSaved= 1 IEnMin= 1 EnMin= -671.728854472471     IErMin= 1 ErrMin= 1.64D-02
 ErrMax= 1.64D-02  0.00D+00 EMaxC= 1.00D-01 BMatC= 2.54D-01 BMatP= 2.54D-01
 IDIUse=3 WtCom= 8.36D-01 WtEn= 1.64D-01
 Coeff-Com:  0.100D+01
 Coeff-En:   0.100D+01
 Coeff:      0.100D+01
 Gap=     0.142 Goal=   None    Shift=    0.000
 GapD=    0.142 DampG=1.000 DampE=0.500 DampFc=0.5000 IDamp=-1.
 Damping current iteration by 5.00D-01
 RMSDP=3.63D-02 MaxDP=3.99D+00              OVMax= 1.64D-01

 Cycle   2  Pass 1  IDiag  1:
 RMSU=  1.79D-02    CP:  9.73D-01
 E= -671.847167263646     Delta-E=       -0.118312791175 Rises=F Damp=T
 DIIS: error= 6.07D-03 at cycle   2 NSaved=   2.
 NSaved= 2 IEnMin= 2 EnMin= -671.847167263646     IErMin= 2 ErrMin= 6.07D-03
 ErrMax= 6.07D-03  0.00D+00 EMaxC= 1.00D-01 BMatC= 1.84D-02 BMatP= 2.54D-01
 IDIUse=3 WtCom= 9.39D-01 WtEn= 6.07D-02
 Coeff-Com:  0.834D-02 0.992D+00
 Coeff-En:   0.180D-01 0.982D+00
 Coeff:      0.893D-02 0.991D+00
 Gap=     0.190 Goal=   None    Shift=    0.000
 RMSDP=2.69D-02 MaxDP=3.13D+00 DE=-1.18D-01 OVMax= 1.10D-01

 Cycle   3  Pass 1  IDiag  1:
 RMSU=  9.99D-03    CP:  7.45D-01  7.01D-01
 E= -671.974124843427     Delta-E=       -0.126957579781 Rises=F Damp=F
 DIIS: error= 2.55D-03 at cycle   3 NSaved=   3.
 NSaved= 3 IEnMin= 3 EnMin= -671.974124843427     IErMin= 3 ErrMin= 2.55D-03
 ErrMax= 2.55D-03  0.00D+00 EMaxC= 1.00D-01 BMatC= 8.59D-03 BMatP= 1.84D-02
 IDIUse=3 WtCom= 9.74D-01 WtEn= 2.55D-02
 Coeff-Com: -0.572D-01 0.404D+00 0.653D+00
 Coeff-En:   0.000D+00 0.000D+00 0.100D+01
 Coeff:     -0.557D-01 0.394D+00 0.662D+00
 Gap=     0.155 Goal=   None    Shift=    0.000
 RMSDP=1.67D-03 MaxDP=1.05D-01 DE=-1.27D-01 OVMax= 3.71D-02

 Cycle   4  Pass 1  IDiag  1:
 RMSU=  1.51D-03    CP:  7.44D-01  6.67D-01  1.04D+00
 E= -671.980095109612     Delta-E=       -0.005970266185 Rises=F Damp=F
 DIIS: error= 1.25D-03 at cycle   4 NSaved=   4.
 NSaved= 4 IEnMin= 4 EnMin= -671.980095109612     IErMin= 4 ErrMin= 1.25D-03
 ErrMax= 1.25D-03  0.00D+00 EMaxC= 1.00D-01 BMatC= 2.09D-03 BMatP= 8.59D-03
 IDIUse=3 WtCom= 9.87D-01 WtEn= 1.25D-02
 Coeff-Com: -0.299D-01 0.115D+00 0.371D+00 0.544D+00
 Coeff-En:   0.000D+00 0.000D+00 0.196D+00 0.804D+00
 Coeff:     -0.295D-01 0.113D+00 0.368D+00 0.548D+00
 Gap=     0.154 Goal=   None    Shift=    0.000
 RMSDP=1.26D-03 MaxDP=5.57D-02 DE=-5.97D-03 OVMax= 1.50D-02

 Cycle   5  Pass 1  IDiag  1:
 RMSU=  6.80D-04    CP:  7.41D-01  6.77D-01  9.63D-01  5.85D-01
 E= -671.982020203641     Delta-E=       -0.001925094029 Rises=F Damp=F
 DIIS: error= 3.98D-04 at cycle   5 NSaved=   5.
 NSaved= 5 IEnMin= 5 EnMin= -671.982020203641     IErMin= 5 ErrMin= 3.98D-04
 ErrMax= 3.98D-04  0.00D+00 EMaxC= 1.00D-01 BMatC= 1.29D-04 BMatP= 2.09D-03
 IDIUse=3 WtCom= 9.96D-01 WtEn= 3.98D-03
 Coeff-Com: -0.106D-01 0.278D-01 0.137D+00 0.280D+00 0.566D+00
 Coeff-En:   0.000D+00 0.000D+00 0.000D+00 0.000D+00 0.100D+01
 Coeff:     -0.106D-01 0.277D-01 0.136D+00 0.279D+00 0.568D+00
 Gap=     0.155 Goal=   None    Shift=    0.000
 RMSDP=3.41D-04 MaxDP=2.62D-02 DE=-1.93D-03 OVMax= 4.11D-03

 Cycle   6  Pass 1  IDiag  1:
 RMSU=  2.19D-04    CP:  7.43D-01  6.78D-01  9.56D-01  5.89D-01  8.33D-01
 E= -671.982132228537     Delta-E=       -0.000112024896 Rises=F Damp=F
 DIIS: error= 1.39D-04 at cycle   6 NSaved=   6.
 NSaved= 6 IEnMin= 6 EnMin= -671.982132228537     IErMin= 6 ErrMin= 1.39D-04
 ErrMax= 1.39D-04  0.00D+00 EMaxC= 1.00D-01 BMatC= 1.83D-05 BMatP= 1.29D-04
 IDIUse=3 WtCom= 9.99D-01 WtEn= 1.39D-03
 Coeff-Com: -0.384D-02 0.669D-02 0.482D-01 0.116D+00 0.340D+00 0.492D+00
 Coeff-En:   0.000D+00 0.000D+00 0.000D+00 0.000D+00 0.845D-01 0.916D+00
 Coeff:     -0.383D-02 0.668D-02 0.482D-01 0.116D+00 0.340D+00 0.493D+00
 Gap=     0.155 Goal=   None    Shift=    0.000
 RMSDP=1.19D-04 MaxDP=6.40D-03 DE=-1.12D-04 OVMax= 1.31D-03

 Cycle   7  Pass 1  IDiag  1:
 RMSU=  4.72D-05    CP:  7.43D-01  6.79D-01  9.64D-01  5.97D-01  8.08D-01
                    CP:  7.19D-01
 E= -671.982149671547     Delta-E=       -0.000017443010 Rises=F Damp=F
 DIIS: error= 2.75D-05 at cycle   7 NSaved=   7.
 NSaved= 7 IEnMin= 7 EnMin= -671.982149671547     IErMin= 7 ErrMin= 2.75D-05
 ErrMax= 2.75D-05  0.00D+00 EMaxC= 1.00D-01 BMatC= 7.21D-07 BMatP= 1.83D-05
 IDIUse=1 WtCom= 1.00D+00 WtEn= 0.00D+00
 Coeff-Com: -0.139D-02 0.197D-02 0.174D-01 0.451D-01 0.151D+00 0.252D+00
 Coeff-Com:  0.534D+00
 Coeff:     -0.139D-02 0.197D-02 0.174D-01 0.451D-01 0.151D+00 0.252D+00
 Coeff:      0.534D+00
 Gap=     0.155 Goal=   None    Shift=    0.000
 RMSDP=2.61D-05 MaxDP=3.58D-03 DE=-1.74D-05 OVMax= 2.52D-04

 Cycle   8  Pass 1  IDiag  1:
 RMSU=  1.36D-05    CP:  7.43D-01  6.78D-01  9.64D-01  5.97D-01  8.14D-01
                    CP:  7.18D-01  8.97D-01
 E= -671.982150269086     Delta-E=       -0.000000597539 Rises=F Damp=F
 DIIS: error= 9.43D-06 at cycle   8 NSaved=   8.
 NSaved= 8 IEnMin= 8 EnMin= -671.982150269086     IErMin= 8 ErrMin= 9.43D-06
 ErrMax= 9.43D-06  0.00D+00 EMaxC= 1.00D-01 BMatC= 6.31D-08 BMatP= 7.21D-07
 IDIUse=1 WtCom= 1.00D+00 WtEn= 0.00D+00
 Coeff-Com: -0.853D-04-0.110D-03 0.815D-03 0.333D-02 0.199D-01 0.370D-01
 Coeff-Com:  0.243D+00 0.696D+00
 Coeff:     -0.853D-04-0.110D-03 0.815D-03 0.333D-02 0.199D-01 0.370D-01
 Coeff:      0.243D+00 0.696D+00
 Gap=     0.155 Goal=   None    Shift=    0.000
 RMSDP=5.43D-06 MaxDP=3.09D-04 DE=-5.98D-07 OVMax= 7.45D-05

 Cycle   9  Pass 1  IDiag  1:
 RMSU=  3.85D-06    CP:  7.43D-01  6.78D-01  9.64D-01  5.98D-01  8.16D-01
                    CP:  7.19D-01  9.07D-01  8.26D-01
 E= -671.982150315889     Delta-E=       -0.000000046803 Rises=F Damp=F
 DIIS: error= 2.71D-06 at cycle   9 NSaved=   9.
 NSaved= 9 IEnMin= 9 EnMin= -671.982150315889     IErMin= 9 ErrMin= 2.71D-06
 ErrMax= 2.71D-06  0.00D+00 EMaxC= 1.00D-01 BMatC= 9.34D-09 BMatP= 6.31D-08
 IDIUse=1 WtCom= 1.00D+00 WtEn= 0.00D+00
 Coeff-Com:  0.568D-04-0.202D-03-0.836D-03-0.157D-02-0.155D-03 0.744D-03
 Coeff-Com:  0.922D-01 0.369D+00 0.540D+00
 Coeff:      0.568D-04-0.202D-03-0.836D-03-0.157D-02-0.155D-03 0.744D-03
 Coeff:      0.922D-01 0.369D+00 0.540D+00
 Gap=     0.155 Goal=   None    Shift=    0.000
 RMSDP=2.35D-06 MaxDP=2.19D-04 DE=-4.68D-08 OVMax= 2.74D-05

 Cycle  10  Pass 1  IDiag  1:
 RMSU=  1.26D-06    CP:  7.43D-01  6.78D-01  9.64D-01  5.98D-01  8.17D-01
                    CP:  7.18D-01  9.26D-01  8.16D-01  7.84D-01
 E= -671.982150324402     Delta-E=       -0.000000008513 Rises=F Damp=F
 DIIS: error= 7.87D-07 at cycle  10 NSaved=  10.
 NSaved=10 IEnMin=10 EnMin= -671.982150324402     IErMin=10 ErrMin= 7.87D-07
 ErrMax= 7.87D-07  0.00D+00 EMaxC= 1.00D-01 BMatC= 7.20D-10 BMatP= 9.34D-09
 IDIUse=1 WtCom= 1.00D+00 WtEn= 0.00D+00
 Coeff-Com:  0.363D-04-0.731D-04-0.477D-03-0.117D-02-0.263D-02-0.462D-02
 Coeff-Com:  0.109D-01 0.679D-01 0.250D+00 0.680D+00
 Coeff:      0.363D-04-0.731D-04-0.477D-03-0.117D-02-0.263D-02-0.462D-02
 Coeff:      0.109D-01 0.679D-01 0.250D+00 0.680D+00
 Gap=     0.155 Goal=   None    Shift=    0.000
 RMSDP=5.48D-07 MaxDP=4.25D-05 DE=-8.51D-09 OVMax= 1.20D-05

 Cycle  11  Pass 1  IDiag  1:
 RMSU=  3.86D-07    CP:  7.43D-01  6.78D-01  9.64D-01  5.98D-01  8.17D-01
                    CP:  7.18D-01  9.28D-01  8.23D-01  8.26D-01  8.85D-01
 E= -671.982150325006     Delta-E=       -0.000000000604 Rises=F Damp=F
 DIIS: error= 2.77D-07 at cycle  11 NSaved=  11.
 NSaved=11 IEnMin=11 EnMin= -671.982150325006     IErMin=11 ErrMin= 2.77D-07
 ErrMax= 2.77D-07  0.00D+00 EMaxC= 1.00D-01 BMatC= 1.11D-10 BMatP= 7.20D-10
 IDIUse=1 WtCom= 1.00D+00 WtEn= 0.00D+00
 Coeff-Com:  0.185D-04-0.306D-04-0.232D-03-0.611D-03-0.162D-02-0.289D-02
 Coeff-Com: -0.511D-03 0.115D-01 0.109D+00 0.395D+00 0.491D+00
 Coeff:      0.185D-04-0.306D-04-0.232D-03-0.611D-03-0.162D-02-0.289D-02
 Coeff:     -0.511D-03 0.115D-01 0.109D+00 0.395D+00 0.491D+00
 Gap=     0.155 Goal=   None    Shift=    0.000
 RMSDP=2.00D-07 MaxDP=1.27D-05 DE=-6.04D-10 OVMax= 4.94D-06

 Cycle  12  Pass 1  IDiag  1:
 RMSU=  1.64D-07    CP:  7.43D-01  6.78D-01  9.64D-01  5.98D-01  8.17D-01
                    CP:  7.18D-01  9.29D-01  8.24D-01  8.42D-01  8.76D-01
                    CP:  8.73D-01
 E= -671.982150325120     Delta-E=       -0.000000000114 Rises=F Damp=F
 DIIS: error= 7.20D-08 at cycle  12 NSaved=  12.
 NSaved=12 IEnMin=12 EnMin= -671.982150325120     IErMin=12 ErrMin= 7.20D-08
 ErrMax= 7.20D-08  0.00D+00 EMaxC= 1.00D-01 BMatC= 5.54D-12 BMatP= 1.11D-10
 IDIUse=1 WtCom= 1.00D+00 WtEn= 0.00D+00
 Coeff-Com:  0.989D-06 0.667D-06-0.466D-05-0.318D-04-0.145D-03-0.269D-03
 Coeff-Com: -0.187D-02-0.714D-02-0.520D-03 0.321D-01 0.191D+00 0.787D+00
 Coeff:      0.989D-06 0.667D-06-0.466D-05-0.318D-04-0.145D-03-0.269D-03
 Coeff:     -0.187D-02-0.714D-02-0.520D-03 0.321D-01 0.191D+00 0.787D+00
 Gap=     0.155 Goal=   None    Shift=    0.000
 RMSDP=7.89D-08 MaxDP=4.89D-06 DE=-1.14D-10 OVMax= 1.97D-06

 Cycle  13  Pass 1  IDiag  1:
 RMSU=  4.06D-08    CP:  7.43D-01  6.78D-01  9.64D-01  5.98D-01  8.17D-01
                    CP:  7.18D-01  9.29D-01  8.23D-01  8.46D-01  8.99D-01
                    CP:  9.22D-01  9.31D-01
 E= -671.982150325129     Delta-E=       -0.000000000008 Rises=F Damp=F
 DIIS: error= 2.74D-08 at cycle  13 NSaved=  13.
 NSaved=13 IEnMin=13 EnMin= -671.982150325129     IErMin=13 ErrMin= 2.74D-08
 ErrMax= 2.74D-08  0.00D+00 EMaxC= 1.00D-01 BMatC= 9.66D-13 BMatP= 5.54D-12
 IDIUse=1 WtCom= 1.00D+00 WtEn= 0.00D+00
 Coeff-Com: -0.481D-06 0.202D-05 0.103D-04 0.158D-04 0.919D-05 0.105D-04
 Coeff-Com: -0.976D-03-0.449D-02-0.582D-02-0.352D-02 0.717D-01 0.420D+00
 Coeff-Com:  0.523D+00
 Coeff:     -0.481D-06 0.202D-05 0.103D-04 0.158D-04 0.919D-05 0.105D-04
 Coeff:     -0.976D-03-0.449D-02-0.582D-02-0.352D-02 0.717D-01 0.420D+00
 Coeff:      0.523D+00
 Gap=     0.155 Goal=   None    Shift=    0.000
 RMSDP=2.26D-08 MaxDP=1.69D-06 DE=-8.41D-12 OVMax= 6.40D-07

 Cycle  14  Pass 1  IDiag  1:
 RMSU=  1.16D-08    CP:  7.43D-01  6.78D-01  9.64D-01  5.98D-01  8.17D-01
                    CP:  7.18D-01  9.29D-01  8.23D-01  8.48D-01  8.99D-01
                    CP:  9.40D-01  9.90D-01  8.65D-01
 E= -671.982150325101     Delta-E=        0.000000000027 Rises=F Damp=F
 DIIS: error= 7.91D-09 at cycle  14 NSaved=  14.
 NSaved=14 IEnMin=13 EnMin= -671.982150325129     IErMin=14 ErrMin= 7.91D-09
 ErrMax= 7.91D-09  0.00D+00 EMaxC= 1.00D-01 BMatC= 8.97D-14 BMatP= 9.66D-13
 IDIUse=1 WtCom= 1.00D+00 WtEn= 0.00D+00
 Coeff-Com: -0.376D-06 0.791D-06 0.569D-05 0.131D-04 0.302D-04 0.547D-04
 Coeff-Com: -0.119D-03-0.843D-03-0.274D-02-0.894D-02-0.420D-02 0.557D-01
 Coeff-Com:  0.251D+00 0.710D+00
 Coeff:     -0.376D-06 0.791D-06 0.569D-05 0.131D-04 0.302D-04 0.547D-04
 Coeff:     -0.119D-03-0.843D-03-0.274D-02-0.894D-02-0.420D-02 0.557D-01
 Coeff:      0.251D+00 0.710D+00
 Gap=     0.155 Goal=   None    Shift=    0.000
 RMSDP=7.51D-09 MaxDP=4.01D-07 DE= 2.72D-11 OVMax= 1.94D-07

 Error on total polarization charges =  0.04906
 SCF Done:  E(RB3LYP) =  -671.982150325     A.U. after   14 cycles
            NFock= 14  Conv=0.75D-08     -V/T= 2.0098
 KE= 6.654913253871D+02 PE=-3.505353195898D+03 EE= 1.187620422429D+03
 SMD-CDS (non-electrostatic) energy       (kcal/mol) =      -1.49
 (included in total energy above)
 Leave Link  502 at Wed Jul 29 14:30:45 2026, MaxMem=  4026531840 cpu:             302.5 elap:              38.2
 (Enter /opt/packages/gaussian/g16RevC.01/g16/l801.exe)
 DoSCS=F DFT=T ScalE2(SS,OS)=  1.000000  1.000000
 ExpMin= 4.38D-02 ExpMax= 5.48D+03 ExpMxC= 8.25D+02 IAcc=3 IRadAn=         5 AccDes= 0.00D+00
 HarFok:  IExCor=  205 AccDes= 0.00D+00 IRadAn=         5 IDoV=-2 UseB2=F ITyADJ=14
 ICtDFT= 12500011 ScaDFX=  1.000000  1.000000  1.000000  1.000000
 Largest valence mixing into a core orbital is  5.46D-05
 Largest core mixing into a valence orbital is  1.16D-05
 Range of M.O.s used for correlation:    16   315
 NBasis=   317 NAE=    55 NBE=    55 NFC=    15 NFV=     0
 NROrb=    300 NOA=    40 NOB=    40 NVA=   260 NVB=   260

 **** Warning!!: The largest alpha MO coefficient is  0.13433219D+03

 Leave Link  801 at Wed Jul 29 14:30:45 2026, MaxMem=  4026531840 cpu:               1.0 elap:               0.2
 (Enter /opt/packages/gaussian/g16RevC.01/g16/l914.exe)
 RHF ground state
 Keep R1, R2, and R3 ints in memory in canonical form, NReq=3965547070.
 FoFCou: FMM=F IPFlag=           0 FMFlag=           0 FMFlg1=           0
         NFxFlg=           0 DoJE=F BraDBF=F KetDBF=F FulRan=T
         wScrn=  0.000000 ICntrl=       600 IOpCl=  0 I1Cent=           0 NGrid=           0
         NMat0=    1 NMatS0=  50403 NMatT0=    0 NMatD0=    1 NMtDS0=    0 NMtDT0=    0
 Symmetry not used in FoFCou.
 Two-electron integral symmetry not used.
 MDV=  4026531840 DFT=T DoStab=F Mixed=T DoRPA=T DoScal=F NonHer=T
 NEqPCM:  Using non-equilibrium solvation (IEInf=1, Eps=  35.6880, EpsInf=   1.8069)
 Inv3:  Mode=1 IEnd=    14999088.
 Iteration    1 A*A^-1 deviation from unit magnitude is 4.11D-15 for   1627.
 Iteration    1 A*A^-1 deviation from orthogonality  is 2.04D-15 for   1703   1267.
 Iteration    1 A^-1*A deviation from unit magnitude is 4.11D-15 for   1627.
 Iteration    1 A^-1*A deviation from orthogonality  is 2.66D-15 for   1858   1771.
 Making orbital integer symmetry assigments:
 Orbital symmetries:
       Occupied  (A) (A) (A) (A) (A) (A) (A) (A) (A) (A) (A) (A)
                 (A) (A) (A) (A) (A) (A) (A) (A) (A) (A) (A) (A)
                 (A) (A) (A) (A) (A) (A) (A) (A) (A) (A) (A) (A)
                 (A) (A) (A) (A) (A) (A) (A) (A) (A) (A) (A) (A)
                 (A) (A) (A) (A) (A) (A) (A)
       Virtual   (A) (A) (A) (A) (A) (A) (A) (A) (A) (A) (A) (A)
                 (A) (A) (A) (A) (A) (A) (A) (A) (A) (A) (A) (A)
                 (A) (A) (A) (A) (A) (A) (A) (A) (A) (A) (A) (A)
                 (A) (A) (A) (A) (A) (A) (A) (A) (A) (A) (A) (A)
                 (A) (A) (A) (A) (A) (A) (A) (A) (A) (A) (A) (A)
                 (A) (A) (A) (A) (A) (A) (A) (A) (A) (A) (A) (A)
                 (A) (A) (A) (A) (A) (A) (A) (A) (A) (A) (A) (A)
                 (A) (A) (A) (A) (A) (A) (A) (A) (A) (A) (A) (A)
                 (A) (A) (A) (A) (A) (A) (A) (A) (A) (A) (A) (A)
                 (A) (A) (A) (A) (A) (A) (A) (A) (A) (A) (A) (A)
                 (A) (A) (A) (A) (A) (A) (A) (A) (A) (A) (A) (A)
                 (A) (A) (A) (A) (A) (A) (A) (A) (A) (A) (A) (A)
                 (A) (A) (A) (A) (A) (A) (A) (A) (A) (A) (A) (A)
                 (A) (A) (A) (A) (A) (A) (A) (A) (A) (A) (A) (A)
                 (A) (A) (A) (A) (A) (A) (A) (A) (A) (A) (A) (A)
                 (A) (A) (A) (A) (A) (A) (A) (A) (A) (A) (A) (A)
                 (A) (A) (A) (A) (A) (A) (A) (A) (A) (A) (A) (A)
                 (A) (A) (A) (A) (A) (A) (A) (A) (A) (A) (A) (A)
                 (A) (A) (A) (A) (A) (A) (A) (A) (A) (A) (A) (A)
                 (A) (A) (A) (A) (A) (A) (A) (A) (A) (A) (A) (A)
                 (A) (A) (A) (A) (A) (A) (A) (A) (A) (A) (A) (A)
                 (A) (A) (A) (A) (A) (A) (A) (A)
    40 initial guesses have been made.
 Convergence on wavefunction:    0.001000000000000
 Davidson Disk Diagonalization:  ConvIn= 1.00D-03 SkipCon=T Conv= 1.00D-03.
 Max sub-space:  2000 roots to seek:    40 dimension of matrix:        20800
 Iteration     1 Dimension    40 NMult     0 NNew     40
 CISAX will form    40 AO SS matrices at one time.
 NMat=    40 NSing=    40 JSym2X= 0.
 New state      2 was old state      3
 New state      3 was old state      2
 New state      5 was old state      7
 New state      6 was old state     11
 New state      7 was old state      8
 New state      8 was old state      5
 New state      9 was old state     10
 New state     10 was old state     13
 Excitation Energies [eV] at current iteration:
 Root      1 :     4.334597492980632
 Root      2 :     4.613421560281839
 Root      3 :     4.646789746766958
 Root      4 :     5.624218161864381
 Root      5 :     5.997771683639286
 Root      6 :     6.021644185211767
 Root      7 :     6.043636597729753
 Root      8 :     6.119688630087927
 Root      9 :     6.332869969343916
 Root     10 :     6.473110745152293
 Root     11 :     6.556509875020519
 Root     12 :     6.669527475469479
 Root     13 :     6.711577327626432
 Root     14 :     6.724747142190291
 Root     15 :     6.776639054524927
 Root     16 :     6.798695307366176
 Root     17 :     6.913297638946474
 Root     18 :     6.987469159241124
 Root     19 :     7.023403452609461
 Root     20 :     7.085147373568232
 Root     21 :     7.097383616176921
 Root     22 :     7.126439165637504
 Root     23 :     7.136440672493714
 Root     24 :     7.160066468597141
 Root     25 :     7.210150196155205
 Root     26 :     7.344448362473131
 Root     27 :     7.382484911201596
 Root     28 :     7.415357792379960
 Root     29 :     7.432789540330026
 Root     30 :     7.451432283311758
 Root     31 :     7.495818209861644
 Root     32 :     7.498860036575606
 Root     33 :     7.536218351567402
 Root     34 :     7.557018285920635
 Root     35 :     7.662424944088737
 Root     36 :     7.703602528848826
 Root     37 :     7.744465917160230
 Root     38 :     7.819404232077412
 Root     39 :     8.092944186346845
 Root     40 :     8.578041162151282
 Iteration     2 Dimension    60 NMult    40 NNew     20
 CISAX will form    20 AO SS matrices at one time.
 NMat=    20 NSing=    20 JSym2X= 0.
 Root      1 not converged, maximum delta is    0.238000111391609
 New state      2 was old state      3
 Root      2 not converged, maximum delta is    0.213026983880029
 New state      3 was old state      2
 Root      3 not converged, maximum delta is    0.140344191899539
 Root      4 not converged, maximum delta is    0.076721907330259
 New state      5 was old state      8
 Root      5 not converged, maximum delta is    0.135573985789552
 Root      6 not converged, maximum delta is    0.490818467101349
 New state      7 was old state      5
 Root      7 not converged, maximum delta is    0.438771482650522
 New state      8 was old state      7
 Root      8 not converged, maximum delta is    0.116637775324633
 Root      9 not converged, maximum delta is    0.038375554905855
 New state     10 was old state     11
 Root     10 not converged, maximum delta is    0.193199115966376
 Excitation Energies [eV] at current iteration:
 Root      1 :     3.949383481795238   Change is   -0.385214011185393
 Root      2 :     4.269214683695137   Change is   -0.377575063071821
 Root      3 :     4.599079739310116   Change is   -0.014341820971724
 Root      4 :     5.333539733430334   Change is   -0.290678428434047
 Root      5 :     5.765970227038652   Change is   -0.353718403049275
 Root      6 :     5.967676268120044   Change is   -0.053967917091723
 Root      7 :     5.979638188624166   Change is   -0.018133495015120
 Root      8 :     5.997097539805293   Change is   -0.046539057924460
 Root      9 :     6.295123564713075   Change is   -0.037746404630841
 Root     10 :     6.408389548958828   Change is   -0.148120326061691
 Iteration     3 Dimension    80 NMult    60 NNew     20
 CISAX will form    20 AO SS matrices at one time.
 NMat=    20 NSing=    20 JSym2X= 0.
 Root      1 not converged, maximum delta is    0.013165822000257
 Root      2 not converged, maximum delta is    0.012280334645451
 Root      3 not converged, maximum delta is    0.002309748326647
 Root      4 not converged, maximum delta is    0.010221534546191
 Root      5 not converged, maximum delta is    0.038237100577632
 Root      6 not converged, maximum delta is    0.042293013862979
 Root      7 not converged, maximum delta is    0.041065312675905
 Root      8 not converged, maximum delta is    0.009339747777543
 New state      9 was old state     10
 Root      9 not converged, maximum delta is    0.198316473897607
 New state     10 was old state      9
 Root     10 not converged, maximum delta is    0.242645888069495
 Excitation Energies [eV] at current iteration:
 Root      1 :     3.927479358419255   Change is   -0.021904123375983
 Root      2 :     4.256188134001340   Change is   -0.013026549693797
 Root      3 :     4.598003058538444   Change is   -0.001076680771672
 Root      4 :     5.321279296926344   Change is   -0.012260436503990
 Root      5 :     5.733887163995234   Change is   -0.032083063043419
 Root      6 :     5.963877916058467   Change is   -0.003798352061577
 Root      7 :     5.978126629752900   Change is   -0.001511558871266
 Root      8 :     5.993916137817575   Change is   -0.003181401987718
 Root      9 :     6.268757812709960   Change is   -0.139631736248869
 Root     10 :     6.295523790908834   Change is    0.000400226195759
 Iteration     4 Dimension   100 NMult    80 NNew     20
 CISAX will form    20 AO SS matrices at one time.
 NMat=    20 NSing=    20 JSym2X= 0.
 Root      1 not converged, maximum delta is    0.001047907287814
 Root      2 has converged.
 Root      3 has converged.
 Root      4 not converged, maximum delta is    0.001544546828008
 Root      5 not converged, maximum delta is    0.003938140475672
 Root      6 not converged, maximum delta is    0.006492590863472
 Root      7 not converged, maximum delta is    0.003539208438636
 Root      8 not converged, maximum delta is    0.002207579813251
 Root      9 not converged, maximum delta is    0.158412092899416
 Root     10 not converged, maximum delta is    0.025049931362351
 Excitation Energies [eV] at current iteration:
 Root      1 :     3.926144032041874   Change is   -0.001335326377381
 Root      2 :     4.255422328794267   Change is   -0.000765805207073
 Root      3 :     4.597936375164141   Change is   -0.000066683374302
 Root      4 :     5.319921076560215   Change is   -0.001358220366129
 Root      5 :     5.731293310683372   Change is   -0.002593853311861
 Root      6 :     5.963457010690455   Change is   -0.000420905368012
 Root      7 :     5.977922629652706   Change is   -0.000204000100193
 Root      8 :     5.993568282806693   Change is   -0.000347855010882
 Root      9 :     6.239590218617359   Change is   -0.029167594092601
 Root     10 :     6.294633126962871   Change is   -0.000890663945962
 Iteration     5 Dimension   116 NMult   100 NNew     16
 CISAX will form    16 AO SS matrices at one time.
 NMat=    16 NSing=    16 JSym2X= 0.
 Root      1 has converged.
 Root      2 has converged.
 Root      3 has converged.
 Root      4 has converged.
 Root      5 has converged.
 Root      6 has converged.
 Root      7 has converged.
 Root      8 has converged.
 Root      9 not converged, maximum delta is    0.042451698637998
 Root     10 not converged, maximum delta is    0.014950461161694
 Excitation Energies [eV] at current iteration:
 Root      1 :     3.926064621085801   Change is   -0.000079410956073
 Root      2 :     4.255399967728591   Change is   -0.000022361065676
 Root      3 :     4.597933506571169   Change is   -0.000002868592972
 Root      4 :     5.319812239947575   Change is   -0.000108836612640
 Root      5 :     5.731031658184344   Change is   -0.000261652499028
 Root      6 :     5.963412215565503   Change is   -0.000044795124952
 Root      7 :     5.977902232495506   Change is   -0.000020397157201
 Root      8 :     5.993531617893925   Change is   -0.000036664912768
 Root      9 :     6.234003241139419   Change is   -0.005586977477940
 Root     10 :     6.294494122384035   Change is   -0.000139004578837
 Iteration     6 Dimension   120 NMult   116 NNew      4
 CISAX will form     4 AO SS matrices at one time.
 NMat=     4 NSing=     4 JSym2X= 0.
 Root      1 has converged.
 Root      2 has converged.
 Root      3 has converged.
 Root      4 has converged.
 Root      5 has converged.
 Root      6 has converged.
 Root      7 has converged.
 Root      8 has converged.
 Root      9 not converged, maximum delta is    0.004890574271543
 Root     10 not converged, maximum delta is    0.003098462432391
 Excitation Energies [eV] at current iteration:
 Root      1 :     3.926064375509476   Change is   -0.000000245576325
 Root      2 :     4.255398531262133   Change is   -0.000001436466458
 Root      3 :     4.597933384741569   Change is   -0.000000121829601
 Root      4 :     5.319812163087882   Change is   -0.000000076859694
 Root      5 :     5.731023442425061   Change is   -0.000008215759283
 Root      6 :     5.963411006079133   Change is   -0.000001209486371
 Root      7 :     5.977901891196378   Change is   -0.000000341299128
 Root      8 :     5.993531484374068   Change is   -0.000000133519857
 Root      9 :     6.233417929477664   Change is   -0.000585311661755
 Root     10 :     6.294471360781827   Change is   -0.000022761602207
 Iteration     7 Dimension   124 NMult   120 NNew      4
 CISAX will form     4 AO SS matrices at one time.
 NMat=     4 NSing=     4 JSym2X= 0.
 Root      1 has converged.
 Root      2 has converged.
 Root      3 has converged.
 Root      4 has converged.
 Root      5 has converged.
 Root      6 has converged.
 Root      7 has converged.
 Root      8 has converged.
 Root      9 has converged.
 Root     10 has converged.
 Excitation Energies [eV] at current iteration:
 Root      1 :     3.926064302085046   Change is   -0.000000073424430
 Root      2 :     4.255398104000060   Change is   -0.000000427262074
 Root      3 :     4.597933308830338   Change is   -0.000000075911231
 Root      4 :     5.319812002991897   Change is   -0.000000160095984
 Root      5 :     5.731022829382767   Change is   -0.000000613042294
 Root      6 :     5.963410826126597   Change is   -0.000000179952535
 Root      7 :     5.977901870930971   Change is   -0.000000020265407
 Root      8 :     5.993531423893711   Change is   -0.000000060480356
 Root      9 :     6.233344441814269   Change is   -0.000073487663394
 Root     10 :     6.294468541681829   Change is   -0.000002819099998
 Convergence achieved on expansion vectors.
 ***********************************************************************
 Excited states from <AA,BB:AA,BB> singles matrix:
 ***********************************************************************
 
 1PDM for each excited state written to RWF  633
 Ground to excited state transition densities written to RWF  633
 Ground to excited state transition electric dipole moments (Au):
       state          X           Y           Z        Dip. S.      Osc.
         1         2.2712     -0.6201      0.0478      5.5454      0.5334
         2         1.1912      0.1065     -0.0256      1.4311      0.1492
         3        -0.0368     -0.0583      0.0030      0.0048      0.0005
         4        -0.5232     -0.8333      0.0264      0.9687      0.1263
         5        -0.4430      0.7868     -0.1388      0.8346      0.1172
         6         0.2231      0.0516      0.0537      0.0553      0.0081
         7         0.1005     -0.0292      0.0849      0.0182      0.0027
         8         0.1292     -0.0034      0.0113      0.0168      0.0025
         9         1.4840      0.1162      0.0819      2.2223      0.3394
        10         0.0164     -0.0364     -0.1487      0.0237      0.0037
 Ground to excited state transition velocity dipole moments (Au):
       state          X           Y           Z        Dip. S.      Osc.
         1        -0.3157      0.0861     -0.0065      0.1071      0.4950
         2        -0.1818     -0.0175      0.0034      0.0334      0.1423
         3         0.0049      0.0075     -0.0053      0.0001      0.0004
         4         0.1061      0.1625     -0.0058      0.0377      0.1286
         5         0.0934     -0.1607      0.0287      0.0354      0.1119
         6        -0.0439     -0.0110     -0.0070      0.0021      0.0064
         7        -0.0217      0.0060     -0.0201      0.0009      0.0028
         8        -0.0266      0.0014      0.0006      0.0007      0.0022
         9        -0.3319     -0.0277     -0.0184      0.1113      0.3238
        10        -0.0050      0.0069      0.0240      0.0006      0.0019
 Ground to excited state transition magnetic dipole moments (Au):
       state          X           Y           Z
         1         0.0331      0.0298     -0.0363
         2        -0.0200     -0.0501     -0.5820
         3        -0.0647      0.0823      0.0416
         4         0.0752     -0.0433      0.2244
         5        -0.0580      0.0520      0.1557
         6        -0.2292     -0.2261     -0.0823
         7         0.1217      0.2943     -0.0618
         8         0.0757     -0.3180      0.1271
         9        -0.1168      0.0913     -0.2667
        10        -0.2740      0.0996     -0.1392
 Ground to excited state transition velocity quadrupole moments (Au):
       state          XX          YY          ZZ          XY          XZ          YZ
         1         0.2820     -0.1320      0.0166      0.1358      0.0800     -0.0276
         2         0.2701      0.0083     -0.0061      0.0478      0.0476     -0.0209
         3        -0.0409     -0.0010     -0.0003      0.0592     -0.0040      0.0038
         4        -0.0296     -0.0545      0.0058      0.6591     -0.0233      0.0455
         5        -1.3280      0.1650      0.0074      0.7250     -0.1896      0.0540
         6         0.0117     -0.1001     -0.0071     -0.1486     -0.0531     -0.0284
         7         0.1578     -0.0621     -0.0406     -0.0662     -0.1758      0.0453
         8         0.0214     -0.0223      0.0069      0.1432      0.0598      0.0116
         9         0.6891     -0.3887     -0.0562     -0.2009     -0.0274     -0.0895
        10         0.4352      0.0100      0.0126      0.0346     -0.0229     -0.1052
 <0|del|b> * <b|rxdel|0> + <0|del|b> * <b|delr+rdel|0>
 Rotatory Strengths (R) in cgs (10**-40 erg-esu-cm/Gauss)
       state          XX          YY          ZZ    R(velocity)    E-M Angle
         1       -12.1908     -1.4825    -23.8051    -12.4928      114.00
         2        -0.3016     11.9252     -0.2795      3.7814       88.65
         3         0.2306     -0.4304      0.5244      0.1082       90.00
         4       -15.1149     27.6963    -13.8669     -0.4285       90.44
         5       -22.7892    -28.0214     19.5672    -10.4145      106.51
         6         5.6620     17.4919     19.1621     14.1053       30.45
         7         8.6626     -5.9823     -1.5318      0.3828       87.91
         8        -0.5584     -3.7462     -3.3109     -2.5385      104.69
         9         8.2318    107.5652     11.2830     42.3600       66.15
        10        -2.5500     -3.4956      2.0897     -1.3186       99.05
 1/2[<0|r|b>*<b|rxdel|0> + (<0|rxdel|b>*<b|r|0>)*]
 Rotatory Strengths (R) in cgs (10**-40 erg-esu-cm/Gauss)
       state          XX          YY          ZZ     R(length)
         1       -53.1670     13.0640      1.2274    -12.9585
         2        16.8641      3.7715    -10.5424      3.3644
         3        -1.6832      3.3936     -0.0892      0.5404
         4        27.8094    -25.5095     -4.1824     -0.6275
         5       -18.1696    -28.9121     15.2825    -10.5997
         6        36.1656      8.2515      3.1223     15.8465
         7        -8.6472      6.0820      3.7123      0.3823
         8        -6.9164     -0.7568     -1.0187     -2.8973
         9       122.6069     -7.5027     15.4537     43.5193
        10         3.1833      2.5646    -14.6450     -2.9657
  1/2[<0|del|b>*<b|r|0> + (<0|r|b>*<b|del|0>)*] (Au)
       state          X           Y           Z        Dip. S.   Osc.(frdel)
         1        -0.7170     -0.0534     -0.0003      0.7707      0.5138
         2        -0.2166     -0.0019     -0.0001      0.2185      0.1457
         3        -0.0002     -0.0004     -0.0000      0.0006      0.0004
         4        -0.0555     -0.1354     -0.0002      0.1911      0.1274
         5        -0.0414     -0.1264     -0.0040      0.1718      0.1145
         6        -0.0098     -0.0006     -0.0004      0.0107      0.0072
         7        -0.0022     -0.0002     -0.0017      0.0041      0.0027
         8        -0.0034     -0.0000      0.0000      0.0034      0.0023
         9        -0.4925     -0.0032     -0.0015      0.4973      0.3315
        10        -0.0001     -0.0003     -0.0036      0.0039      0.0026

 Excitation energies and oscillator strengths:
 
 Excited State   1:      Singlet-A      3.9261 eV  315.80 nm  f=0.5334  <S**2>=0.000
      54 -> 56        -0.15656
      55 -> 56         0.68130
 This state for optimization and/or second-order correction.
 Total Energy, E(TD-HF/TD-DFT) =  -671.837870117    
 Copying the excited state density for this state as the 1-particle RhoCI density.
 
 Excited State   2:      Singlet-A      4.2554 eV  291.36 nm  f=0.1492  <S**2>=0.000
      54 -> 56         0.66644
      55 -> 56         0.16485
      55 -> 57         0.16108
 
 Excited State   3:      Singlet-A      4.5979 eV  269.65 nm  f=0.0005  <S**2>=0.000
      53 -> 56         0.70359
 
 Excited State   4:      Singlet-A      5.3198 eV  233.06 nm  f=0.1263  <S**2>=0.000
      52 -> 56         0.15419
      54 -> 56        -0.16151
      55 -> 57         0.64872
 
 Excited State   5:      Singlet-A      5.7310 eV  216.34 nm  f=0.1172  <S**2>=0.000
      52 -> 56         0.67122
      55 -> 57        -0.13355
 
 Excited State   6:      Singlet-A      5.9634 eV  207.91 nm  f=0.0081  <S**2>=0.000
      51 -> 56        -0.19395
      53 -> 57         0.61544
      54 -> 57         0.13121
      55 -> 58         0.22706
 
 Excited State   7:      Singlet-A      5.9779 eV  207.40 nm  f=0.0027  <S**2>=0.000
      51 -> 56         0.24470
      53 -> 57        -0.16882
      55 -> 58         0.61131
      55 -> 59        -0.13757
 
 Excited State   8:      Singlet-A      5.9935 eV  206.86 nm  f=0.0025  <S**2>=0.000
      51 -> 56         0.61851
      53 -> 57         0.26204
      55 -> 58        -0.17409
 
 Excited State   9:      Singlet-A      6.2333 eV  198.90 nm  f=0.3394  <S**2>=0.000
      50 -> 56        -0.36627
      53 -> 57        -0.10724
      54 -> 57         0.49869
      55 -> 59        -0.14903
      55 -> 60        -0.19637
      55 -> 61         0.11897
 
 Excited State  10:      Singlet-A      6.2945 eV  196.97 nm  f=0.0037  <S**2>=0.000
      50 -> 56        -0.22751
      55 -> 58         0.15687
      55 -> 59         0.56649
      55 -> 61         0.20699
      55 -> 62         0.20410
 SavETr:  write IOETrn=   770 NScale= 10 NData=  16 NLR=1 NState=   10 LETran=     190.
 Leave Link  914 at Wed Jul 29 14:33:09 2026, MaxMem=  4026531840 cpu:            1142.2 elap:             143.6
 (Enter /opt/packages/gaussian/g16RevC.01/g16/l601.exe)
 Copying SCF densities to generalized density rwf, IOpCl= 0 IROHF=0.

 **********************************************************************

            Population analysis using the SCF Density.

 **********************************************************************

 Orbital symmetries:
       Occupied  (A) (A) (A) (A) (A) (A) (A) (A) (A) (A) (A) (A)
                 (A) (A) (A) (A) (A) (A) (A) (A) (A) (A) (A) (A)
                 (A) (A) (A) (A) (A) (A) (A) (A) (A) (A) (A) (A)
                 (A) (A) (A) (A) (A) (A) (A) (A) (A) (A) (A) (A)
                 (A) (A) (A) (A) (A) (A) (A)
       Virtual   (A) (A) (A) (A) (A) (A) (A) (A) (A) (A) (A) (A)
                 (A) (A) (A) (A) (A) (A) (A) (A) (A) (A) (A) (A)
                 (A) (A) (A) (A) (A) (A) (A) (A) (A) (A) (A) (A)
                 (A) (A) (A) (A) (A) (A) (A) (A) (A) (A) (A) (A)
                 (A) (A) (A) (A) (A) (A) (A) (A) (A) (A) (A) (A)
                 (A) (A) (A) (A) (A) (A) (A) (A) (A) (A) (A) (A)
                 (A) (A) (A) (A) (A) (A) (A) (A) (A) (A) (A) (A)
                 (A) (A) (A) (A) (A) (A) (A) (A) (A) (A) (A) (A)
                 (A) (A) (A) (A) (A) (A) (A) (A) (A) (A) (A) (A)
                 (A) (A) (A) (A) (A) (A) (A) (A) (A) (A) (A) (A)
                 (A) (A) (A) (A) (A) (A) (A) (A) (A) (A) (A) (A)
                 (A) (A) (A) (A) (A) (A) (A) (A) (A) (A) (A) (A)
                 (A) (A) (A) (A) (A) (A) (A) (A) (A) (A) (A) (A)
                 (A) (A) (A) (A) (A) (A) (A) (A) (A) (A) (A) (A)
                 (A) (A) (A) (A) (A) (A) (A) (A) (A) (A) (A) (A)
                 (A) (A) (A) (A) (A) (A) (A) (A) (A) (A) (A) (A)
                 (A) (A) (A) (A) (A) (A) (A) (A) (A) (A) (A) (A)
                 (A) (A) (A) (A) (A) (A) (A) (A) (A) (A) (A) (A)
                 (A) (A) (A) (A) (A) (A) (A) (A) (A) (A) (A) (A)
                 (A) (A) (A) (A) (A) (A) (A) (A) (A) (A) (A) (A)
                 (A) (A) (A) (A) (A) (A) (A) (A) (A) (A) (A) (A)
                 (A) (A) (A) (A) (A) (A) (A) (A)
 The electronic state is 1-A.
 Alpha  occ. eigenvalues --  -19.20673 -19.17928 -14.42124 -10.29841 -10.28094
 Alpha  occ. eigenvalues --  -10.26277 -10.23985 -10.23872 -10.23227 -10.22780
 Alpha  occ. eigenvalues --  -10.22123 -10.21885 -10.21180 -10.20968 -10.20069
 Alpha  occ. eigenvalues --   -1.09205  -1.05576  -1.01220  -0.87954  -0.80464
 Alpha  occ. eigenvalues --   -0.80173  -0.77275  -0.75257  -0.71341  -0.69302
 Alpha  occ. eigenvalues --   -0.63701  -0.63477  -0.61718  -0.61130  -0.56193
 Alpha  occ. eigenvalues --   -0.53948  -0.51910  -0.50773  -0.49972  -0.48309
 Alpha  occ. eigenvalues --   -0.47025  -0.45854  -0.45768  -0.44833  -0.43785
 Alpha  occ. eigenvalues --   -0.43175  -0.42569  -0.41395  -0.40816  -0.38859
 Alpha  occ. eigenvalues --   -0.38551  -0.38328  -0.37072  -0.36055  -0.34615
 Alpha  occ. eigenvalues --   -0.34100  -0.32069  -0.28620  -0.27081  -0.24410
 Alpha virt. eigenvalues --   -0.08903  -0.02603   0.00187   0.01445   0.01809
 Alpha virt. eigenvalues --    0.01891   0.02592   0.02956   0.03082   0.03797
 Alpha virt. eigenvalues --    0.04108   0.04789   0.05162   0.05539   0.06155
 Alpha virt. eigenvalues --    0.06691   0.07407   0.07556   0.07870   0.08963
 Alpha virt. eigenvalues --    0.09610   0.09620   0.10345   0.11072   0.11288
 Alpha virt. eigenvalues --    0.11761   0.11896   0.12402   0.12849   0.13144
 Alpha virt. eigenvalues --    0.13979   0.14173   0.14421   0.15059   0.15235
 Alpha virt. eigenvalues --    0.15643   0.16350   0.16730   0.16766   0.17105
 Alpha virt. eigenvalues --    0.17723   0.18466   0.18720   0.19293   0.19748
 Alpha virt. eigenvalues --    0.20010   0.20599   0.20920   0.21643   0.22088
 Alpha virt. eigenvalues --    0.22464   0.22933   0.23694   0.23982   0.24507
 Alpha virt. eigenvalues --    0.24837   0.25070   0.25206   0.26060   0.26139
 Alpha virt. eigenvalues --    0.26397   0.26970   0.27294   0.28002   0.28348
 Alpha virt. eigenvalues --    0.28854   0.29313   0.30080   0.30720   0.31236
 Alpha virt. eigenvalues --    0.31791   0.32159   0.32460   0.32774   0.33331
 Alpha virt. eigenvalues --    0.33530   0.33780   0.34613   0.35397   0.35998
 Alpha virt. eigenvalues --    0.36969   0.38575   0.38985   0.39851   0.41040
 Alpha virt. eigenvalues --    0.42575   0.43522   0.44480   0.45755   0.46334
 Alpha virt. eigenvalues --    0.47175   0.51536   0.57817   0.60452   0.62765
 Alpha virt. eigenvalues --    0.65178   0.65472   0.66026   0.67258   0.68229
 Alpha virt. eigenvalues --    0.68667   0.69237   0.69347   0.70073   0.70438
 Alpha virt. eigenvalues --    0.71378   0.72456   0.72815   0.73722   0.75462
 Alpha virt. eigenvalues --    0.75909   0.77195   0.77662   0.78579   0.78935
 Alpha virt. eigenvalues --    0.80442   0.83055   0.84544   0.85184   0.85822
 Alpha virt. eigenvalues --    0.89152   0.90170   0.92380   0.92638   0.93719
 Alpha virt. eigenvalues --    0.94201   0.95199   0.96766   0.97410   0.98742
 Alpha virt. eigenvalues --    0.98848   0.99486   1.03299   1.04547   1.05314
 Alpha virt. eigenvalues --    1.06144   1.07569   1.08245   1.08996   1.11263
 Alpha virt. eigenvalues --    1.11488   1.12587   1.13262   1.14699   1.15573
 Alpha virt. eigenvalues --    1.16735   1.19321   1.19910   1.21121   1.21559
 Alpha virt. eigenvalues --    1.23563   1.24333   1.25130   1.27289   1.27391
 Alpha virt. eigenvalues --    1.29282   1.30005   1.34110   1.35012   1.36169
 Alpha virt. eigenvalues --    1.37569   1.38291   1.40360   1.41337   1.43770
 Alpha virt. eigenvalues --    1.46298   1.48429   1.49257   1.51149   1.52358
 Alpha virt. eigenvalues --    1.53489   1.55063   1.57707   1.60253   1.63498
 Alpha virt. eigenvalues --    1.63705   1.71997   1.72938   1.75105   1.76919
 Alpha virt. eigenvalues --    1.80057   1.80440   1.81445   1.82113   1.83561
 Alpha virt. eigenvalues --    1.84937   1.88450   1.90958   1.92088   1.92965
 Alpha virt. eigenvalues --    1.95137   1.95987   1.97803   1.99271   2.01180
 Alpha virt. eigenvalues --    2.02930   2.03839   2.05206   2.06242   2.08703
 Alpha virt. eigenvalues --    2.09304   2.10913   2.12361   2.13440   2.15443
 Alpha virt. eigenvalues --    2.17743   2.18174   2.19157   2.21333   2.24177
 Alpha virt. eigenvalues --    2.25750   2.27716   2.28325   2.30121   2.30741
 Alpha virt. eigenvalues --    2.32932   2.35870   2.37043   2.39211   2.41593
 Alpha virt. eigenvalues --    2.45273   2.47814   2.49097   2.51334   2.54395
 Alpha virt. eigenvalues --    2.57433   2.60890   2.62976   2.63849   2.66254
 Alpha virt. eigenvalues --    2.66457   2.68671   2.76079   2.77757   2.80284
 Alpha virt. eigenvalues --    2.81482   2.85420   2.88185   2.92018   3.01047
 Alpha virt. eigenvalues --    3.04688   3.10894   3.14597   3.28027   3.44558
 Alpha virt. eigenvalues --    4.09418   4.20399   4.24235   4.26294   4.29411
 Alpha virt. eigenvalues --    4.33371   4.34746   4.36825   4.38013   4.43117
 Alpha virt. eigenvalues --    4.47864   4.54891   4.61250   4.69360   5.03532
          Condensed to atoms (all electrons):
               1          2          3          4          5          6
     1  C   19.252367   2.437266  -1.066792  -1.973334  -6.539166  -6.611640
     2  C    2.437266  10.936441  -1.634732  -1.866619   1.773506  -6.853499
     3  C   -1.066792  -1.634732  16.506270   3.991374  -9.652902   2.954759
     4  C   -1.973334  -1.866619   3.991374  14.520956  -6.832333   1.644778
     5  C   -6.539166   1.773506  -9.652902  -6.832333  26.641513  -4.784223
     6  C   -6.611640  -6.853499   2.954759   1.644778  -4.784223  22.345601
     7  O    0.018030   0.111597  -0.055975  -0.017694  -0.373687   0.362983
     8  H   -0.100493   0.269975   0.075501   0.045312  -0.031201   0.055478
     9  H    0.030868   0.048574   0.198810  -0.044853   0.069966  -0.054654
    10  H    0.049434  -0.004125  -0.020209  -0.103269   0.332489  -0.033290
    11  O    0.451340   0.224869   0.037850  -0.014004   0.065058  -0.756544
    12  C   -0.254462  -0.293337  -0.065728  -0.008932   0.100742   0.306407
    13  H   -0.067715   0.053979   0.021557   0.000353  -0.005229  -0.016595
    14  H   -0.067137   0.043155   0.016339   0.003663  -0.001240  -0.003683
    15  H    0.024784  -0.070768  -0.012079  -0.001152   0.007282   0.054221
    16  C   -0.006062   0.805401  -2.638025  -2.183649   4.105059  -1.758117
    17  C   -0.063641   0.124236  -0.933145  -1.209882   0.418286  -0.222511
    18  N   -0.019083  -0.051078  -0.108344   0.088446   0.066996   0.178842
    19  C   -0.006006  -0.004926  -0.001187  -0.010439  -0.106156  -0.007545
    20  C   -0.006850  -0.015610  -0.095936   0.037326   0.113311   0.040520
    21  H    0.000306  -0.002521   0.023641  -0.022642  -0.015179   0.004359
    22  H   -0.001277  -0.008629  -0.031783   0.015914   0.015522   0.006449
    23  H   -0.000171  -0.000804  -0.007454  -0.015767   0.009544   0.001605
    24  H    0.000029  -0.000080   0.001810   0.005367  -0.005809  -0.000286
    25  H   -0.000001  -0.000651  -0.009581   0.000094   0.010433   0.000912
    26  H    0.000057   0.000608   0.002610  -0.000683  -0.001203  -0.000403
    27  H    0.005738  -0.003396  -0.050990  -0.130297   0.125762   0.045780
    28  C   -0.148615  -0.026860  -0.002541  -0.057710   0.064249  -0.074051
    29  H   -0.044208   0.010122  -0.013463  -0.039229   0.107490  -0.024662
    30  H    0.011669   0.000266  -0.000158  -0.002360  -0.004080  -0.005442
    31  H    0.011229  -0.019302   0.017649   0.020690  -0.075677   0.045292
               7          8          9         10         11         12
     1  C    0.018030  -0.100493   0.030868   0.049434   0.451340  -0.254462
     2  C    0.111597   0.269975   0.048574  -0.004125   0.224869  -0.293337
     3  C   -0.055975   0.075501   0.198810  -0.020209   0.037850  -0.065728
     4  C   -0.017694   0.045312  -0.044853  -0.103269  -0.014004  -0.008932
     5  C   -0.373687  -0.031201   0.069966   0.332489   0.065058   0.100742
     6  C    0.362983   0.055478  -0.054654  -0.033290  -0.756544   0.306407
     7  O    8.382262  -0.000679   0.000131  -0.002564   0.017995  -0.001184
     8  H   -0.000679   0.462625  -0.003633   0.000012  -0.011294  -0.004958
     9  H    0.000131  -0.003633   0.467928  -0.000105  -0.000670   0.001132
    10  H   -0.002564   0.000012  -0.000105   0.473994  -0.000469   0.000429
    11  O    0.017995  -0.011294  -0.000670  -0.000469   8.473457   0.040250
    12  C   -0.001184  -0.004958   0.001132   0.000429   0.040250   5.347814
    13  H    0.000141  -0.000865   0.000003   0.000000  -0.033669   0.385754
    14  H   -0.000011  -0.000929   0.000003   0.000000  -0.030295   0.381705
    15  H   -0.000339   0.000135  -0.000000  -0.000000  -0.055867   0.400872
    16  C    0.000739  -0.000975   0.041499   0.046943  -0.005534   0.005884
    17  C   -0.001678   0.003696   0.003934   0.019055  -0.000460   0.000244
    18  N   -0.000008   0.000088  -0.000000  -0.002003   0.000130  -0.000279
    19  C    0.000313   0.000047   0.001077   0.004279  -0.000011   0.000059
    20  C   -0.000291  -0.000047  -0.001528  -0.000865   0.000058  -0.000095
    21  H    0.000001   0.000001  -0.000027   0.000001  -0.000001  -0.000029
    22  H   -0.000001  -0.000000  -0.000951  -0.000003   0.000001  -0.000004
    23  H   -0.000000   0.000000  -0.000000  -0.000003   0.000000  -0.000000
    24  H    0.000000   0.000000   0.000000   0.000002  -0.000000  -0.000000
    25  H    0.000000   0.000000  -0.000006  -0.000000   0.000000  -0.000000
    26  H    0.000000   0.000000   0.000001   0.000000  -0.000000   0.000000
    27  H    0.000099   0.000000   0.000001   0.004751  -0.000002   0.000003
    28  C    0.099364  -0.000203  -0.000073   0.000514   0.009086  -0.003579
    29  H   -0.051185  -0.000000  -0.000000   0.000108   0.000706   0.000024
    30  H   -0.044989  -0.000000   0.000000  -0.000036  -0.000430  -0.000809
    31  H   -0.048022   0.000008   0.000000   0.000021   0.000591   0.001134
              13         14         15         16         17         18
     1  C   -0.067715  -0.067137   0.024784  -0.006062  -0.063641  -0.019083
     2  C    0.053979   0.043155  -0.070768   0.805401   0.124236  -0.051078
     3  C    0.021557   0.016339  -0.012079  -2.638025  -0.933145  -0.108344
     4  C    0.000353   0.003663  -0.001152  -2.183649  -1.209882   0.088446
     5  C   -0.005229  -0.001240   0.007282   4.105059   0.418286   0.066996
     6  C   -0.016595  -0.003683   0.054221  -1.758117  -0.222511   0.178842
     7  O    0.000141  -0.000011  -0.000339   0.000739  -0.001678  -0.000008
     8  H   -0.000865  -0.000929   0.000135  -0.000975   0.003696   0.000088
     9  H    0.000003   0.000003  -0.000000   0.041499   0.003934  -0.000000
    10  H    0.000000   0.000000  -0.000000   0.046943   0.019055  -0.002003
    11  O   -0.033669  -0.030295  -0.055867  -0.005534  -0.000460   0.000130
    12  C    0.385754   0.381705   0.400872   0.005884   0.000244  -0.000279
    13  H    0.483459  -0.036351  -0.024985   0.000189  -0.000034  -0.000000
    14  H   -0.036351   0.481028  -0.025639   0.000371   0.000072  -0.000001
    15  H   -0.024985  -0.025639   0.466657  -0.000105  -0.000009   0.000000
    16  C    0.000189   0.000371  -0.000105   7.798290  -1.012502   0.305798
    17  C   -0.000034   0.000072  -0.000009  -1.012502   9.300264  -0.376408
    18  N   -0.000000  -0.000001   0.000000   0.305798  -0.376408   7.009214
    19  C    0.000001   0.000000  -0.000000  -0.508584   0.408122   0.091475
    20  C   -0.000004   0.000002  -0.000000   0.262679  -0.864059  -0.045692
    21  H   -0.000000   0.000000  -0.000000  -0.087629   0.418235   0.009184
    22  H    0.000000  -0.000000   0.000000  -0.022212   0.334651   0.005086
    23  H   -0.000000   0.000000   0.000000  -0.023868   0.024099  -0.034254
    24  H    0.000000  -0.000000   0.000000  -0.015156   0.042294  -0.037099
    25  H    0.000000  -0.000000   0.000000   0.035720  -0.123775   0.012534
    26  H   -0.000000   0.000000  -0.000000   0.023690  -0.073149   0.005956
    27  H   -0.000000   0.000000  -0.000000  -0.002300  -0.008024   0.252102
    28  C    0.000828  -0.001620  -0.000021  -0.001933  -0.002541   0.000895
    29  H    0.000000  -0.000000   0.000000   0.005383  -0.000079   0.000069
    30  H   -0.000000   0.000000  -0.000000  -0.000066  -0.000006  -0.000001
    31  H   -0.000001   0.000012  -0.000019  -0.002277   0.000069  -0.000001
              19         20         21         22         23         24
     1  C   -0.006006  -0.006850   0.000306  -0.001277  -0.000171   0.000029
     2  C   -0.004926  -0.015610  -0.002521  -0.008629  -0.000804  -0.000080
     3  C   -0.001187  -0.095936   0.023641  -0.031783  -0.007454   0.001810
     4  C   -0.010439   0.037326  -0.022642   0.015914  -0.015767   0.005367
     5  C   -0.106156   0.113311  -0.015179   0.015522   0.009544  -0.005809
     6  C   -0.007545   0.040520   0.004359   0.006449   0.001605  -0.000286
     7  O    0.000313  -0.000291   0.000001  -0.000001  -0.000000   0.000000
     8  H    0.000047  -0.000047   0.000001  -0.000000   0.000000   0.000000
     9  H    0.001077  -0.001528  -0.000027  -0.000951  -0.000000   0.000000
    10  H    0.004279  -0.000865   0.000001  -0.000003  -0.000003   0.000002
    11  O   -0.000011   0.000058  -0.000001   0.000001   0.000000  -0.000000
    12  C    0.000059  -0.000095  -0.000029  -0.000004  -0.000000  -0.000000
    13  H    0.000001  -0.000004  -0.000000   0.000000  -0.000000   0.000000
    14  H    0.000000   0.000002   0.000000  -0.000000   0.000000  -0.000000
    15  H   -0.000000  -0.000000  -0.000000   0.000000   0.000000   0.000000
    16  C   -0.508584   0.262679  -0.087629  -0.022212  -0.023868  -0.015156
    17  C    0.408122  -0.864059   0.418235   0.334651   0.024099   0.042294
    18  N    0.091475  -0.045692   0.009184   0.005086  -0.034254  -0.037099
    19  C    6.015330  -0.276493   0.024839   0.003117   0.416753   0.431477
    20  C   -0.276493   6.681121  -0.033106  -0.010808  -0.055623  -0.095331
    21  H    0.024839  -0.033106   0.438661  -0.024635  -0.000193  -0.000038
    22  H    0.003117  -0.010808  -0.024635   0.435511   0.001121  -0.000170
    23  H    0.416753  -0.055623  -0.000193   0.001121   0.460213  -0.031360
    24  H    0.431477  -0.095331  -0.000038  -0.000170  -0.031360   0.457080
    25  H   -0.090901   0.486445  -0.005522   0.003033   0.003051  -0.005729
    26  H   -0.059954   0.430602   0.001124  -0.004903  -0.003784   0.001555
    27  H   -0.028003   0.018971  -0.000095  -0.000230   0.000077  -0.000821
    28  C    0.000589  -0.000938   0.000004   0.000013  -0.000005   0.000001
    29  H   -0.000033   0.000010  -0.000000  -0.000000   0.000000   0.000000
    30  H   -0.000003   0.000002  -0.000000  -0.000000   0.000000  -0.000000
    31  H    0.000006   0.000001  -0.000000   0.000000  -0.000000   0.000000
              25         26         27         28         29         30
     1  C   -0.000001   0.000057   0.005738  -0.148615  -0.044208   0.011669
     2  C   -0.000651   0.000608  -0.003396  -0.026860   0.010122   0.000266
     3  C   -0.009581   0.002610  -0.050990  -0.002541  -0.013463  -0.000158
     4  C    0.000094  -0.000683  -0.130297  -0.057710  -0.039229  -0.002360
     5  C    0.010433  -0.001203   0.125762   0.064249   0.107490  -0.004080
     6  C    0.000912  -0.000403   0.045780  -0.074051  -0.024662  -0.005442
     7  O    0.000000   0.000000   0.000099   0.099364  -0.051185  -0.044989
     8  H    0.000000   0.000000   0.000000  -0.000203  -0.000000  -0.000000
     9  H   -0.000006   0.000001   0.000001  -0.000073  -0.000000   0.000000
    10  H   -0.000000   0.000000   0.004751   0.000514   0.000108  -0.000036
    11  O    0.000000  -0.000000  -0.000002   0.009086   0.000706  -0.000430
    12  C   -0.000000   0.000000   0.000003  -0.003579   0.000024  -0.000809
    13  H    0.000000  -0.000000  -0.000000   0.000828   0.000000  -0.000000
    14  H   -0.000000   0.000000   0.000000  -0.001620  -0.000000   0.000000
    15  H    0.000000  -0.000000  -0.000000  -0.000021   0.000000  -0.000000
    16  C    0.035720   0.023690  -0.002300  -0.001933   0.005383  -0.000066
    17  C   -0.123775  -0.073149  -0.008024  -0.002541  -0.000079  -0.000006
    18  N    0.012534   0.005956   0.252102   0.000895   0.000069  -0.000001
    19  C   -0.090901  -0.059954  -0.028003   0.000589  -0.000033  -0.000003
    20  C    0.486445   0.430602   0.018971  -0.000938   0.000010   0.000002
    21  H   -0.005522   0.001124  -0.000095   0.000004  -0.000000  -0.000000
    22  H    0.003033  -0.004903  -0.000230   0.000013  -0.000000  -0.000000
    23  H    0.003051  -0.003784   0.000077  -0.000005   0.000000   0.000000
    24  H   -0.005729   0.001555  -0.000821   0.000001   0.000000  -0.000000
    25  H    0.461204  -0.025484  -0.000171   0.000003  -0.000000  -0.000000
    26  H   -0.025484   0.458750  -0.000073  -0.000000  -0.000000   0.000000
    27  H   -0.000171  -0.000073   0.279013   0.000097  -0.000002   0.000000
    28  C    0.000003  -0.000000   0.000097   5.365196   0.384879   0.394220
    29  H   -0.000000  -0.000000  -0.000002   0.384879   0.511057  -0.027097
    30  H   -0.000000   0.000000   0.000000   0.394220  -0.027097   0.482192
    31  H   -0.000000   0.000000   0.000000   0.388111  -0.038963  -0.026437
              31
     1  C    0.011229
     2  C   -0.019302
     3  C    0.017649
     4  C    0.020690
     5  C   -0.075677
     6  C    0.045292
     7  O   -0.048022
     8  H    0.000008
     9  H    0.000000
    10  H    0.000021
    11  O    0.000591
    12  C    0.001134
    13  H   -0.000001
    14  H    0.000012
    15  H   -0.000019
    16  C   -0.002277
    17  C    0.000069
    18  N   -0.000001
    19  C    0.000006
    20  C    0.000001
    21  H   -0.000000
    22  H    0.000000
    23  H   -0.000000
    24  H    0.000000
    25  H   -0.000000
    26  H    0.000000
    27  H    0.000000
    28  C    0.388111
    29  H   -0.038963
    30  H   -0.026437
    31  H    0.504253
 Mulliken charges:
               1
     1  C    0.683538
     2  C    0.016940
     3  C   -1.447147
     4  C    0.160575
     5  C    0.400877
     6  C   -0.840842
     7  O   -0.395350
     8  H    0.242400
     9  H    0.242576
    10  H    0.234911
    11  O   -0.412140
    12  C   -0.339057
    13  H    0.239182
    14  H    0.240555
    15  H    0.237029
    16  C    0.831347
    17  C   -0.205355
    18  N   -0.352562
    19  C   -0.297243
    20  C   -0.567773
    21  H    0.271260
    22  H    0.285190
    23  H    0.256823
    24  H    0.252263
    25  H    0.248394
    26  H    0.244683
    27  H    0.492011
    28  C   -0.387358
    29  H    0.219073
    30  H    0.223563
    31  H    0.221634
 Sum of Mulliken charges =   1.00000
 Mulliken charges with hydrogens summed into heavy atoms:
               1
     1  C    0.683538
     2  C    0.259339
     3  C   -1.204572
     4  C    0.160575
     5  C    0.635788
     6  C   -0.840842
     7  O   -0.395350
    11  O   -0.412140
    12  C    0.377710
    16  C    0.831347
    17  C    0.351096
    18  N    0.139449
    19  C    0.211843
    20  C   -0.074695
    28  C    0.276913
 Electronic spatial extent (au):  <R**2>=           4260.3191
 Charge=              1.0000 electrons
 Dipole moment (field-independent basis, Debye):
    X=             -8.4915    Y=             -1.2691    Z=              1.3450  Tot=              8.6905
 Quadrupole moment (field-independent basis, Debye-Ang):
   XX=            -30.9498   YY=            -65.4587   ZZ=            -88.6120
   XY=            -12.7166   XZ=              7.3202   YZ=              1.6834
 Traceless Quadrupole moment (field-independent basis, Debye-Ang):
   XX=             30.7237   YY=             -3.7852   ZZ=            -26.9385
   XY=            -12.7166   XZ=              7.3202   YZ=              1.6834
 Octapole moment (field-independent basis, Debye-Ang**2):
  XXX=            -92.9208  YYY=              5.5392  ZZZ=             -0.2201  XYY=              8.7803
  XXY=            -16.6481  XXZ=              7.6321  XZZ=             -5.3286  YZZ=              2.0760
  YYZ=              7.2401  XYZ=             14.9412
 Hexadecapole moment (field-independent basis, Debye-Ang**3):
 XXXX=          -3315.2892 YYYY=           -961.8238 ZZZZ=           -181.2855 XXXY=           -192.7226
 XXXZ=             66.0193 YYYX=            -34.1613 YYYZ=              8.7037 ZZZX=              2.5633
 ZZZY=             -1.4434 XXYY=           -695.3566 XXZZ=           -726.9099 YYZZ=           -210.3964
 XXYZ=             19.2621 YYXZ=             28.4737 ZZXY=             -4.2109
 N-N= 9.802592977575D+02 E-N=-3.505353196004D+03  KE= 6.654913253871D+02
 Leave Link  601 at Wed Jul 29 14:33:09 2026, MaxMem=  4026531840 cpu:               0.4 elap:               0.1
 (Enter /opt/packages/gaussian/g16RevC.01/g16/l9999.exe)
 Electronic transition elements 
                 1             2             3             4             5 
      1  -0.671838D+03 -0.671826D+03 -0.671813D+03 -0.671787D+03 -0.671772D+03
      2   0.227123D+01  0.119124D+01 -0.367835D-01 -0.523150D+00 -0.443015D+00
      3  -0.620143D+00  0.106496D+00 -0.582784D-01 -0.833265D+00  0.786818D+00
      4   0.478353D-01 -0.256138D-01  0.302872D-02  0.263558D-01 -0.138813D+00
      5  -0.315691D+00 -0.181807D+00  0.491426D-02  0.106095D+00  0.933988D-01
      6   0.861466D-01 -0.175018D-01  0.749486D-02  0.162506D+00 -0.160683D+00
      7  -0.653931D-02  0.344901D-02 -0.532307D-02 -0.577306D-02  0.286552D-01
      8   0.331024D-01 -0.200189D-01 -0.647091D-01  0.751699D-01 -0.579971D-01
      9   0.297896D-01 -0.500804D-01  0.823448D-01 -0.432911D-01  0.519618D-01
     10  -0.362840D-01 -0.582031D+00  0.416326D-01  0.224405D+00  0.155684D+00
     11   0.282035D+00  0.270133D+00 -0.409164D-01 -0.295657D-01 -0.132804D+01
     12  -0.131951D+00  0.832122D-02 -0.102663D-02 -0.545062D-01  0.164987D+00
     13   0.166450D-01 -0.607042D-02 -0.301276D-03  0.582338D-02  0.735671D-02
     14   0.135792D+00  0.477987D-01  0.591908D-01  0.659121D+00  0.725014D+00
     15   0.799806D-01  0.475769D-01 -0.396628D-02 -0.232518D-01 -0.189576D+00
     16  -0.276217D-01 -0.209397D-01  0.383430D-02  0.455129D-01  0.539645D-01
                 6             7             8             9            10 
      1  -0.671763D+03 -0.671762D+03 -0.671762D+03 -0.671753D+03 -0.671751D+03
      2   0.223093D+00  0.100475D+00  0.129213D+00  0.148395D+01  0.164289D-01
      3   0.515969D-01 -0.292251D-01 -0.336524D-02  0.116218D+00 -0.364091D-01
      4   0.536624D-01  0.849461D-01  0.113333D-01  0.819348D-01 -0.148722D+00
      5  -0.438854D-01 -0.217222D-01 -0.266226D-01 -0.331898D+00 -0.497310D-02
      6  -0.109618D-01  0.597443D-02  0.137739D-02 -0.277499D-01  0.687735D-02
      7  -0.698286D-02 -0.201015D-01  0.638529D-03 -0.184496D-01  0.239975D-01
      8  -0.229239D+00  0.121702D+00  0.756925D-01 -0.116835D+00 -0.273995D+00
      9  -0.226146D+00  0.294285D+00 -0.317992D+00  0.912895D-01  0.996085D-01
     10  -0.822773D-01 -0.617978D-01  0.127101D+00 -0.266713D+00 -0.139249D+00
     11   0.117440D-01  0.157777D+00  0.214347D-01  0.689147D+00  0.435222D+00
     12  -0.100105D+00 -0.620910D-01 -0.223118D-01 -0.388743D+00  0.998906D-02
     13  -0.706783D-02 -0.406084D-01  0.688144D-02 -0.561854D-01  0.126020D-01
     14  -0.148638D+00 -0.662393D-01  0.143170D+00 -0.200941D+00  0.346352D-01
     15  -0.531051D-01 -0.175785D+00  0.598245D-01 -0.274486D-01 -0.228598D-01
     16  -0.283616D-01  0.452971D-01  0.115789D-01 -0.894734D-01 -0.105228D+00
 Unable to Open any file for archive entry.
 1\1\GINC-R064\SP\RB3LYP TD-FC\6-31+G(d)\C12H16N1O2(1+)\ZLAB\29-Jul-202
 6\0\\#p TD(NStates=10) B3LYP/6-31+G(d) SCRF=(SMD,Solvent=Acetonitrile)
 \\Vertical excitation energies (absorption spectrum)\\1,1\C,0,2.06502,
 -0.51565,-0.10214\C,0,1.23856,-1.63656,0.0696\C,0,-0.14353,-1.48558,0.
 10135\C,0,-0.74284,-0.21902,-0.04741\C,0,0.09914,0.908,-0.21393\C,0,1.
 47251,0.76939,-0.23495\O,0,2.27446,1.8686,-0.45343\H,0,1.66801,-2.626,
 0.17477\H,0,-0.75635,-2.37122,0.23209\H,0,-0.29997,1.91176,-0.32605\O,
 0,3.40941,-0.55287,-0.16196\C,0,4.08297,-1.82157,-0.05409\H,0,3.77884,
 -2.48808,-0.86772\H,0,3.87955,-2.28366,0.91743\H,0,5.1449,-1.58845,-0.
 14081\C,0,-2.18544,-0.10774,-0.03784\C,0,-3.15682,-1.23915,0.18466\N,0
 ,-2.85343,0.99575,-0.25631\C,0,-4.32112,0.85126,-0.2491\C,0,-4.50974,-
 0.52734,0.40277\H,0,-2.8602,-1.87301,1.02382\H,0,-3.15796,-1.86715,-0.
 71709\H,0,-4.67786,0.89264,-1.28447\H,0,-4.76631,1.67711,0.3103\H,0,-4
 .70074,-0.41047,1.47419\H,0,-5.34422,-1.07661,-0.03817\H,0,-2.41551,1.
 88351,-0.49238\C,0,2.80095,2.48547,0.74266\H,0,1.98135,2.86597,1.36351
 \H,0,3.42568,3.31442,0.40313\H,0,3.40582,1.77407,1.31534\\Version=ES64
 L-G16RevC.01\State=1-A\HF=-671.9821503\RMSD=7.508e-09\PG=C01 [X(C12H16
 N1O2)]\\@
 The archive entry for this job was punched.


 THE MOST SERIOUS THREAT TO THE SURVIVAL OF MANKIND IS NOT NOW
 IGNORANCE IN THE TRADITIONAL SENSE,
 BUT A MORALLY NEUTRAL, AN INSENSITIVE OR INHIBITED HUMAN INTELLIGENCE.

                     -- MARGO JEFFERSON IN NEWSWEEK, SEPTEMBER 2, 1974
 Job cpu time:       0 days  0 hours 24 minutes 21.8 seconds.
 Elapsed time:       0 days  0 hours  3 minutes  4.4 seconds.
 File lengths (MBytes):  RWF=    899 Int=      0 D2E=      0 Chk=     41 Scr=      1
 Normal termination of Gaussian 16 at Wed Jul 29 14:33:10 2026.
