 Entering Gaussian System, Link 0=g16
 Initial command:
 /opt/packages/gaussian/g16RevC.01/g16/l1.exe "/ocean/projects/che200051p/zlab/tmp/Gau-76944.inp" -scrdir="/ocean/projects/che200051p/zlab/tmp/"
 Entering Link 1 = /opt/packages/gaussian/g16RevC.01/g16/l1.exe PID=     76945.
  
 Copyright (c) 1988-2019, Gaussian, Inc.  All Rights Reserved.
  
 This is part of the Gaussian(R) 16 program.  It is based on
 the Gaussian(R) 09 system (copyright 2009, Gaussian, Inc.),
 the Gaussian(R) 03 system (copyright 2003, Gaussian, Inc.),
 the Gaussian(R) 98 system (copyright 1998, Gaussian, Inc.),
 the Gaussian(R) 94 system (copyright 1995, Gaussian, Inc.),
 the Gaussian 92(TM) system (copyright 1992, Gaussian, Inc.),
 the Gaussian 90(TM) system (copyright 1990, Gaussian, Inc.),
 the Gaussian 88(TM) system (copyright 1988, Gaussian, Inc.),
 the Gaussian 86(TM) system (copyright 1986, Carnegie Mellon
 University), and the Gaussian 82(TM) system (copyright 1983,
 Carnegie Mellon University). Gaussian is a federally registered
 trademark of Gaussian, Inc.
  
 This software contains proprietary and confidential information,
 including trade secrets, belonging to Gaussian, Inc.
  
 This software is provided under written license and may be
 used, copied, transmitted, or stored only in accord with that
 written license.
  
 The following legend is applicable only to US Government
 contracts under FAR:
  
                    RESTRICTED RIGHTS LEGEND
  
 Use, reproduction and disclosure by the US Government is
 subject to restrictions as set forth in subparagraphs (a)
 and (c) of the Commercial Computer Software - Restricted
 Rights clause in FAR 52.227-19.
  
 Gaussian, Inc.
 340 Quinnipiac St., Bldg. 40, Wallingford CT 06492
  
  
 ---------------------------------------------------------------
 Warning -- This program may not be used in any manner that
 competes with the business of Gaussian, Inc. or will provide
 assistance to any competitor of Gaussian, Inc.  The licensee
 of this program is prohibited from giving any competitor of
 Gaussian, Inc. access to this program.  By using this program,
 the user acknowledges that Gaussian, Inc. is engaged in the
 business of creating and licensing software in the field of
 computational chemistry and represents and warrants to the
 licensee that it is not a competitor of Gaussian, Inc. and that
 it will not use this program in any manner prohibited above.
 ---------------------------------------------------------------
  

 Cite this work as:
 Gaussian 16, Revision C.01,
 M. J. Frisch, G. W. Trucks, H. B. Schlegel, G. E. Scuseria, 
 M. A. Robb, J. R. Cheeseman, G. Scalmani, V. Barone, 
 G. A. Petersson, H. Nakatsuji, X. Li, M. Caricato, A. V. Marenich, 
 J. Bloino, B. G. Janesko, R. Gomperts, B. Mennucci, H. P. Hratchian, 
 J. V. Ortiz, A. F. Izmaylov, J. L. Sonnenberg, D. Williams-Young, 
 F. Ding, F. Lipparini, F. Egidi, J. Goings, B. Peng, A. Petrone, 
 T. Henderson, D. Ranasinghe, V. G. Zakrzewski, J. Gao, N. Rega, 
 G. Zheng, W. Liang, M. Hada, M. Ehara, K. Toyota, R. Fukuda, 
 J. Hasegawa, M. Ishida, T. Nakajima, Y. Honda, O. Kitao, H. Nakai, 
 T. Vreven, K. Throssell, J. A. Montgomery, Jr., J. E. Peralta, 
 F. Ogliaro, M. J. Bearpark, J. J. Heyd, E. N. Brothers, K. N. Kudin, 
 V. N. Staroverov, T. A. Keith, R. Kobayashi, J. Normand, 
 K. Raghavachari, A. P. Rendell, J. C. Burant, S. S. Iyengar, 
 J. Tomasi, M. Cossi, J. M. Millam, M. Klene, C. Adamo, R. Cammi, 
 J. W. Ochterski, R. L. Martin, K. Morokuma, O. Farkas, 
 J. B. Foresman, and D. J. Fox, Gaussian, Inc., Wallingford CT, 2019.
 
 ******************************************
 Gaussian 16:  ES64L-G16RevC.01  3-Jul-2019
                28-Jul-2026 
 ******************************************
 %chk=dmp_s0_abs.chk
 %mem=30GB
 %nprocshared=8
 Will use up to    8 processors via shared memory.
 -------------------------------------------------------------
 #p TD(NStates=10) B3LYP/6-31+G(d) SCRF=(SMD,Solvent=Methanol)
 -------------------------------------------------------------
 1/38=1,172=1/1;
 2/12=2,17=6,18=5,40=1/2;
 3/5=1,6=6,7=11,11=9,25=1,30=1,70=32201,72=3,74=-5/1,2,3,8;
 4//1;
 5/5=2,38=5,53=3/2;
 8/6=1,10=2,108=10/1;
 9/41=10,42=1,70=2/14;
 6/7=2,8=2,9=2,10=2/1;
 99/5=1,9=1/99;
 Leave Link    1 at Tue Jul 28 09:43:15 2026, MaxMem=  4026531840 cpu:               0.7 elap:               0.1
 (Enter /opt/packages/gaussian/g16RevC.01/g16/l101.exe)
 --------------------------------------------------
 Vertical excitation energies (absorption spectrum)
 --------------------------------------------------
 Symbolic Z-matrix:
 Charge =  1 Multiplicity = 1
 C                     2.06502  -0.51565  -0.10214 
 C                     1.23856  -1.63656   0.0696 
 C                    -0.14353  -1.48558   0.10135 
 C                    -0.74284  -0.21902  -0.04741 
 C                     0.09914   0.908    -0.21393 
 C                     1.47251   0.76939  -0.23495 
 O                     2.27446   1.8686   -0.45343 
 H                     1.66801  -2.626     0.17477 
 H                    -0.75635  -2.37122   0.23209 
 H                    -0.29997   1.91176  -0.32605 
 O                     3.40941  -0.55287  -0.16196 
 C                     4.08297  -1.82157  -0.05409 
 H                     3.77884  -2.48808  -0.86772 
 H                     3.87955  -2.28366   0.91743 
 H                     5.1449   -1.58845  -0.14081 
 C                    -2.18544  -0.10774  -0.03784 
 C                    -3.15682  -1.23915   0.18466 
 N                    -2.85343   0.99575  -0.25631 
 C                    -4.32112   0.85126  -0.2491 
 C                    -4.50974  -0.52734   0.40277 
 H                    -2.8602   -1.87301   1.02382 
 H                    -3.15796  -1.86715  -0.71709 
 H                    -4.67786   0.89264  -1.28447 
 H                    -4.76631   1.67711   0.3103 
 H                    -4.70074  -0.41047   1.47419 
 H                    -5.34422  -1.07661  -0.03817 
 H                    -2.41551   1.88351  -0.49238 
 C                     2.80095   2.48547   0.74266 
 H                     1.98135   2.86597   1.36351 
 H                     3.42568   3.31442   0.40313 
 H                     3.40582   1.77407   1.31534 
 
 ITRead=  0  0  0  0  0  0  0  0  0  0  0  0  0  0  0  0  0  0  0  0
 ITRead=  0  0  0  0  0  0  0  0  0  0  0
 MicOpt= -1 -1 -1 -1 -1 -1 -1 -1 -1 -1 -1 -1 -1 -1 -1 -1 -1 -1 -1 -1
 MicOpt= -1 -1 -1 -1 -1 -1 -1 -1 -1 -1 -1
 NAtoms=     31 NQM=       31 NQMF=       0 NMMI=      0 NMMIF=      0
                NMic=       0 NMicF=      0.
                    Isotopes and Nuclear Properties:
 (Nuclear quadrupole moments (NQMom) in fm**2, nuclear magnetic moments (NMagM)
  in nuclear magnetons)

  Atom         1           2           3           4           5           6           7           8           9          10
 IAtWgt=          12          12          12          12          12          12          16           1           1           1
 AtmWgt=  12.0000000  12.0000000  12.0000000  12.0000000  12.0000000  12.0000000  15.9949146   1.0078250   1.0078250   1.0078250
 NucSpn=           0           0           0           0           0           0           0           1           1           1
 AtZEff=  -0.0000000  -0.0000000  -0.0000000  -0.0000000  -0.0000000  -0.0000000  -0.0000000  -0.0000000  -0.0000000  -0.0000000
 NQMom=    0.0000000   0.0000000   0.0000000   0.0000000   0.0000000   0.0000000   0.0000000   0.0000000   0.0000000   0.0000000
 NMagM=    0.0000000   0.0000000   0.0000000   0.0000000   0.0000000   0.0000000   0.0000000   2.7928460   2.7928460   2.7928460
 AtZNuc=   6.0000000   6.0000000   6.0000000   6.0000000   6.0000000   6.0000000   8.0000000   1.0000000   1.0000000   1.0000000

  Atom        11          12          13          14          15          16          17          18          19          20
 IAtWgt=          16          12           1           1           1          12          12          14          12          12
 AtmWgt=  15.9949146  12.0000000   1.0078250   1.0078250   1.0078250  12.0000000  12.0000000  14.0030740  12.0000000  12.0000000
 NucSpn=           0           0           1           1           1           0           0           2           0           0
 AtZEff=  -0.0000000  -0.0000000  -0.0000000  -0.0000000  -0.0000000  -0.0000000  -0.0000000  -0.0000000  -0.0000000  -0.0000000
 NQMom=    0.0000000   0.0000000   0.0000000   0.0000000   0.0000000   0.0000000   0.0000000   2.0440000   0.0000000   0.0000000
 NMagM=    0.0000000   0.0000000   2.7928460   2.7928460   2.7928460   0.0000000   0.0000000   0.4037610   0.0000000   0.0000000
 AtZNuc=   8.0000000   6.0000000   1.0000000   1.0000000   1.0000000   6.0000000   6.0000000   7.0000000   6.0000000   6.0000000

  Atom        21          22          23          24          25          26          27          28          29          30
 IAtWgt=           1           1           1           1           1           1           1          12           1           1
 AtmWgt=   1.0078250   1.0078250   1.0078250   1.0078250   1.0078250   1.0078250   1.0078250  12.0000000   1.0078250   1.0078250
 NucSpn=           1           1           1           1           1           1           1           0           1           1
 AtZEff=  -0.0000000  -0.0000000  -0.0000000  -0.0000000  -0.0000000  -0.0000000  -0.0000000  -0.0000000  -0.0000000  -0.0000000
 NQMom=    0.0000000   0.0000000   0.0000000   0.0000000   0.0000000   0.0000000   0.0000000   0.0000000   0.0000000   0.0000000
 NMagM=    2.7928460   2.7928460   2.7928460   2.7928460   2.7928460   2.7928460   2.7928460   0.0000000   2.7928460   2.7928460
 AtZNuc=   1.0000000   1.0000000   1.0000000   1.0000000   1.0000000   1.0000000   1.0000000   6.0000000   1.0000000   1.0000000

  Atom        31
 IAtWgt=           1
 AtmWgt=   1.0078250
 NucSpn=           1
 AtZEff=  -0.0000000
 NQMom=    0.0000000
 NMagM=    2.7928460
 AtZNuc=   1.0000000
 Leave Link  101 at Tue Jul 28 09:43:15 2026, MaxMem=  4026531840 cpu:               0.4 elap:               0.1
 (Enter /opt/packages/gaussian/g16RevC.01/g16/l202.exe)
                          Input orientation:                          
 ---------------------------------------------------------------------
 Center     Atomic      Atomic             Coordinates (Angstroms)
 Number     Number       Type             X           Y           Z
 ---------------------------------------------------------------------
      1          6           0        2.065020   -0.515650   -0.102140
      2          6           0        1.238560   -1.636560    0.069600
      3          6           0       -0.143530   -1.485580    0.101350
      4          6           0       -0.742840   -0.219020   -0.047410
      5          6           0        0.099140    0.908000   -0.213930
      6          6           0        1.472510    0.769390   -0.234950
      7          8           0        2.274460    1.868600   -0.453430
      8          1           0        1.668010   -2.626000    0.174770
      9          1           0       -0.756350   -2.371220    0.232090
     10          1           0       -0.299970    1.911760   -0.326050
     11          8           0        3.409410   -0.552870   -0.161960
     12          6           0        4.082970   -1.821570   -0.054090
     13          1           0        3.778840   -2.488080   -0.867720
     14          1           0        3.879550   -2.283660    0.917430
     15          1           0        5.144900   -1.588450   -0.140810
     16          6           0       -2.185440   -0.107740   -0.037840
     17          6           0       -3.156820   -1.239150    0.184660
     18          7           0       -2.853430    0.995750   -0.256310
     19          6           0       -4.321120    0.851260   -0.249100
     20          6           0       -4.509740   -0.527340    0.402770
     21          1           0       -2.860200   -1.873010    1.023820
     22          1           0       -3.157960   -1.867150   -0.717090
     23          1           0       -4.677860    0.892640   -1.284470
     24          1           0       -4.766310    1.677110    0.310300
     25          1           0       -4.700740   -0.410470    1.474190
     26          1           0       -5.344220   -1.076610   -0.038170
     27          1           0       -2.415510    1.883510   -0.492380
     28          6           0        2.800950    2.485470    0.742660
     29          1           0        1.981350    2.865970    1.363510
     30          1           0        3.425680    3.314420    0.403130
     31          1           0        3.405820    1.774070    1.315340
 ---------------------------------------------------------------------
                    Distance matrix (angstroms):
                    1          2          3          4          5
     1  C    0.000000
     2  C    1.403200   0.000000
     3  C    2.420716   1.390675   0.000000
     4  C    2.824015   2.439069   1.409069   0.000000
     5  C    2.429807   2.802401   2.426420   1.416627   0.000000
     6  C    1.421279   2.436407   2.794561   2.433085   1.380507
     7  O    2.419074   3.692262   4.171928   3.691491   2.390006
     8  H    2.165150   1.083734   2.141874   3.413959   3.886077
     9  H    3.393373   2.132087   1.084896   2.170315   3.418198
    10  H    3.396415   3.887697   3.427691   2.194082   1.085999
    11  O    1.346235   2.437333   3.682752   4.167224   3.618664
    12  C    2.404134   2.853103   4.242682   5.084944   4.831874
    13  H    2.722824   2.838429   4.162822   5.125147   5.049851
    14  H    2.730916   2.848224   4.181876   5.153653   5.075251
    15  H    3.261603   3.912298   5.294971   6.045622   5.630036
    16  C    4.270472   3.751348   2.467228   1.446917   2.506400
    17  C    5.279519   4.414809   3.024497   2.630935   3.920511
    18  N    5.147742   4.876439   3.691677   2.444155   2.954178
    19  C    6.532444   6.099251   4.799572   3.740356   4.420764
    20  C    6.594129   5.863815   4.480275   3.806213   4.866446
    21  H    5.231444   4.215006   2.895056   2.892478   4.245437
    22  H    5.429939   4.472297   3.146781   2.999601   4.308518
    23  H    6.989107   6.575286   5.304392   4.272059   4.895510
    24  H    7.186472   6.862711   5.605030   4.462239   4.953681
    25  H    6.947761   6.225067   4.879417   4.244631   5.256135
    26  H    7.430720   6.607431   5.218611   4.680624   5.796528
    27  H    5.097392   5.104796   4.106723   2.723317   2.711571
    28  C    3.203436   4.459283   4.985025   4.527353   3.271583
    29  H    3.686527   4.743281   5.004413   4.350755   3.140808
    30  H    4.095867   5.422817   5.989185   5.483133   4.151805
    31  H    3.008291   4.228626   4.969605   4.800091   3.744713
                    6          7          8          9         10
     6  C    0.000000
     7  O    1.378086   0.000000
     8  H    3.425604   4.578629   0.000000
     9  H    3.879352   5.256598   2.438385   0.000000
    10  H    2.110686   2.577941   4.971422   4.343238   0.000000
    11  O    2.346333   2.690090   2.728320   4.562371   4.456549
    12  C    3.682429   4.128866   2.555683   4.878835   5.763842
    13  H    4.041122   4.627684   2.358264   4.668103   6.024009
    14  H    4.054989   4.657986   2.357891   4.687102   6.051130
    15  H    4.365171   4.504259   3.642096   5.964607   6.475523
    16  C    3.766803   4.895850   4.608244   2.690446   2.777849
    17  C    5.063694   6.289998   5.020203   2.654447   4.283766
    18  N    4.331911   5.205380   5.809159   3.996594   2.713687
    19  C    5.794226   6.676706   6.938349   4.829442   4.159354
    20  C    6.154308   7.245618   6.528472   4.185327   4.919609
    21  H    5.228686   6.522779   4.668251   2.302441   4.764600
    22  H    5.350239   6.598222   4.966010   2.631114   4.754070
    23  H    6.240491   7.069503   7.401370   5.322685   4.595987
    24  H    6.328043   7.084659   7.741808   5.698673   4.517543
    25  H    6.513236   7.587048   6.867171   4.576633   5.291540
    26  H    7.065002   8.178691   7.184520   4.774684   5.870067
    27  H    4.052682   4.690155   6.120123   4.623894   2.122257
    28  C    2.380211   1.445113   5.266230   6.041730   3.329713
    29  H    2.685077   2.093306   5.627879   6.016915   2.994921
    30  H    3.270963   2.037007   6.199205   7.060108   4.047175
    31  H    2.674036   2.101775   4.866364   5.973317   4.055367
                   11         12         13         14         15
    11  O    0.000000
    12  C    1.440458   0.000000
    13  H    2.092753   1.094863   0.000000
    14  H    2.093263   1.094878   1.799636   0.000000
    15  H    2.021089   1.090670   1.789931   1.790056   0.000000
    16  C    5.613902   6.498495   6.475134   6.513929   7.479104
    17  C    6.611089   7.267102   7.125357   7.151116   8.315437
    18  N    6.452154   7.489448   7.516508   7.580581   8.406231
    19  C    7.857498   8.821042   8.783122   8.856608   9.775963
    20  C    7.939302   8.701633   8.611574   8.586601   9.727975
    21  H    6.515892   7.026532   6.930591   6.753087   8.094379
    22  H    6.720554   7.271363   6.966164   7.236828   8.327500
    23  H    8.291771   9.253805   9.116947   9.389702  10.195606
    24  H    8.487534   9.522778   9.578942   9.529281  10.445069
    25  H    8.274769   9.026650   9.039042   8.800011  10.046516
    26  H    8.770158   9.456592   9.268798   9.351367  10.502102
    27  H    6.322564   7.493328   7.590893   7.679886   8.326939
    28  C    3.228013   4.563878   5.318439   4.892701   4.782410
    29  H    4.006854   5.329111   6.072496   5.506436   5.666823
    30  H    3.908391   5.198026   5.950528   5.639947   5.223957
    31  H    2.756280   3.906725   4.803209   4.104622   4.056022
                   16         17         18         19         20
    16  C    0.000000
    17  C    1.507705   0.000000
    18  N    1.308293   2.298103   0.000000
    19  C    2.350626   2.431780   1.474803   0.000000
    20  C    2.402618   1.544227   2.344686   1.536571   0.000000
    21  H    2.167626   1.092681   3.141427   3.343091   2.217547
    22  H    2.121956   1.098881   2.915691   2.993611   2.208277
    23  H    2.960913   3.002738   2.096733   1.095886   2.211648
    24  H    3.157179   3.333289   2.108177   1.092314   2.221256
    25  H    2.950358   2.175612   2.895624   2.169286   1.094569
    26  H    3.304028   2.204720   3.247506   2.192694   1.092008
    27  H    2.055387   3.280081   1.017655   2.180843   3.316518
    28  C    5.674328   7.048346   5.932050   7.374152   7.914464
    29  H    5.307436   6.681503   5.431081   6.810337   7.387274
    30  H    6.587131   8.006999   6.725943   8.155089   8.816462
    31  H    6.052644   7.309321   6.500314   7.937547   8.293694
                   21         22         23         24         25
    21  H    0.000000
    22  H    1.766200   0.000000
    23  H    4.034961   3.201321   0.000000
    24  H    4.092153   4.025432   1.779468   0.000000
    25  H    2.393626   3.050212   3.051037   2.391010   0.000000
    26  H    2.816457   2.421904   2.423890   2.835205   1.773427
    27  H    4.075298   3.830036   2.593734   2.492620   3.788406
    28  C    7.150106   7.522286   7.910687   7.622585   8.074463
    29  H    6.783357   7.289981   7.433095   6.932067   7.442959
    30  H    8.173553   8.452685   8.624406   8.354526   9.003370
    31  H    7.255976   7.776404   8.537085   8.234271   8.397247
                   26         27         28         29         30
    26  H    0.000000
    27  H    4.188790   0.000000
    28  C    8.924231   5.394361   0.000000
    29  H    8.436387   4.872569   1.096348   0.000000
    30  H    9.817690   6.080209   1.092120   1.791515   0.000000
    31  H    9.301697   6.096533   1.095409   1.795461   1.790307
                   31
    31  H    0.000000
 Stoichiometry    C12H16NO2(1+)
 Framework group  C1[X(C12H16NO2)]
 Deg. of freedom    87
 Full point group                 C1      NOp   1
 Largest Abelian subgroup         C1      NOp   1
 Largest concise Abelian subgroup C1      NOp   1
                         Standard orientation:                         
 ---------------------------------------------------------------------
 Center     Atomic      Atomic             Coordinates (Angstroms)
 Number     Number       Type             X           Y           Z
 ---------------------------------------------------------------------
      1          6           0        2.065021   -0.515650   -0.102141
      2          6           0        1.238560   -1.636560    0.069599
      3          6           0       -0.143530   -1.485580    0.101349
      4          6           0       -0.742839   -0.219020   -0.047411
      5          6           0        0.099141    0.908000   -0.213931
      6          6           0        1.472511    0.769390   -0.234951
      7          8           0        2.274461    1.868600   -0.453431
      8          1           0        1.668010   -2.626000    0.174769
      9          1           0       -0.756350   -2.371220    0.232089
     10          1           0       -0.299969    1.911760   -0.326051
     11          8           0        3.409411   -0.552870   -0.161961
     12          6           0        4.082970   -1.821570   -0.054091
     13          1           0        3.778840   -2.488080   -0.867721
     14          1           0        3.879550   -2.283660    0.917429
     15          1           0        5.144900   -1.588450   -0.140811
     16          6           0       -2.185439   -0.107740   -0.037841
     17          6           0       -3.156819   -1.239150    0.184659
     18          7           0       -2.853429    0.995750   -0.256311
     19          6           0       -4.321119    0.851260   -0.249101
     20          6           0       -4.509739   -0.527340    0.402769
     21          1           0       -2.860200   -1.873010    1.023819
     22          1           0       -3.157960   -1.867150   -0.717091
     23          1           0       -4.677859    0.892640   -1.284471
     24          1           0       -4.766309    1.677110    0.310299
     25          1           0       -4.700739   -0.410470    1.474189
     26          1           0       -5.344219   -1.076610   -0.038171
     27          1           0       -2.415509    1.883510   -0.492381
     28          6           0        2.800951    2.485470    0.742659
     29          1           0        1.981351    2.865970    1.363509
     30          1           0        3.425681    3.314420    0.403129
     31          1           0        3.405821    1.774070    1.315339
 ---------------------------------------------------------------------
 Rotational constants (GHZ):           1.2819988           0.3046416           0.2528487
 Leave Link  202 at Tue Jul 28 09:43:15 2026, MaxMem=  4026531840 cpu:               0.0 elap:               0.0
 (Enter /opt/packages/gaussian/g16RevC.01/g16/l301.exe)
 Standard basis: 6-31+G(d) (6D, 7F)
 Ernie: Thresh=  0.10000D-02 Tol=  0.10000D-05 Strict=F.
 There are   317 symmetry adapted cartesian basis functions of A   symmetry.
 There are   317 symmetry adapted basis functions of A   symmetry.
   317 basis functions,   544 primitive gaussians,   317 cartesian basis functions
    55 alpha electrons       55 beta electrons
       nuclear repulsion energy       980.2616742499 Hartrees.
 IExCor=  402 DFT=T Ex+Corr=B3LYP ExCW=0 ScaHFX=  0.200000
 ScaDFX=  0.800000  0.720000  1.000000  0.810000 ScalE2=  1.000000  1.000000
 IRadAn=      5 IRanWt=     -1 IRanGd=            0 ICorTp=0 IEmpDi=  4
 NAtoms=   31 NActive=   31 NUniq=   31 SFac= 1.00D+00 NAtFMM=   60 NAOKFM=F Big=F
 Integral buffers will be    131072 words long.
 Regular integral format.
 Two-electron integral symmetry is turned on.
 ------------------------------------------------------------------------------
 Polarizable Continuum Model (PCM)
 =================================
 Model                : PCM.
 Atomic radii         : SMD-Coulomb.
 Polarization charges : Total charges.
 Charge compensation  : None.
 Solution method      : On-the-fly selection.
 Cavity type          : VdW (van der Waals Surface) (Alpha=1.000).
 Cavity algorithm     : GePol (No added spheres)
                        Default sphere list used, NSphG=   31.
                        Lebedev-Laikov grids with approx.  5.0 points / Ang**2.
                        Smoothing algorithm: York/Karplus (Gamma=1.0000).
                        Polarization charges: spherical gaussians, with
                                              point-specific exponents (IZeta= 3).
                        Self-potential: point-specific (ISelfS= 7).
                        Self-field    : sphere-specific E.n sum rule (ISelfD= 2).
 Solvent              : Methanol, Eps=  32.613000 Eps(inf)=   1.765709
 ------------------------------------------------------------------------------
 GePol: Number of generator spheres                  =      31
 GePol: Total number of spheres                      =      31
 GePol: Number of exposed spheres                    =      31 (100.00%)
 GePol: Number of points                             =    2262
 GePol: Average weight of points                     =       0.11
 GePol: Minimum weight of points                     =   0.25D-09
 GePol: Maximum weight of points                     =    0.21991
 GePol: Number of points with low weight             =     129
 GePol: Fraction of low-weight points (<1% of avg)   =       5.70%
 GePol: Cavity surface area                          =    247.561 Ang**2
 GePol: Cavity volume                                =    218.504 Ang**3
 ------------------------------------------------------------------------------
 Atomic radii for non-electrostatic terms: SMD-CDS.
 ------------------------------------------------------------------------------
 PCM non-electrostatic energy =         0.0015846527 Hartrees.
 Nuclear repulsion after PCM non-electrostatic terms =      980.2632589026 Hartrees.
 Leave Link  301 at Tue Jul 28 09:43:15 2026, MaxMem=  4026531840 cpu:               0.5 elap:               0.1
 (Enter /opt/packages/gaussian/g16RevC.01/g16/l302.exe)
 NPDir=0 NMtPBC=     1 NCelOv=     1 NCel=       1 NClECP=     1 NCelD=      1
         NCelK=      1 NCelE2=     1 NClLst=     1 CellRange=     0.0.
 One-electron integrals computed using PRISM.
 One-electron integral symmetry used in STVInt
 NBasis=   317 RedAO= T EigKep=  1.42D-06  NBF=   317
 NBsUse=   315 1.00D-06 EigRej=  7.81D-07 NBFU=   315
 Precomputing XC quadrature grid using
 IXCGrd= 4 IRadAn=           5 IRanWt=          -1 IRanGd=           0 AccXCQ= 0.00D+00.
 Generated NRdTot=       0 NPtTot=           0 NUsed=           0 NTot=          32
 NSgBfM=   316   316   316   316   316 MxSgAt=    31 MxSgA2=    31.
 Leave Link  302 at Tue Jul 28 09:43:15 2026, MaxMem=  4026531840 cpu:               3.0 elap:               0.4
 (Enter /opt/packages/gaussian/g16RevC.01/g16/l303.exe)
 DipDrv:  MaxL=1.
 Leave Link  303 at Tue Jul 28 09:43:16 2026, MaxMem=  4026531840 cpu:               0.3 elap:               0.1
 (Enter /opt/packages/gaussian/g16RevC.01/g16/l308.exe)
 Leave Link  308 at Tue Jul 28 09:43:16 2026, MaxMem=  4026531840 cpu:               0.3 elap:               0.1
 (Enter /opt/packages/gaussian/g16RevC.01/g16/l401.exe)
 ExpMin= 4.38D-02 ExpMax= 5.48D+03 ExpMxC= 8.25D+02 IAcc=3 IRadAn=         5 AccDes= 0.00D+00
 Harris functional with IExCor=  402 and IRadAn=       5 diagonalized for initial guess.
 HarFok:  IExCor=  402 AccDes= 0.00D+00 IRadAn=         5 IDoV= 1 UseB2=F ITyADJ=14
 ICtDFT=  3500011 ScaDFX=  1.000000  1.000000  1.000000  1.000000
 FoFCou: FMM=F IPFlag=           0 FMFlag=      100000 FMFlg1=           0
         NFxFlg=           0 DoJE=T BraDBF=F KetDBF=T FulRan=T
         wScrn=  0.000000 ICntrl=       500 IOpCl=  0 I1Cent=   200000004 NGrid=           0
         NMat0=    1 NMatS0=      1 NMatT0=    0 NMatD0=    1 NMtDS0=    0 NMtDT0=    0
 Petite list used in FoFCou.
 Harris En= -671.877024194599    
 JPrj=0 DoOrth=F DoCkMO=F.
 Leave Link  401 at Tue Jul 28 09:43:17 2026, MaxMem=  4026531840 cpu:              12.8 elap:               1.6
 (Enter /opt/packages/gaussian/g16RevC.01/g16/l502.exe)
 Integral symmetry usage will be decided dynamically.
 Closed shell SCF:
 Using DIIS extrapolation, IDIIS=  1040.
 NGot=  4026531840 LenX=  4026324160 LenY=  4026223230
 Requested convergence on RMS density matrix=1.00D-08 within 128 cycles.
 Requested convergence on MAX density matrix=1.00D-06.
 Requested convergence on             energy=1.00D-06.
 No special actions if energy rises.
 Fock matrices will be formed incrementally for  20 cycles.

 Cycle   1  Pass 1  IDiag  1:
 FoFJK:  IHMeth= 1 ICntrl=       0 DoSepK=F KAlg= 0 I1Cent=           0 FoldK=F
 IRaf= 870000000 NMat=       1 IRICut=       1 DoRegI=T DoRafI=F ISym2E= 0 IDoP0=0 IntGTp=1.
 FoFCou: FMM=F IPFlag=           0 FMFlag=      100000 FMFlg1=           0
         NFxFlg=           0 DoJE=F BraDBF=F KetDBF=F FulRan=T
         wScrn=  0.000000 ICntrl=         0 IOpCl=  0 I1Cent=           0 NGrid=           0
         NMat0=    1 NMatS0=      1 NMatT0=    0 NMatD0=    1 NMtDS0=    0 NMtDT0=    0
 Symmetry not used in FoFCou.
 Inv3:  Mode=1 IEnd=    15349932.
 Iteration    1 A*A^-1 deviation from unit magnitude is 2.66D-15 for    762.
 Iteration    1 A*A^-1 deviation from orthogonality  is 3.01D-15 for   1268     93.
 Iteration    1 A^-1*A deviation from unit magnitude is 3.55D-15 for    762.
 Iteration    1 A^-1*A deviation from orthogonality  is 2.19D-15 for   1134    609.
 E= -671.728466438057    
 DIIS: error= 1.64D-02 at cycle   1 NSaved=   1.
 NSaved= 1 IEnMin= 1 EnMin= -671.728466438057     IErMin= 1 ErrMin= 1.64D-02
 ErrMax= 1.64D-02  0.00D+00 EMaxC= 1.00D-01 BMatC= 2.53D-01 BMatP= 2.53D-01
 IDIUse=3 WtCom= 8.36D-01 WtEn= 1.64D-01
 Coeff-Com:  0.100D+01
 Coeff-En:   0.100D+01
 Coeff:      0.100D+01
 Gap=     0.144 Goal=   None    Shift=    0.000
 GapD=    0.144 DampG=1.000 DampE=0.500 DampFc=0.5000 IDamp=-1.
 Damping current iteration by 5.00D-01
 RMSDP=3.25D-02 MaxDP=2.57D+00              OVMax= 1.62D-01

 Cycle   2  Pass 1  IDiag  1:
 RMSU=  1.50D-02    CP:  9.41D-01
 E= -671.846705559689     Delta-E=       -0.118239121631 Rises=F Damp=T
 DIIS: error= 6.07D-03 at cycle   2 NSaved=   2.
 NSaved= 2 IEnMin= 2 EnMin= -671.846705559689     IErMin= 2 ErrMin= 6.07D-03
 ErrMax= 6.07D-03  0.00D+00 EMaxC= 1.00D-01 BMatC= 1.83D-02 BMatP= 2.53D-01
 IDIUse=3 WtCom= 9.39D-01 WtEn= 6.07D-02
 Coeff-Com:  0.581D-02 0.994D+00
 Coeff-En:   0.153D-01 0.985D+00
 Coeff:      0.639D-02 0.994D+00
 Gap=     0.193 Goal=   None    Shift=    0.000
 RMSDP=2.72D-02 MaxDP=3.02D+00 DE=-1.18D-01 OVMax= 1.10D-01

 Cycle   3  Pass 1  IDiag  1:
 RMSU=  8.58D-03    CP:  7.04D-01  6.52D-01
 E= -671.973188588690     Delta-E=       -0.126483029001 Rises=F Damp=F
 DIIS: error= 2.60D-03 at cycle   3 NSaved=   3.
 NSaved= 3 IEnMin= 3 EnMin= -671.973188588690     IErMin= 3 ErrMin= 2.60D-03
 ErrMax= 2.60D-03  0.00D+00 EMaxC= 1.00D-01 BMatC= 8.40D-03 BMatP= 1.83D-02
 IDIUse=3 WtCom= 9.74D-01 WtEn= 2.60D-02
 Coeff-Com: -0.579D-01 0.403D+00 0.655D+00
 Coeff-En:   0.000D+00 0.000D+00 0.100D+01
 Coeff:     -0.564D-01 0.392D+00 0.664D+00
 Gap=     0.157 Goal=   None    Shift=    0.000
 RMSDP=1.63D-03 MaxDP=1.12D-01 DE=-1.26D-01 OVMax= 3.85D-02

 Cycle   4  Pass 1  IDiag  1:
 RMSU=  1.40D-03    CP:  7.04D-01  5.96D-01  1.01D+00
 E= -671.979153999123     Delta-E=       -0.005965410434 Rises=F Damp=F
 DIIS: error= 1.22D-03 at cycle   4 NSaved=   4.
 NSaved= 4 IEnMin= 4 EnMin= -671.979153999123     IErMin= 4 ErrMin= 1.22D-03
 ErrMax= 1.22D-03  0.00D+00 EMaxC= 1.00D-01 BMatC= 2.04D-03 BMatP= 8.40D-03
 IDIUse=3 WtCom= 9.88D-01 WtEn= 1.22D-02
 Coeff-Com: -0.301D-01 0.114D+00 0.371D+00 0.546D+00
 Coeff-En:   0.000D+00 0.000D+00 0.194D+00 0.806D+00
 Coeff:     -0.297D-01 0.112D+00 0.368D+00 0.549D+00
 Gap=     0.156 Goal=   None    Shift=    0.000
 RMSDP=1.33D-03 MaxDP=6.81D-02 DE=-5.97D-03 OVMax= 1.55D-02

 Cycle   5  Pass 1  IDiag  1:
 RMSU=  8.14D-04    CP:  6.99D-01  6.21D-01  9.46D-01  5.67D-01
 E= -671.981057326346     Delta-E=       -0.001903327223 Rises=F Damp=F
 DIIS: error= 3.91D-04 at cycle   5 NSaved=   5.
 NSaved= 5 IEnMin= 5 EnMin= -671.981057326346     IErMin= 5 ErrMin= 3.91D-04
 ErrMax= 3.91D-04  0.00D+00 EMaxC= 1.00D-01 BMatC= 1.26D-04 BMatP= 2.04D-03
 IDIUse=3 WtCom= 9.96D-01 WtEn= 3.91D-03
 Coeff-Com: -0.107D-01 0.276D-01 0.137D+00 0.280D+00 0.566D+00
 Coeff-En:   0.000D+00 0.000D+00 0.000D+00 0.000D+00 0.100D+01
 Coeff:     -0.106D-01 0.275D-01 0.136D+00 0.279D+00 0.568D+00
 Gap=     0.157 Goal=   None    Shift=    0.000
 RMSDP=3.36D-04 MaxDP=2.79D-02 DE=-1.90D-03 OVMax= 3.98D-03

 Cycle   6  Pass 1  IDiag  1:
 RMSU=  2.17D-04    CP:  7.01D-01  6.23D-01  9.36D-01  5.56D-01  9.06D-01
 E= -671.981166650234     Delta-E=       -0.000109323888 Rises=F Damp=F
 DIIS: error= 1.34D-04 at cycle   6 NSaved=   6.
 NSaved= 6 IEnMin= 6 EnMin= -671.981166650234     IErMin= 6 ErrMin= 1.34D-04
 ErrMax= 1.34D-04  0.00D+00 EMaxC= 1.00D-01 BMatC= 1.71D-05 BMatP= 1.26D-04
 IDIUse=3 WtCom= 9.99D-01 WtEn= 1.34D-03
 Coeff-Com: -0.378D-02 0.647D-02 0.471D-01 0.114D+00 0.336D+00 0.500D+00
 Coeff-En:   0.000D+00 0.000D+00 0.000D+00 0.000D+00 0.732D-01 0.927D+00
 Coeff:     -0.377D-02 0.646D-02 0.470D-01 0.114D+00 0.336D+00 0.501D+00
 Gap=     0.156 Goal=   None    Shift=    0.000
 RMSDP=1.13D-04 MaxDP=8.16D-03 DE=-1.09D-04 OVMax= 1.15D-03

 Cycle   7  Pass 1  IDiag  1:
 RMSU=  4.71D-05    CP:  7.01D-01  6.22D-01  9.43D-01  5.62D-01  8.83D-01
                    CP:  7.33D-01
 E= -671.981182727715     Delta-E=       -0.000016077480 Rises=F Damp=F
 DIIS: error= 2.61D-05 at cycle   7 NSaved=   7.
 NSaved= 7 IEnMin= 7 EnMin= -671.981182727715     IErMin= 7 ErrMin= 2.61D-05
 ErrMax= 2.61D-05  0.00D+00 EMaxC= 1.00D-01 BMatC= 6.45D-07 BMatP= 1.71D-05
 IDIUse=1 WtCom= 1.00D+00 WtEn= 0.00D+00
 Coeff-Com: -0.131D-02 0.179D-02 0.162D-01 0.420D-01 0.144D+00 0.250D+00
 Coeff-Com:  0.547D+00
 Coeff:     -0.131D-02 0.179D-02 0.162D-01 0.420D-01 0.144D+00 0.250D+00
 Coeff:      0.547D+00
 Gap=     0.156 Goal=   None    Shift=    0.000
 RMSDP=1.71D-05 MaxDP=1.86D-03 DE=-1.61D-05 OVMax= 2.54D-04

 Cycle   8  Pass 1  IDiag  1:
 RMSU=  1.20D-05    CP:  7.01D-01  6.22D-01  9.43D-01  5.63D-01  8.90D-01
                    CP:  7.37D-01  9.41D-01
 E= -671.981183281688     Delta-E=       -0.000000553973 Rises=F Damp=F
 DIIS: error= 7.09D-06 at cycle   8 NSaved=   8.
 NSaved= 8 IEnMin= 8 EnMin= -671.981183281688     IErMin= 8 ErrMin= 7.09D-06
 ErrMax= 7.09D-06  0.00D+00 EMaxC= 1.00D-01 BMatC= 5.55D-08 BMatP= 6.45D-07
 IDIUse=1 WtCom= 1.00D+00 WtEn= 0.00D+00
 Coeff-Com: -0.281D-04-0.207D-03 0.731D-04 0.133D-02 0.147D-01 0.312D-01
 Coeff-Com:  0.240D+00 0.713D+00
 Coeff:     -0.281D-04-0.207D-03 0.731D-04 0.133D-02 0.147D-01 0.312D-01
 Coeff:      0.240D+00 0.713D+00
 Gap=     0.156 Goal=   None    Shift=    0.000
 RMSDP=6.46D-06 MaxDP=3.71D-04 DE=-5.54D-07 OVMax= 9.59D-05

 Cycle   9  Pass 1  IDiag  1:
 RMSU=  3.58D-06    CP:  7.01D-01  6.22D-01  9.43D-01  5.62D-01  8.93D-01
                    CP:  7.36D-01  9.38D-01  8.71D-01
 E= -671.981183326983     Delta-E=       -0.000000045295 Rises=F Damp=F
 DIIS: error= 2.81D-06 at cycle   9 NSaved=   9.
 NSaved= 9 IEnMin= 9 EnMin= -671.981183326983     IErMin= 9 ErrMin= 2.81D-06
 ErrMax= 2.81D-06  0.00D+00 EMaxC= 1.00D-01 BMatC= 6.72D-09 BMatP= 5.55D-08
 IDIUse=1 WtCom= 1.00D+00 WtEn= 0.00D+00
 Coeff-Com:  0.696D-04-0.212D-03-0.978D-03-0.205D-02-0.151D-02-0.434D-03
 Coeff-Com:  0.864D-01 0.356D+00 0.562D+00
 Coeff:      0.696D-04-0.212D-03-0.978D-03-0.205D-02-0.151D-02-0.434D-03
 Coeff:      0.864D-01 0.356D+00 0.562D+00
 Gap=     0.156 Goal=   None    Shift=    0.000
 RMSDP=2.31D-06 MaxDP=1.09D-04 DE=-4.53D-08 OVMax= 3.77D-05

 Cycle  10  Pass 1  IDiag  1:
 RMSU=  1.65D-06    CP:  7.01D-01  6.22D-01  9.43D-01  5.62D-01  8.94D-01
                    CP:  7.36D-01  9.57D-01  8.57D-01  8.83D-01
 E= -671.981183333611     Delta-E=       -0.000000006628 Rises=F Damp=F
 DIIS: error= 7.28D-07 at cycle  10 NSaved=  10.
 NSaved=10 IEnMin=10 EnMin= -671.981183333611     IErMin=10 ErrMin= 7.28D-07
 ErrMax= 7.28D-07  0.00D+00 EMaxC= 1.00D-01 BMatC= 5.99D-10 BMatP= 6.72D-09
 IDIUse=1 WtCom= 1.00D+00 WtEn= 0.00D+00
 Coeff-Com:  0.347D-04-0.641D-04-0.445D-03-0.114D-02-0.272D-02-0.462D-02
 Coeff-Com:  0.521D-02 0.503D-01 0.256D+00 0.698D+00
 Coeff:      0.347D-04-0.641D-04-0.445D-03-0.114D-02-0.272D-02-0.462D-02
 Coeff:      0.521D-02 0.503D-01 0.256D+00 0.698D+00
 Gap=     0.156 Goal=   None    Shift=    0.000
 RMSDP=7.50D-07 MaxDP=3.49D-05 DE=-6.63D-09 OVMax= 1.61D-05

 Cycle  11  Pass 1  IDiag  1:
 RMSU=  3.73D-07    CP:  7.01D-01  6.22D-01  9.43D-01  5.62D-01  8.95D-01
                    CP:  7.36D-01  9.59D-01  8.78D-01  9.43D-01  8.11D-01
 E= -671.981183334247     Delta-E=       -0.000000000636 Rises=F Damp=F
 DIIS: error= 1.70D-07 at cycle  11 NSaved=  11.
 NSaved=11 IEnMin=11 EnMin= -671.981183334247     IErMin=11 ErrMin= 1.70D-07
 ErrMax= 1.70D-07  0.00D+00 EMaxC= 1.00D-01 BMatC= 3.93D-11 BMatP= 5.99D-10
 IDIUse=1 WtCom= 1.00D+00 WtEn= 0.00D+00
 Coeff-Com:  0.143D-04-0.214D-04-0.171D-03-0.467D-03-0.128D-02-0.224D-02
 Coeff-Com: -0.204D-02 0.478D-02 0.910D-01 0.316D+00 0.594D+00
 Coeff:      0.143D-04-0.214D-04-0.171D-03-0.467D-03-0.128D-02-0.224D-02
 Coeff:     -0.204D-02 0.478D-02 0.910D-01 0.316D+00 0.594D+00
 Gap=     0.156 Goal=   None    Shift=    0.000
 RMSDP=1.32D-07 MaxDP=4.35D-06 DE=-6.36D-10 OVMax= 4.41D-06

 Cycle  12  Pass 1  IDiag  1:
 RMSU=  9.73D-08    CP:  7.01D-01  6.22D-01  9.43D-01  5.62D-01  8.95D-01
                    CP:  7.36D-01  9.59D-01  8.76D-01  9.47D-01  8.51D-01
                    CP:  9.09D-01
 E= -671.981183334290     Delta-E=       -0.000000000043 Rises=F Damp=F
 DIIS: error= 9.87D-08 at cycle  12 NSaved=  12.
 NSaved=12 IEnMin=12 EnMin= -671.981183334290     IErMin=12 ErrMin= 9.87D-08
 ErrMax= 9.87D-08  0.00D+00 EMaxC= 1.00D-01 BMatC= 8.12D-12 BMatP= 3.93D-11
 IDIUse=1 WtCom= 1.00D+00 WtEn= 0.00D+00
 Coeff-Com:  0.965D-07 0.213D-05 0.615D-05-0.266D-05-0.740D-04-0.155D-03
 Coeff-Com: -0.192D-02-0.761D-02-0.291D-02 0.266D-01 0.326D+00 0.660D+00
 Coeff:      0.965D-07 0.213D-05 0.615D-05-0.266D-05-0.740D-04-0.155D-03
 Coeff:     -0.192D-02-0.761D-02-0.291D-02 0.266D-01 0.326D+00 0.660D+00
 Gap=     0.156 Goal=   None    Shift=    0.000
 RMSDP=6.68D-08 MaxDP=5.14D-06 DE=-4.31D-11 OVMax= 1.95D-06

 Cycle  13  Pass 1  IDiag  1:
 RMSU=  3.90D-08    CP:  7.01D-01  6.22D-01  9.43D-01  5.62D-01  8.95D-01
                    CP:  7.36D-01  9.59D-01  8.76D-01  9.53D-01  8.50D-01
                    CP:  9.92D-01  7.92D-01
 E= -671.981183334291     Delta-E=       -0.000000000001 Rises=F Damp=F
 DIIS: error= 1.83D-08 at cycle  13 NSaved=  13.
 NSaved=13 IEnMin=13 EnMin= -671.981183334291     IErMin=13 ErrMin= 1.83D-08
 ErrMax= 1.83D-08  0.00D+00 EMaxC= 1.00D-01 BMatC= 4.55D-13 BMatP= 8.12D-12
 IDIUse=1 WtCom= 1.00D+00 WtEn= 0.00D+00
 Coeff-Com: -0.655D-06 0.209D-05 0.116D-04 0.223D-04 0.268D-04 0.370D-04
 Coeff-Com: -0.832D-03-0.394D-02-0.626D-02-0.570D-02 0.112D+00 0.305D+00
 Coeff-Com:  0.600D+00
 Coeff:     -0.655D-06 0.209D-05 0.116D-04 0.223D-04 0.268D-04 0.370D-04
 Coeff:     -0.832D-03-0.394D-02-0.626D-02-0.570D-02 0.112D+00 0.305D+00
 Coeff:      0.600D+00
 Gap=     0.156 Goal=   None    Shift=    0.000
 RMSDP=1.69D-08 MaxDP=1.00D-06 DE=-6.82D-13 OVMax= 3.17D-07

 Cycle  14  Pass 1  IDiag  1:
 RMSU=  9.32D-09    CP:  7.01D-01  6.22D-01  9.43D-01  5.62D-01  8.95D-01
                    CP:  7.36D-01  9.59D-01  8.76D-01  9.54D-01  8.53D-01
                    CP:  9.96D-01  8.67D-01  8.93D-01
 E= -671.981183334286     Delta-E=        0.000000000005 Rises=F Damp=F
 DIIS: error= 1.03D-08 at cycle  14 NSaved=  14.
 NSaved=14 IEnMin=13 EnMin= -671.981183334291     IErMin=14 ErrMin= 1.03D-08
 ErrMax= 1.03D-08  0.00D+00 EMaxC= 1.00D-01 BMatC= 8.91D-14 BMatP= 4.55D-13
 IDIUse=1 WtCom= 1.00D+00 WtEn= 0.00D+00
 Coeff-Com: -0.352D-06 0.681D-06 0.512D-05 0.125D-04 0.283D-04 0.510D-04
 Coeff-Com: -0.803D-04-0.689D-03-0.268D-02-0.820D-02-0.101D-02 0.515D-01
 Coeff-Com:  0.336D+00 0.625D+00
 Coeff:     -0.352D-06 0.681D-06 0.512D-05 0.125D-04 0.283D-04 0.510D-04
 Coeff:     -0.803D-04-0.689D-03-0.268D-02-0.820D-02-0.101D-02 0.515D-01
 Coeff:      0.336D+00 0.625D+00
 Gap=     0.156 Goal=   None    Shift=    0.000
 RMSDP=5.11D-09 MaxDP=2.71D-07 DE= 4.89D-12 OVMax= 1.33D-07

 Error on total polarization charges =  0.05683
 SCF Done:  E(RB3LYP) =  -671.981183334     A.U. after   14 cycles
            NFock= 14  Conv=0.51D-08     -V/T= 2.0097
 KE= 6.654954680651D+02 PE=-3.505431479503D+03 EE= 1.187691569201D+03
 SMD-CDS (non-electrostatic) energy       (kcal/mol) =       0.99
 (included in total energy above)
 Leave Link  502 at Tue Jul 28 09:43:56 2026, MaxMem=  4026531840 cpu:             305.8 elap:              38.6
 (Enter /opt/packages/gaussian/g16RevC.01/g16/l801.exe)
 DoSCS=F DFT=T ScalE2(SS,OS)=  1.000000  1.000000
 ExpMin= 4.38D-02 ExpMax= 5.48D+03 ExpMxC= 8.25D+02 IAcc=3 IRadAn=         5 AccDes= 0.00D+00
 HarFok:  IExCor=  205 AccDes= 0.00D+00 IRadAn=         5 IDoV=-2 UseB2=F ITyADJ=14
 ICtDFT= 12500011 ScaDFX=  1.000000  1.000000  1.000000  1.000000
 Largest valence mixing into a core orbital is  5.45D-05
 Largest core mixing into a valence orbital is  1.16D-05
 Range of M.O.s used for correlation:    16   315
 NBasis=   317 NAE=    55 NBE=    55 NFC=    15 NFV=     0
 NROrb=    300 NOA=    40 NOB=    40 NVA=   260 NVB=   260

 **** Warning!!: The largest alpha MO coefficient is  0.12969899D+03

 Leave Link  801 at Tue Jul 28 09:43:56 2026, MaxMem=  4026531840 cpu:               1.0 elap:               0.1
 (Enter /opt/packages/gaussian/g16RevC.01/g16/l914.exe)
 RHF ground state
 Keep R1, R2, and R3 ints in memory in canonical form, NReq=3965547070.
 FoFCou: FMM=F IPFlag=           0 FMFlag=           0 FMFlg1=           0
         NFxFlg=           0 DoJE=F BraDBF=F KetDBF=F FulRan=T
         wScrn=  0.000000 ICntrl=       600 IOpCl=  0 I1Cent=           0 NGrid=           0
         NMat0=    1 NMatS0=  50403 NMatT0=    0 NMatD0=    1 NMtDS0=    0 NMtDT0=    0
 Symmetry not used in FoFCou.
 Two-electron integral symmetry not used.
 MDV=  4026531840 DFT=T DoStab=F Mixed=T DoRPA=T DoScal=F NonHer=T
 NEqPCM:  Using non-equilibrium solvation (IEInf=1, Eps=  32.6130, EpsInf=   1.7657)
 Inv3:  Mode=1 IEnd=    15349932.
 Iteration    1 A*A^-1 deviation from unit magnitude is 3.44D-15 for    734.
 Iteration    1 A*A^-1 deviation from orthogonality  is 1.69D-15 for   1521   1245.
 Iteration    1 A^-1*A deviation from unit magnitude is 3.11D-15 for   1623.
 Iteration    1 A^-1*A deviation from orthogonality  is 2.06D-15 for   1804   1447.
 Making orbital integer symmetry assigments:
 Orbital symmetries:
       Occupied  (A) (A) (A) (A) (A) (A) (A) (A) (A) (A) (A) (A)
                 (A) (A) (A) (A) (A) (A) (A) (A) (A) (A) (A) (A)
                 (A) (A) (A) (A) (A) (A) (A) (A) (A) (A) (A) (A)
                 (A) (A) (A) (A) (A) (A) (A) (A) (A) (A) (A) (A)
                 (A) (A) (A) (A) (A) (A) (A)
       Virtual   (A) (A) (A) (A) (A) (A) (A) (A) (A) (A) (A) (A)
                 (A) (A) (A) (A) (A) (A) (A) (A) (A) (A) (A) (A)
                 (A) (A) (A) (A) (A) (A) (A) (A) (A) (A) (A) (A)
                 (A) (A) (A) (A) (A) (A) (A) (A) (A) (A) (A) (A)
                 (A) (A) (A) (A) (A) (A) (A) (A) (A) (A) (A) (A)
                 (A) (A) (A) (A) (A) (A) (A) (A) (A) (A) (A) (A)
                 (A) (A) (A) (A) (A) (A) (A) (A) (A) (A) (A) (A)
                 (A) (A) (A) (A) (A) (A) (A) (A) (A) (A) (A) (A)
                 (A) (A) (A) (A) (A) (A) (A) (A) (A) (A) (A) (A)
                 (A) (A) (A) (A) (A) (A) (A) (A) (A) (A) (A) (A)
                 (A) (A) (A) (A) (A) (A) (A) (A) (A) (A) (A) (A)
                 (A) (A) (A) (A) (A) (A) (A) (A) (A) (A) (A) (A)
                 (A) (A) (A) (A) (A) (A) (A) (A) (A) (A) (A) (A)
                 (A) (A) (A) (A) (A) (A) (A) (A) (A) (A) (A) (A)
                 (A) (A) (A) (A) (A) (A) (A) (A) (A) (A) (A) (A)
                 (A) (A) (A) (A) (A) (A) (A) (A) (A) (A) (A) (A)
                 (A) (A) (A) (A) (A) (A) (A) (A) (A) (A) (A) (A)
                 (A) (A) (A) (A) (A) (A) (A) (A) (A) (A) (A) (A)
                 (A) (A) (A) (A) (A) (A) (A) (A) (A) (A) (A) (A)
                 (A) (A) (A) (A) (A) (A) (A) (A) (A) (A) (A) (A)
                 (A) (A) (A) (A) (A) (A) (A) (A) (A) (A) (A) (A)
                 (A) (A) (A) (A) (A) (A) (A) (A)
    40 initial guesses have been made.
 Convergence on wavefunction:    0.001000000000000
 Davidson Disk Diagonalization:  ConvIn= 1.00D-03 SkipCon=T Conv= 1.00D-03.
 Max sub-space:  2000 roots to seek:    40 dimension of matrix:        20800
 Iteration     1 Dimension    40 NMult     0 NNew     40
 CISAX will form    40 AO SS matrices at one time.
 NMat=    40 NSing=    40 JSym2X= 0.
 New state      5 was old state      7
 New state      6 was old state      8
 New state      7 was old state      5
 New state      8 was old state     13
 New state      9 was old state     10
 New state     10 was old state     12
 Excitation Energies [eV] at current iteration:
 Root      1 :     4.371489936398008
 Root      2 :     4.650619857282067
 Root      3 :     4.770275962835182
 Root      4 :     5.649641485869631
 Root      5 :     6.064453842539768
 Root      6 :     6.108339215184321
 Root      7 :     6.111900218863284
 Root      8 :     6.167977113449784
 Root      9 :     6.399444913212582
 Root     10 :     6.536745017015294
 Root     11 :     6.582788879002158
 Root     12 :     6.717123043957929
 Root     13 :     6.731002810056016
 Root     14 :     6.772627213442302
 Root     15 :     6.842717155923493
 Root     16 :     6.868044656203505
 Root     17 :     6.982599847264201
 Root     18 :     7.012455207423016
 Root     19 :     7.063552068246529
 Root     20 :     7.130636315407329
 Root     21 :     7.159004420094470
 Root     22 :     7.160940487203824
 Root     23 :     7.205861206259141
 Root     24 :     7.251367719421875
 Root     25 :     7.321872678618686
 Root     26 :     7.406214581711822
 Root     27 :     7.438323875286069
 Root     28 :     7.451688082066352
 Root     29 :     7.463566777677381
 Root     30 :     7.517033039034202
 Root     31 :     7.546682199525501
 Root     32 :     7.604965483552418
 Root     33 :     7.622228185108987
 Root     34 :     7.713509837999491
 Root     35 :     7.718052189173772
 Root     36 :     7.780070036552154
 Root     37 :     7.875803298584634
 Root     38 :     7.929807454464265
 Root     39 :     8.130054752427350
 Root     40 :     8.588737260827669
 Iteration     2 Dimension    60 NMult    40 NNew     20
 CISAX will form    20 AO SS matrices at one time.
 NMat=    20 NSing=    20 JSym2X= 0.
 Root      1 not converged, maximum delta is    0.253496769885822
 Root      2 not converged, maximum delta is    0.236599659819923
 Root      3 not converged, maximum delta is    0.030749817468631
 Root      4 not converged, maximum delta is    0.092486867512559
 New state      5 was old state      6
 Root      5 not converged, maximum delta is    0.460939270236004
 New state      6 was old state      5
 Root      6 not converged, maximum delta is    0.257365844753526
 Root      7 not converged, maximum delta is    0.371446094072327
 Root      8 not converged, maximum delta is    0.027820079552797
 Root      9 not converged, maximum delta is    0.074325973064641
 New state     10 was old state     11
 Root     10 not converged, maximum delta is    0.195468236304302
 Excitation Energies [eV] at current iteration:
 Root      1 :     3.983545372848632   Change is   -0.387944563549376
 Root      2 :     4.283748815769999   Change is   -0.366871041512068
 Root      3 :     4.753814714605403   Change is   -0.016461248229780
 Root      4 :     5.360195451968274   Change is   -0.289446033901357
 Root      5 :     5.759005568677428   Change is   -0.349333646506893
 Root      6 :     6.046866341703773   Change is   -0.017587500835995
 Root      7 :     6.060062994968349   Change is   -0.051837223894935
 Root      8 :     6.119796865337213   Change is   -0.048180248112572
 Root      9 :     6.358068738589955   Change is   -0.041376174622627
 Root     10 :     6.394075412826810   Change is   -0.188713466175348
 Iteration     3 Dimension    80 NMult    60 NNew     20
 CISAX will form    20 AO SS matrices at one time.
 NMat=    20 NSing=    20 JSym2X= 0.
 Root      1 not converged, maximum delta is    0.012174662643709
 Root      2 not converged, maximum delta is    0.011523191064847
 Root      3 not converged, maximum delta is    0.001846321676331
 Root      4 not converged, maximum delta is    0.009310325210969
 Root      5 not converged, maximum delta is    0.028117744191143
 Root      6 not converged, maximum delta is    0.019107843435593
 Root      7 not converged, maximum delta is    0.008854421846274
 Root      8 not converged, maximum delta is    0.031438301741853
 New state      9 was old state     10
 Root      9 not converged, maximum delta is    0.148153846031104
 New state     10 was old state      9
 Root     10 not converged, maximum delta is    0.216265651248002
 Excitation Energies [eV] at current iteration:
 Root      1 :     3.961545906962821   Change is   -0.021999465885811
 Root      2 :     4.271138833835903   Change is   -0.012609981934096
 Root      3 :     4.752765325065503   Change is   -0.001049389539900
 Root      4 :     5.348224367603586   Change is   -0.011971084364688
 Root      5 :     5.728655640337374   Change is   -0.030349928340054
 Root      6 :     6.045424565310691   Change is   -0.001441776393081
 Root      7 :     6.057118808471317   Change is   -0.002944186497031
 Root      8 :     6.115332076865862   Change is   -0.004464788471351
 Root      9 :     6.283418074355452   Change is   -0.110657338471358
 Root     10 :     6.355671959462739   Change is   -0.002396779127216
 Iteration     4 Dimension   100 NMult    80 NNew     20
 CISAX will form    20 AO SS matrices at one time.
 NMat=    20 NSing=    20 JSym2X= 0.
 Root      1 not converged, maximum delta is    0.001039670640319
 Root      2 not converged, maximum delta is    0.001006898721443
 Root      3 has converged.
 Root      4 not converged, maximum delta is    0.001470681400486
 Root      5 not converged, maximum delta is    0.003784788171038
 Root      6 not converged, maximum delta is    0.008892175878104
 Root      7 not converged, maximum delta is    0.002369883282839
 Root      8 not converged, maximum delta is    0.016851611192630
 Root      9 not converged, maximum delta is    0.144894283427541
 Root     10 not converged, maximum delta is    0.321909360120629
 Excitation Energies [eV] at current iteration:
 Root      1 :     3.960166694979344   Change is   -0.001379211983477
 Root      2 :     4.270402575918296   Change is   -0.000736257917608
 Root      3 :     4.752693424554320   Change is   -0.000071900511182
 Root      4 :     5.346869866081166   Change is   -0.001354501522419
 Root      5 :     5.726141372260395   Change is   -0.002514268076979
 Root      6 :     6.045135540061678   Change is   -0.000289025249013
 Root      7 :     6.056788692638013   Change is   -0.000330115833305
 Root      8 :     6.114592875718404   Change is   -0.000739201147457
 Root      9 :     6.256937712350755   Change is   -0.026480362004697
 Root     10 :     6.342345851914168   Change is   -0.013326107548571
 Iteration     5 Dimension   118 NMult   100 NNew     18
 CISAX will form    18 AO SS matrices at one time.
 NMat=    18 NSing=    18 JSym2X= 0.
 Root      1 has converged.
 Root      2 has converged.
 Root      3 has converged.
 Root      4 has converged.
 Root      5 has converged.
 Root      6 not converged, maximum delta is    0.001067654060102
 Root      7 has converged.
 Root      8 not converged, maximum delta is    0.002658061949692
 Root      9 not converged, maximum delta is    0.030038091081987
 Root     10 not converged, maximum delta is    0.089977601940597
 Excitation Energies [eV] at current iteration:
 Root      1 :     3.960080664892221   Change is   -0.000086030087123
 Root      2 :     4.270362584826282   Change is   -0.000039991092014
 Root      3 :     4.752690255127938   Change is   -0.000003169426383
 Root      4 :     5.346764216493233   Change is   -0.000105649587933
 Root      5 :     5.725865338614566   Change is   -0.000276033645829
 Root      6 :     6.045103014069595   Change is   -0.000032525992083
 Root      7 :     6.056756227754025   Change is   -0.000032464883988
 Root      8 :     6.114498014345024   Change is   -0.000094861373380
 Root      9 :     6.252599054526187   Change is   -0.004338657824568
 Root     10 :     6.336123932755164   Change is   -0.006221919159003
 Iteration     6 Dimension   126 NMult   118 NNew      8
 CISAX will form     8 AO SS matrices at one time.
 NMat=     8 NSing=     8 JSym2X= 0.
 Root      1 has converged.
 Root      2 has converged.
 Root      3 has converged.
 Root      4 has converged.
 Root      5 has converged.
 Root      6 has converged.
 Root      7 has converged.
 Root      8 has converged.
 Root      9 not converged, maximum delta is    0.003353206979463
 Root     10 not converged, maximum delta is    0.008902255828293
 Excitation Energies [eV] at current iteration:
 Root      1 :     3.960080468779263   Change is   -0.000000196112959
 Root      2 :     4.270362349781910   Change is   -0.000000235044373
 Root      3 :     4.752689987543534   Change is   -0.000000267584403
 Root      4 :     5.346763301983479   Change is   -0.000000914509754
 Root      5 :     5.725857936089446   Change is   -0.000007402525120
 Root      6 :     6.045099969762425   Change is   -0.000003044307170
 Root      7 :     6.056755919261216   Change is   -0.000000308492808
 Root      8 :     6.114488772889763   Change is   -0.000009241455261
 Root      9 :     6.252135906859165   Change is   -0.000463147667022
 Root     10 :     6.335422467149659   Change is   -0.000701465605506
 Iteration     7 Dimension   130 NMult   126 NNew      4
 CISAX will form     4 AO SS matrices at one time.
 NMat=     4 NSing=     4 JSym2X= 0.
 Root      1 has converged.
 Root      2 has converged.
 Root      3 has converged.
 Root      4 has converged.
 Root      5 has converged.
 Root      6 has converged.
 Root      7 has converged.
 Root      8 has converged.
 Root      9 has converged.
 Root     10 not converged, maximum delta is    0.001144727679930
 Excitation Energies [eV] at current iteration:
 Root      1 :     3.960080419341559   Change is   -0.000000049437703
 Root      2 :     4.270362332816700   Change is   -0.000000016965210
 Root      3 :     4.752689938428111   Change is   -0.000000049115423
 Root      4 :     5.346763057325121   Change is   -0.000000244658358
 Root      5 :     5.725857456792083   Change is   -0.000000479297363
 Root      6 :     6.045099731222281   Change is   -0.000000238540145
 Root      7 :     6.056755862287198   Change is   -0.000000056974019
 Root      8 :     6.114488156892553   Change is   -0.000000615997210
 Root      9 :     6.252078126892655   Change is   -0.000057779966510
 Root     10 :     6.335334348055037   Change is   -0.000088119094622
 Iteration     8 Dimension   132 NMult   130 NNew      2
 CISAX will form     2 AO SS matrices at one time.
 NMat=     2 NSing=     2 JSym2X= 0.
 Root      1 has converged.
 Root      2 has converged.
 Root      3 has converged.
 Root      4 has converged.
 Root      5 has converged.
 Root      6 has converged.
 Root      7 has converged.
 Root      8 has converged.
 Root      9 has converged.
 Root     10 has converged.
 Excitation Energies [eV] at current iteration:
 Root      1 :     3.960080405250211   Change is   -0.000000014091349
 Root      2 :     4.270362330850316   Change is   -0.000000001966383
 Root      3 :     4.752689928600947   Change is   -0.000000009827164
 Root      4 :     5.346763055378267   Change is   -0.000000001946853
 Root      5 :     5.725857438115078   Change is   -0.000000018677005
 Root      6 :     6.045099715387783   Change is   -0.000000015834498
 Root      7 :     6.056755860444872   Change is   -0.000000001842326
 Root      8 :     6.114488103949466   Change is   -0.000000052943087
 Root      9 :     6.252073396275537   Change is   -0.000004730617118
 Root     10 :     6.335322224034787   Change is   -0.000012124020250
 Convergence achieved on expansion vectors.
 ***********************************************************************
 Excited states from <AA,BB:AA,BB> singles matrix:
 ***********************************************************************
 
 1PDM for each excited state written to RWF  633
 Ground to excited state transition densities written to RWF  633
 Ground to excited state transition electric dipole moments (Au):
       state          X           Y           Z        Dip. S.      Osc.
         1         2.3082     -0.6046      0.0445      5.6953      0.5526
         2         1.1142      0.1332     -0.0284      1.2599      0.1318
         3        -0.0309     -0.0445      0.0013      0.0029      0.0003
         4        -0.4788     -0.8337      0.0321      0.9253      0.1212
         5        -0.4251      0.7920     -0.1389      0.8272      0.1160
         6         0.1986      0.0043      0.0852      0.0467      0.0069
         7         0.0614     -0.0386      0.0154      0.0055      0.0008
         8         0.3378      0.0583      0.0335      0.1186      0.0178
         9         1.4455      0.1031      0.0603      2.1038      0.3222
        10         0.5518      0.0021      0.0655      0.3088      0.0479
 Ground to excited state transition velocity dipole moments (Au):
       state          X           Y           Z        Dip. S.      Osc.
         1        -0.3240      0.0847     -0.0062      0.1122      0.5138
         2        -0.1705     -0.0218      0.0040      0.0296      0.1256
         3         0.0039      0.0054     -0.0050      0.0001      0.0003
         4         0.0980      0.1635     -0.0068      0.0364      0.1235
         5         0.0895     -0.1617      0.0288      0.0350      0.1108
         6        -0.0419     -0.0013     -0.0191      0.0021      0.0064
         7        -0.0144      0.0085     -0.0037      0.0003      0.0009
         8        -0.0704     -0.0122     -0.0014      0.0051      0.0152
         9        -0.3249     -0.0250     -0.0145      0.1064      0.3087
        10        -0.1229     -0.0004     -0.0128      0.0153      0.0437
 Ground to excited state transition magnetic dipole moments (Au):
       state          X           Y           Z
         1         0.0322      0.0284     -0.0570
         2        -0.0200     -0.0555     -0.5857
         3        -0.0666      0.0799      0.0248
         4         0.0725     -0.0383      0.2341
         5        -0.0564      0.0446      0.1454
         6         0.0163      0.2241     -0.1115
         7         0.1899     -0.0787      0.0983
         8        -0.1828     -0.4285     -0.0019
         9        -0.1063      0.1156     -0.2873
        10         0.0172      0.0387      0.0682
 Ground to excited state transition velocity quadrupole moments (Au):
       state          XX          YY          ZZ          XY          XZ          YZ
         1         0.3007     -0.1220      0.0189      0.1280      0.0848     -0.0285
         2         0.2590      0.0190     -0.0047      0.0352      0.0471     -0.0196
         3        -0.0438      0.0014     -0.0005      0.0610     -0.0028      0.0038
         4        -0.0696     -0.0645      0.0044      0.6748     -0.0298      0.0408
         5        -1.2880      0.1654      0.0073      0.7142     -0.1861      0.0537
         6         0.1505     -0.0965     -0.0418     -0.1365     -0.1915      0.0312
         7         0.1344      0.0027     -0.0038      0.1379      0.0300      0.0339
         8         0.0327     -0.1005      0.0059     -0.0512      0.0382     -0.0337
         9         0.7698     -0.3589     -0.0469     -0.2035     -0.0193     -0.0799
        10        -0.9253     -0.1959     -0.0086     -0.0398      0.0370     -0.0573
 <0|del|b> * <b|rxdel|0> + <0|del|b> * <b|delr+rdel|0>
 Rotatory Strengths (R) in cgs (10**-40 erg-esu-cm/Gauss)
       state          XX          YY          ZZ    R(velocity)    E-M Angle
         1       -12.6716     -0.1537    -24.5242    -12.4498      108.76
         2         0.0551      9.6012      0.5996      3.4187       88.71
         3         0.0267     -0.1294      0.2799      0.0591       90.00
         4       -13.6221     25.3834    -14.4473     -0.8953       90.90
         5       -21.0967    -27.8962     21.8732     -9.0399      105.43
         6         6.6627     -3.9304      0.9252      1.2192       84.30
         7        -2.8486     -4.8904     -4.2272     -3.9887      164.80
         8         9.1034     23.8784     24.0396     19.0071       57.05
         9         5.7829     95.0190      9.4980     36.7666       70.40
        10        -0.5519      5.3677    -13.9507     -3.0450      107.66
 1/2[<0|r|b>*<b|rxdel|0> + (<0|rxdel|b>*<b|r|0>)*]
 Rotatory Strengths (R) in cgs (10**-40 erg-esu-cm/Gauss)
       state          XX          YY          ZZ     R(length)
         1       -52.6293     12.1476      1.7905    -12.8971
         2        15.7927      5.2254    -11.7596      3.0861
         3        -1.4537      2.5166     -0.0219      0.3470
         4        24.5442    -22.5636     -5.3130     -1.1108
         5       -16.9602    -24.9512     14.2878     -9.2079
         6        -2.2894     -0.6797      6.7149      1.2486
         7        -8.2438     -2.1451     -1.0699     -3.8196
         8        43.6617     17.6635      0.0455     20.4569
         9       108.7099     -8.4319     12.2479     37.5086
        10        -6.7300     -0.0568     -3.1564     -3.3144
  1/2[<0|del|b>*<b|r|0> + (<0|r|b>*<b|del|0>)*] (Au)
       state          X           Y           Z        Dip. S.   Osc.(frdel)
         1        -0.7478     -0.0512     -0.0003      0.7992      0.5328
         2        -0.1899     -0.0029     -0.0001      0.1930      0.1286
         3        -0.0001     -0.0002     -0.0000      0.0004      0.0002
         4        -0.0469     -0.1363     -0.0002      0.1835      0.1223
         5        -0.0381     -0.1280     -0.0040      0.1701      0.1134
         6        -0.0083     -0.0000     -0.0016      0.0100      0.0066
         7        -0.0009     -0.0003     -0.0001      0.0013      0.0008
         8        -0.0238     -0.0007     -0.0000      0.0246      0.0164
         9        -0.4697     -0.0026     -0.0009      0.4731      0.3154
        10        -0.0678     -0.0000     -0.0008      0.0686      0.0458

 Excitation energies and oscillator strengths:
 
 Excited State   1:      Singlet-A      3.9601 eV  313.09 nm  f=0.5526  <S**2>=0.000
      54 -> 56        -0.14767
      55 -> 56         0.68314
 This state for optimization and/or second-order correction.
 Total Energy, E(TD-HF/TD-DFT) =  -671.835653057    
 Copying the excited state density for this state as the 1-particle RhoCI density.
 
 Excited State   2:      Singlet-A      4.2704 eV  290.34 nm  f=0.1318  <S**2>=0.000
      54 -> 56         0.66728
      55 -> 56         0.15683
      55 -> 57         0.16575
 
 Excited State   3:      Singlet-A      4.7527 eV  260.87 nm  f=0.0003  <S**2>=0.000
      53 -> 56         0.70355
 
 Excited State   4:      Singlet-A      5.3468 eV  231.89 nm  f=0.1212  <S**2>=0.000
      52 -> 56         0.16246
      54 -> 56        -0.16556
      54 -> 60        -0.11548
      55 -> 57         0.64592
 
 Excited State   5:      Singlet-A      5.7259 eV  216.53 nm  f=0.1160  <S**2>=0.000
      52 -> 56         0.66976
      55 -> 57        -0.14127
 
 Excited State   6:      Singlet-A      6.0451 eV  205.10 nm  f=0.0069  <S**2>=0.000
      55 -> 58         0.66654
      55 -> 59        -0.14022
 
 Excited State   7:      Singlet-A      6.0568 eV  204.70 nm  f=0.0008  <S**2>=0.000
      50 -> 56         0.11967
      51 -> 56         0.66758
      53 -> 57        -0.11470
 
 Excited State   8:      Singlet-A      6.1145 eV  202.77 nm  f=0.0178  <S**2>=0.000
      51 -> 56         0.11280
      53 -> 57         0.67311
      54 -> 57         0.12988
 
 Excited State   9:      Singlet-A      6.2521 eV  198.31 nm  f=0.3222  <S**2>=0.000
      50 -> 56        -0.39880
      53 -> 57        -0.13812
      54 -> 57         0.48007
      55 -> 59        -0.13521
      55 -> 60         0.19591
 
 Excited State  10:      Singlet-A      6.3353 eV  195.70 nm  f=0.0479  <S**2>=0.000
      50 -> 56         0.52354
      51 -> 56        -0.10643
      54 -> 57         0.30222
      55 -> 59        -0.25230
      55 -> 60         0.14462
 SavETr:  write IOETrn=   770 NScale= 10 NData=  16 NLR=1 NState=   10 LETran=     190.
 Leave Link  914 at Tue Jul 28 09:46:33 2026, MaxMem=  4026531840 cpu:            1248.5 elap:             157.1
 (Enter /opt/packages/gaussian/g16RevC.01/g16/l601.exe)
 Copying SCF densities to generalized density rwf, IOpCl= 0 IROHF=0.

 **********************************************************************

            Population analysis using the SCF Density.

 **********************************************************************

 Orbital symmetries:
       Occupied  (A) (A) (A) (A) (A) (A) (A) (A) (A) (A) (A) (A)
                 (A) (A) (A) (A) (A) (A) (A) (A) (A) (A) (A) (A)
                 (A) (A) (A) (A) (A) (A) (A) (A) (A) (A) (A) (A)
                 (A) (A) (A) (A) (A) (A) (A) (A) (A) (A) (A) (A)
                 (A) (A) (A) (A) (A) (A) (A)
       Virtual   (A) (A) (A) (A) (A) (A) (A) (A) (A) (A) (A) (A)
                 (A) (A) (A) (A) (A) (A) (A) (A) (A) (A) (A) (A)
                 (A) (A) (A) (A) (A) (A) (A) (A) (A) (A) (A) (A)
                 (A) (A) (A) (A) (A) (A) (A) (A) (A) (A) (A) (A)
                 (A) (A) (A) (A) (A) (A) (A) (A) (A) (A) (A) (A)
                 (A) (A) (A) (A) (A) (A) (A) (A) (A) (A) (A) (A)
                 (A) (A) (A) (A) (A) (A) (A) (A) (A) (A) (A) (A)
                 (A) (A) (A) (A) (A) (A) (A) (A) (A) (A) (A) (A)
                 (A) (A) (A) (A) (A) (A) (A) (A) (A) (A) (A) (A)
                 (A) (A) (A) (A) (A) (A) (A) (A) (A) (A) (A) (A)
                 (A) (A) (A) (A) (A) (A) (A) (A) (A) (A) (A) (A)
                 (A) (A) (A) (A) (A) (A) (A) (A) (A) (A) (A) (A)
                 (A) (A) (A) (A) (A) (A) (A) (A) (A) (A) (A) (A)
                 (A) (A) (A) (A) (A) (A) (A) (A) (A) (A) (A) (A)
                 (A) (A) (A) (A) (A) (A) (A) (A) (A) (A) (A) (A)
                 (A) (A) (A) (A) (A) (A) (A) (A) (A) (A) (A) (A)
                 (A) (A) (A) (A) (A) (A) (A) (A) (A) (A) (A) (A)
                 (A) (A) (A) (A) (A) (A) (A) (A) (A) (A) (A) (A)
                 (A) (A) (A) (A) (A) (A) (A) (A) (A) (A) (A) (A)
                 (A) (A) (A) (A) (A) (A) (A) (A) (A) (A) (A) (A)
                 (A) (A) (A) (A) (A) (A) (A) (A) (A) (A) (A) (A)
                 (A) (A) (A) (A) (A) (A) (A) (A)
 The electronic state is 1-A.
 Alpha  occ. eigenvalues --  -19.21071 -19.18667 -14.42230 -10.29952 -10.28334
 Alpha  occ. eigenvalues --  -10.26555 -10.24079 -10.23935 -10.23458 -10.22928
 Alpha  occ. eigenvalues --  -10.22258 -10.22081 -10.21250 -10.21119 -10.20125
 Alpha  occ. eigenvalues --   -1.09602  -1.06220  -1.01314  -0.88127  -0.80607
 Alpha  occ. eigenvalues --   -0.80268  -0.77482  -0.75408  -0.71535  -0.69567
 Alpha  occ. eigenvalues --   -0.63832  -0.63613  -0.61837  -0.61274  -0.56435
 Alpha  occ. eigenvalues --   -0.54176  -0.52135  -0.50892  -0.50308  -0.48588
 Alpha  occ. eigenvalues --   -0.47161  -0.46182  -0.45989  -0.45078  -0.43986
 Alpha  occ. eigenvalues --   -0.43262  -0.42734  -0.41492  -0.40921  -0.39010
 Alpha  occ. eigenvalues --   -0.38713  -0.38439  -0.37156  -0.36510  -0.34800
 Alpha  occ. eigenvalues --   -0.34507  -0.32185  -0.29316  -0.27285  -0.24675
 Alpha virt. eigenvalues --   -0.09027  -0.02768   0.00172   0.01445   0.01722
 Alpha virt. eigenvalues --    0.01833   0.02560   0.02941   0.03074   0.03784
 Alpha virt. eigenvalues --    0.04126   0.04789   0.05161   0.05558   0.06178
 Alpha virt. eigenvalues --    0.06688   0.07400   0.07557   0.07863   0.08970
 Alpha virt. eigenvalues --    0.09614   0.09674   0.10330   0.11088   0.11266
 Alpha virt. eigenvalues --    0.11740   0.11932   0.12376   0.12805   0.13118
 Alpha virt. eigenvalues --    0.13890   0.14132   0.14427   0.15047   0.15181
 Alpha virt. eigenvalues --    0.15611   0.16307   0.16706   0.16736   0.17064
 Alpha virt. eigenvalues --    0.17699   0.18435   0.18708   0.19254   0.19696
 Alpha virt. eigenvalues --    0.19968   0.20565   0.20845   0.21610   0.22026
 Alpha virt. eigenvalues --    0.22444   0.22836   0.23665   0.23925   0.24481
 Alpha virt. eigenvalues --    0.24749   0.25013   0.25199   0.26011   0.26092
 Alpha virt. eigenvalues --    0.26334   0.26905   0.27228   0.27907   0.28283
 Alpha virt. eigenvalues --    0.28785   0.29248   0.29985   0.30581   0.31061
 Alpha virt. eigenvalues --    0.31638   0.32084   0.32341   0.32683   0.33208
 Alpha virt. eigenvalues --    0.33361   0.33543   0.34440   0.35297   0.35863
 Alpha virt. eigenvalues --    0.36751   0.38314   0.38727   0.39759   0.40825
 Alpha virt. eigenvalues --    0.42444   0.43332   0.44351   0.45653   0.46213
 Alpha virt. eigenvalues --    0.47044   0.51127   0.57656   0.60308   0.62700
 Alpha virt. eigenvalues --    0.65034   0.65372   0.65938   0.67147   0.68124
 Alpha virt. eigenvalues --    0.68558   0.69092   0.69235   0.70002   0.70346
 Alpha virt. eigenvalues --    0.71287   0.72377   0.72712   0.73614   0.75316
 Alpha virt. eigenvalues --    0.75776   0.77078   0.77536   0.78443   0.78808
 Alpha virt. eigenvalues --    0.80348   0.82962   0.84419   0.85029   0.85597
 Alpha virt. eigenvalues --    0.89040   0.90046   0.92321   0.92565   0.93651
 Alpha virt. eigenvalues --    0.94131   0.95093   0.96644   0.97329   0.98655
 Alpha virt. eigenvalues --    0.98759   0.99362   1.03188   1.04448   1.05234
 Alpha virt. eigenvalues --    1.06056   1.07469   1.08130   1.08888   1.11187
 Alpha virt. eigenvalues --    1.11317   1.12480   1.13169   1.14610   1.15485
 Alpha virt. eigenvalues --    1.16627   1.19194   1.19668   1.20821   1.21381
 Alpha virt. eigenvalues --    1.23375   1.24013   1.24750   1.27116   1.27172
 Alpha virt. eigenvalues --    1.28965   1.29526   1.33978   1.34847   1.35899
 Alpha virt. eigenvalues --    1.37206   1.37937   1.40198   1.41006   1.43546
 Alpha virt. eigenvalues --    1.46142   1.48110   1.48979   1.50556   1.52226
 Alpha virt. eigenvalues --    1.53037   1.54802   1.57096   1.60100   1.63155
 Alpha virt. eigenvalues --    1.63488   1.71899   1.72626   1.74985   1.76650
 Alpha virt. eigenvalues --    1.79778   1.80190   1.81352   1.81820   1.83412
 Alpha virt. eigenvalues --    1.84764   1.88201   1.90861   1.91807   1.92701
 Alpha virt. eigenvalues --    1.94944   1.95703   1.97532   1.99156   2.01011
 Alpha virt. eigenvalues --    2.02793   2.03689   2.04964   2.06072   2.08521
 Alpha virt. eigenvalues --    2.09139   2.10538   2.12119   2.13233   2.15307
 Alpha virt. eigenvalues --    2.17381   2.18059   2.19048   2.21191   2.24016
 Alpha virt. eigenvalues --    2.25503   2.27517   2.28211   2.29964   2.30531
 Alpha virt. eigenvalues --    2.32729   2.35690   2.36848   2.39007   2.41375
 Alpha virt. eigenvalues --    2.45106   2.47691   2.48776   2.51207   2.54249
 Alpha virt. eigenvalues --    2.57317   2.60645   2.62759   2.63647   2.66004
 Alpha virt. eigenvalues --    2.66305   2.68479   2.75907   2.77553   2.80103
 Alpha virt. eigenvalues --    2.81191   2.85239   2.87829   2.91743   3.00671
 Alpha virt. eigenvalues --    3.04470   3.10518   3.14360   3.27795   3.44322
 Alpha virt. eigenvalues --    4.09330   4.19927   4.24145   4.26149   4.29272
 Alpha virt. eigenvalues --    4.33251   4.34495   4.36528   4.37857   4.42960
 Alpha virt. eigenvalues --    4.47596   4.54683   4.61114   4.69114   5.03150
          Condensed to atoms (all electrons):
               1          2          3          4          5          6
     1  C   16.872318   2.329411  -1.159638  -1.944874  -5.025478  -5.620732
     2  C    2.329411  10.342300  -1.696400  -1.805843   1.844868  -6.228547
     3  C   -1.159638  -1.696400  16.308708   3.900728  -9.421202   3.123547
     4  C   -1.944874  -1.805843   3.900728  14.311346  -6.661302   1.626629
     5  C   -5.025478   1.844868  -9.421202  -6.661302  24.956841  -4.992057
     6  C   -5.620732  -6.228547   3.123547   1.626629  -4.992057  20.788980
     7  O   -0.031236   0.098912  -0.061196  -0.013748  -0.294817   0.321156
     8  H   -0.097971   0.267326   0.072159   0.044121  -0.030077   0.059499
     9  H    0.032388   0.048669   0.197601  -0.045063   0.069195  -0.054027
    10  H    0.047201  -0.004304  -0.020115  -0.103393   0.335275  -0.032501
    11  O    0.485235   0.219994   0.038221  -0.016816   0.039403  -0.778944
    12  C   -0.240394  -0.259584  -0.062324  -0.009687   0.093493   0.263625
    13  H   -0.062374   0.047333   0.019656   0.000287  -0.004968  -0.013863
    14  H   -0.061684   0.036662   0.015260   0.003424  -0.001343  -0.001819
    15  H    0.024598  -0.066449  -0.011523  -0.001061   0.007042   0.050835
    16  C    0.041128   0.775709  -2.597457  -2.128992   3.991420  -1.718201
    17  C   -0.067649   0.128273  -0.924178  -1.208431   0.419194  -0.221857
    18  N   -0.015681  -0.050892  -0.108874   0.087035   0.065037   0.180146
    19  C   -0.005378  -0.005047  -0.000779  -0.009715  -0.106616  -0.006916
    20  C   -0.007763  -0.015436  -0.096677   0.035440   0.115020   0.040509
    21  H    0.000278  -0.002531   0.023475  -0.022588  -0.015027   0.004349
    22  H   -0.001281  -0.008652  -0.032028   0.015971   0.015713   0.006408
    23  H   -0.000169  -0.000804  -0.007450  -0.015735   0.009567   0.001626
    24  H    0.000029  -0.000079   0.001804   0.005352  -0.005792  -0.000291
    25  H    0.000001  -0.000649  -0.009550   0.000113   0.010446   0.000909
    26  H    0.000056   0.000610   0.002631  -0.000682  -0.001209  -0.000405
    27  H    0.005621  -0.003380  -0.050772  -0.129755   0.125369   0.045457
    28  C   -0.138632  -0.026486  -0.003217  -0.056761   0.043294  -0.054385
    29  H   -0.022037   0.011062  -0.013050  -0.038632   0.086087  -0.028431
    30  H    0.007617   0.000068   0.000045  -0.001971  -0.002536  -0.001375
    31  H   -0.009187  -0.021520   0.016294   0.019787  -0.064960   0.057959
               7          8          9         10         11         12
     1  C   -0.031236  -0.097971   0.032388   0.047201   0.485235  -0.240394
     2  C    0.098912   0.267326   0.048669  -0.004304   0.219994  -0.259584
     3  C   -0.061196   0.072159   0.197601  -0.020115   0.038221  -0.062324
     4  C   -0.013748   0.044121  -0.045063  -0.103393  -0.016816  -0.009687
     5  C   -0.294817  -0.030077   0.069195   0.335275   0.039403   0.093493
     6  C    0.321156   0.059499  -0.054027  -0.032501  -0.778944   0.263625
     7  O    8.454707  -0.000704   0.000129  -0.002429   0.019582   0.000074
     8  H   -0.000704   0.461696  -0.003629   0.000012  -0.011512  -0.004839
     9  H    0.000129  -0.003629   0.466982  -0.000104  -0.000677   0.001123
    10  H   -0.002429   0.000012  -0.000104   0.471422  -0.000460   0.000422
    11  O    0.019582  -0.011512  -0.000677  -0.000460   8.513216   0.041692
    12  C    0.000074  -0.004839   0.001123   0.000422   0.041692   5.343098
    13  H    0.000131  -0.000873   0.000003   0.000000  -0.034583   0.387327
    14  H    0.000009  -0.000927   0.000003   0.000000  -0.031473   0.383693
    15  H   -0.000316   0.000136  -0.000000  -0.000000  -0.054520   0.398647
    16  C    0.001167  -0.001107   0.041372   0.045890  -0.005021   0.006229
    17  C   -0.001690   0.003636   0.004122   0.018804  -0.000429   0.000157
    18  N    0.000067   0.000089   0.000001  -0.001917   0.000100  -0.000282
    19  C    0.000335   0.000046   0.001060   0.004260  -0.000008   0.000061
    20  C   -0.000280  -0.000049  -0.001501  -0.000840   0.000059  -0.000101
    21  H    0.000001   0.000001  -0.000022   0.000001  -0.000001  -0.000029
    22  H   -0.000001  -0.000000  -0.000948  -0.000003   0.000001  -0.000004
    23  H   -0.000000   0.000000  -0.000000  -0.000002   0.000000  -0.000000
    24  H    0.000000   0.000000   0.000000   0.000002  -0.000000  -0.000000
    25  H    0.000000   0.000000  -0.000006  -0.000001   0.000000  -0.000000
    26  H    0.000000   0.000000   0.000001   0.000000  -0.000000   0.000000
    27  H    0.000101   0.000000   0.000001   0.004755  -0.000002   0.000003
    28  C    0.090092  -0.000201  -0.000071   0.000695   0.009979  -0.003306
    29  H   -0.048066  -0.000000  -0.000000   0.000118   0.000362  -0.000024
    30  H   -0.044930  -0.000000   0.000000  -0.000034  -0.000431  -0.000800
    31  H   -0.049834   0.000008   0.000000   0.000018   0.001962   0.001291
              13         14         15         16         17         18
     1  C   -0.062374  -0.061684   0.024598   0.041128  -0.067649  -0.015681
     2  C    0.047333   0.036662  -0.066449   0.775709   0.128273  -0.050892
     3  C    0.019656   0.015260  -0.011523  -2.597457  -0.924178  -0.108874
     4  C    0.000287   0.003424  -0.001061  -2.128992  -1.208431   0.087035
     5  C   -0.004968  -0.001343   0.007042   3.991420   0.419194   0.065037
     6  C   -0.013863  -0.001819   0.050835  -1.718201  -0.221857   0.180146
     7  O    0.000131   0.000009  -0.000316   0.001167  -0.001690   0.000067
     8  H   -0.000873  -0.000927   0.000136  -0.001107   0.003636   0.000089
     9  H    0.000003   0.000003  -0.000000   0.041372   0.004122   0.000001
    10  H    0.000000   0.000000  -0.000000   0.045890   0.018804  -0.001917
    11  O   -0.034583  -0.031473  -0.054520  -0.005021  -0.000429   0.000100
    12  C    0.387327   0.383693   0.398647   0.006229   0.000157  -0.000282
    13  H    0.480846  -0.035970  -0.024722   0.000161  -0.000037  -0.000000
    14  H   -0.035970   0.478149  -0.025315   0.000330   0.000070  -0.000001
    15  H   -0.024722  -0.025315   0.464172  -0.000094  -0.000008   0.000000
    16  C    0.000161   0.000330  -0.000094   7.756825  -1.013638   0.307189
    17  C   -0.000037   0.000070  -0.000008  -1.013638   9.288832  -0.377874
    18  N   -0.000000  -0.000001   0.000000   0.307189  -0.377874   7.006659
    19  C    0.000001   0.000000  -0.000000  -0.508438   0.405535   0.091289
    20  C   -0.000003   0.000002  -0.000000   0.263239  -0.859084  -0.045423
    21  H   -0.000000   0.000000  -0.000000  -0.087449   0.418220   0.009191
    22  H    0.000000  -0.000000   0.000000  -0.021852   0.334145   0.005072
    23  H   -0.000000   0.000000   0.000000  -0.023810   0.024071  -0.034036
    24  H    0.000000  -0.000000   0.000000  -0.015080   0.042159  -0.037048
    25  H    0.000000  -0.000000   0.000000   0.035958  -0.123978   0.012556
    26  H   -0.000000   0.000000  -0.000000   0.023663  -0.072973   0.005958
    27  H   -0.000000   0.000000  -0.000000  -0.002441  -0.007847   0.251989
    28  C    0.000808  -0.001495  -0.000059  -0.001986  -0.002448   0.000836
    29  H    0.000000  -0.000000   0.000000   0.005139  -0.000078   0.000063
    30  H   -0.000000   0.000000  -0.000000  -0.000044  -0.000003  -0.000001
    31  H   -0.000001   0.000012  -0.000016  -0.002294   0.000056  -0.000001
              19         20         21         22         23         24
     1  C   -0.005378  -0.007763   0.000278  -0.001281  -0.000169   0.000029
     2  C   -0.005047  -0.015436  -0.002531  -0.008652  -0.000804  -0.000079
     3  C   -0.000779  -0.096677   0.023475  -0.032028  -0.007450   0.001804
     4  C   -0.009715   0.035440  -0.022588   0.015971  -0.015735   0.005352
     5  C   -0.106616   0.115020  -0.015027   0.015713   0.009567  -0.005792
     6  C   -0.006916   0.040509   0.004349   0.006408   0.001626  -0.000291
     7  O    0.000335  -0.000280   0.000001  -0.000001  -0.000000   0.000000
     8  H    0.000046  -0.000049   0.000001  -0.000000   0.000000   0.000000
     9  H    0.001060  -0.001501  -0.000022  -0.000948  -0.000000   0.000000
    10  H    0.004260  -0.000840   0.000001  -0.000003  -0.000002   0.000002
    11  O   -0.000008   0.000059  -0.000001   0.000001   0.000000  -0.000000
    12  C    0.000061  -0.000101  -0.000029  -0.000004  -0.000000  -0.000000
    13  H    0.000001  -0.000003  -0.000000   0.000000  -0.000000   0.000000
    14  H    0.000000   0.000002   0.000000  -0.000000   0.000000  -0.000000
    15  H   -0.000000  -0.000000  -0.000000   0.000000   0.000000   0.000000
    16  C   -0.508438   0.263239  -0.087449  -0.021852  -0.023810  -0.015080
    17  C    0.405535  -0.859084   0.418220   0.334145   0.024071   0.042159
    18  N    0.091289  -0.045423   0.009191   0.005072  -0.034036  -0.037048
    19  C    6.012843  -0.273002   0.024838   0.003030   0.416462   0.431393
    20  C   -0.273002   6.673116  -0.033302  -0.010503  -0.055594  -0.095202
    21  H    0.024838  -0.033302   0.438399  -0.024597  -0.000193  -0.000038
    22  H    0.003030  -0.010503  -0.024597   0.435128   0.001121  -0.000169
    23  H    0.416462  -0.055594  -0.000193   0.001121   0.459704  -0.031273
    24  H    0.431393  -0.095202  -0.000038  -0.000169  -0.031273   0.456668
    25  H   -0.091020   0.486472  -0.005514   0.003027   0.003048  -0.005725
    26  H   -0.059897   0.430407   0.001122  -0.004896  -0.003781   0.001552
    27  H   -0.027856   0.018933  -0.000095  -0.000230   0.000076  -0.000823
    28  C    0.000539  -0.000859   0.000004   0.000012  -0.000005   0.000001
    29  H   -0.000034   0.000009  -0.000000  -0.000000   0.000000   0.000000
    30  H   -0.000002   0.000002  -0.000000  -0.000000   0.000000  -0.000000
    31  H    0.000005   0.000001  -0.000000   0.000000  -0.000000   0.000000
              25         26         27         28         29         30
     1  C    0.000001   0.000056   0.005621  -0.138632  -0.022037   0.007617
     2  C   -0.000649   0.000610  -0.003380  -0.026486   0.011062   0.000068
     3  C   -0.009550   0.002631  -0.050772  -0.003217  -0.013050   0.000045
     4  C    0.000113  -0.000682  -0.129755  -0.056761  -0.038632  -0.001971
     5  C    0.010446  -0.001209   0.125369   0.043294   0.086087  -0.002536
     6  C    0.000909  -0.000405   0.045457  -0.054385  -0.028431  -0.001375
     7  O    0.000000   0.000000   0.000101   0.090092  -0.048066  -0.044930
     8  H    0.000000   0.000000   0.000000  -0.000201  -0.000000  -0.000000
     9  H   -0.000006   0.000001   0.000001  -0.000071  -0.000000   0.000000
    10  H   -0.000001   0.000000   0.004755   0.000695   0.000118  -0.000034
    11  O    0.000000  -0.000000  -0.000002   0.009979   0.000362  -0.000431
    12  C   -0.000000   0.000000   0.000003  -0.003306  -0.000024  -0.000800
    13  H    0.000000  -0.000000  -0.000000   0.000808   0.000000  -0.000000
    14  H   -0.000000   0.000000   0.000000  -0.001495  -0.000000   0.000000
    15  H    0.000000  -0.000000  -0.000000  -0.000059   0.000000  -0.000000
    16  C    0.035958   0.023663  -0.002441  -0.001986   0.005139  -0.000044
    17  C   -0.123978  -0.072973  -0.007847  -0.002448  -0.000078  -0.000003
    18  N    0.012556   0.005958   0.251989   0.000836   0.000063  -0.000001
    19  C   -0.091020  -0.059897  -0.027856   0.000539  -0.000034  -0.000002
    20  C    0.486472   0.430407   0.018933  -0.000859   0.000009   0.000002
    21  H   -0.005514   0.001122  -0.000095   0.000004  -0.000000  -0.000000
    22  H    0.003027  -0.004896  -0.000230   0.000012  -0.000000  -0.000000
    23  H    0.003048  -0.003781   0.000076  -0.000005   0.000000   0.000000
    24  H   -0.005725   0.001552  -0.000823   0.000001   0.000000  -0.000000
    25  H    0.460925  -0.025436  -0.000171   0.000003  -0.000000  -0.000000
    26  H   -0.025436   0.458422  -0.000073  -0.000000  -0.000000   0.000000
    27  H   -0.000171  -0.000073   0.278923   0.000099  -0.000002   0.000000
    28  C    0.000003  -0.000000   0.000099   5.365795   0.385515   0.392112
    29  H   -0.000000  -0.000000  -0.000002   0.385515   0.502890  -0.026488
    30  H   -0.000000   0.000000   0.000000   0.392112  -0.026488   0.477351
    31  H   -0.000000   0.000000   0.000000   0.390476  -0.037558  -0.025943
              31
     1  C   -0.009187
     2  C   -0.021520
     3  C    0.016294
     4  C    0.019787
     5  C   -0.064960
     6  C    0.057959
     7  O   -0.049834
     8  H    0.000008
     9  H    0.000000
    10  H    0.000018
    11  O    0.001962
    12  C    0.001291
    13  H   -0.000001
    14  H    0.000012
    15  H   -0.000016
    16  C   -0.002294
    17  C    0.000056
    18  N   -0.000001
    19  C    0.000005
    20  C    0.000001
    21  H   -0.000000
    22  H    0.000000
    23  H   -0.000000
    24  H    0.000000
    25  H   -0.000000
    26  H    0.000000
    27  H    0.000000
    28  C    0.390476
    29  H   -0.037558
    30  H   -0.025943
    31  H    0.497242
 Mulliken charges:
               1
     1  C    0.666277
     2  C    0.045405
     3  C   -1.443698
     4  C    0.164816
     5  C    0.400118
     6  C   -0.817286
     7  O   -0.437219
     8  H    0.243162
     9  H    0.243401
    10  H    0.237225
    11  O   -0.434931
    12  C   -0.339562
    13  H    0.240842
    14  H    0.242413
    15  H    0.238654
    16  C    0.832485
    17  C   -0.205073
    18  N   -0.351247
    19  C   -0.296990
    20  C   -0.567590
    21  H    0.271507
    22  H    0.285536
    23  H    0.257179
    24  H    0.252560
    25  H    0.248591
    26  H    0.244929
    27  H    0.492121
    28  C   -0.390348
    29  H    0.223156
    30  H    0.227362
    31  H    0.226204
 Sum of Mulliken charges =   1.00000
 Mulliken charges with hydrogens summed into heavy atoms:
               1
     1  C    0.666277
     2  C    0.288567
     3  C   -1.200298
     4  C    0.164816
     5  C    0.637344
     6  C   -0.817286
     7  O   -0.437219
    11  O   -0.434931
    12  C    0.382347
    16  C    0.832485
    17  C    0.351970
    18  N    0.140875
    19  C    0.212749
    20  C   -0.074070
    28  C    0.286373
 Electronic spatial extent (au):  <R**2>=           4260.1956
 Charge=              1.0000 electrons
 Dipole moment (field-independent basis, Debye):
    X=             -8.7416    Y=             -1.4212    Z=              1.5051  Tot=              8.9834
 Quadrupole moment (field-independent basis, Debye-Ang):
   XX=            -31.2439   YY=            -65.1037   ZZ=            -88.5068
   XY=            -13.1529   XZ=              7.7699   YZ=              1.9677
 Traceless Quadrupole moment (field-independent basis, Debye-Ang):
   XX=             30.3743   YY=             -3.4856   ZZ=            -26.8887
   XY=            -13.1529   XZ=              7.7699   YZ=              1.9677
 Octapole moment (field-independent basis, Debye-Ang**2):
  XXX=            -95.2774  YYY=              5.2603  ZZZ=              0.1258  XYY=              9.3042
  XXY=            -17.9076  XXZ=              8.9170  XZZ=             -5.3003  YZZ=              2.0457
  YYZ=              7.9551  XYZ=             15.7000
 Hexadecapole moment (field-independent basis, Debye-Ang**3):
 XXXX=          -3312.6984 YYYY=           -957.1191 ZZZZ=           -180.5747 XXXY=           -197.1327
 XXXZ=             70.2370 YYYX=            -34.7954 YYYZ=             10.6105 ZZZX=              3.5560
 ZZZY=             -0.7515 XXYY=           -691.7587 XXZZ=           -726.0994 YYZZ=           -209.6242
 XXYZ=             21.2831 YYXZ=             30.2865 ZZXY=             -4.3070
 N-N= 9.802632589026D+02 E-N=-3.505431480240D+03  KE= 6.654954680651D+02
 Leave Link  601 at Tue Jul 28 09:46:33 2026, MaxMem=  4026531840 cpu:               0.2 elap:               0.1
 (Enter /opt/packages/gaussian/g16RevC.01/g16/l9999.exe)
 Electronic transition elements 
                 1             2             3             4             5 
      1  -0.671836D+03 -0.671824D+03 -0.671807D+03 -0.671785D+03 -0.671771D+03
      2   0.230820D+01  0.111415D+01 -0.308515D-01 -0.478791D+00 -0.425103D+00
      3  -0.604579D+00  0.133163D+00 -0.445221D-01 -0.833699D+00  0.791957D+00
      4   0.444562D-01 -0.283934D-01  0.125071D-02  0.320903D-01 -0.138935D+00
      5  -0.323956D+00 -0.170488D+00  0.392164D-02  0.980260D-01  0.895108D-01
      6   0.847104D-01 -0.217553D-01  0.537864D-02  0.163519D+00 -0.161651D+00
      7  -0.618242D-02  0.400994D-02 -0.503331D-02 -0.680909D-02  0.287592D-01
      8   0.322429D-01 -0.200443D-01 -0.666321D-01  0.724908D-01 -0.564177D-01
      9   0.284130D-01 -0.554897D-01  0.799304D-01 -0.382717D-01  0.445522D-01
     10  -0.569521D-01 -0.585674D+00  0.247986D-01  0.234122D+00  0.145423D+00
     11   0.300730D+00  0.259020D+00 -0.438047D-01 -0.695804D-01 -0.128801D+01
     12  -0.121950D+00  0.190429D-01  0.135405D-02 -0.644504D-01  0.165440D+00
     13   0.188793D-01 -0.465474D-02 -0.465195D-03  0.440133D-02  0.733843D-02
     14   0.128032D+00  0.352481D-01  0.610351D-01  0.674750D+00  0.714242D+00
     15   0.847934D-01  0.470899D-01 -0.284691D-02 -0.298240D-01 -0.186058D+00
     16  -0.285173D-01 -0.195552D-01  0.383034D-02  0.408012D-01  0.537079D-01
                 6             7             8             9            10 
      1  -0.671759D+03 -0.671759D+03 -0.671756D+03 -0.671751D+03 -0.671748D+03
      2   0.198624D+00  0.613971D-01  0.337766D+00  0.144551D+01  0.551788D+00
      3   0.428837D-02 -0.385636D-01  0.582944D-01  0.103108D+00  0.207378D-02
      4   0.851921D-01  0.153838D-01  0.334582D-01  0.602882D-01  0.654681D-01
      5  -0.419307D-01 -0.144084D-01 -0.704313D-01 -0.324916D+00 -0.122850D+00
      6  -0.132943D-02  0.850466D-02 -0.122327D-01 -0.250075D-01 -0.413056D-03
      7  -0.191136D-01 -0.367745D-02 -0.143771D-02 -0.145316D-01 -0.127997D-01
      8   0.162993D-01  0.189872D+00 -0.182794D+00 -0.106347D+00  0.172474D-01
      9   0.224117D+00 -0.786572D-01 -0.428478D+00  0.115641D+00  0.387278D-01
     10  -0.111459D+00  0.983446D-01 -0.192359D-02 -0.287281D+00  0.681772D-01
     11   0.150491D+00  0.134359D+00  0.327344D-01  0.769787D+00 -0.925265D+00
     12  -0.964799D-01  0.265717D-02 -0.100501D+00 -0.358913D+00 -0.195860D+00
     13  -0.418045D-01 -0.379605D-02  0.587703D-02 -0.469096D-01 -0.855951D-02
     14  -0.136461D+00  0.137925D+00 -0.512075D-01 -0.203498D+00 -0.398395D-01
     15  -0.191488D+00  0.300263D-01  0.382075D-01 -0.192811D-01  0.370150D-01
     16   0.311975D-01  0.338905D-01 -0.336677D-01 -0.799356D-01 -0.572713D-01
 Unable to Open any file for archive entry.
 1\1\GINC-R019\SP\RB3LYP TD-FC\6-31+G(d)\C12H16N1O2(1+)\ZLAB\28-Jul-202
 6\0\\#p TD(NStates=10) B3LYP/6-31+G(d) SCRF=(SMD,Solvent=Methanol)\\Ve
 rtical excitation energies (absorption spectrum)\\1,1\C,0,2.06502,-0.5
 1565,-0.10214\C,0,1.23856,-1.63656,0.0696\C,0,-0.14353,-1.48558,0.1013
 5\C,0,-0.74284,-0.21902,-0.04741\C,0,0.09914,0.908,-0.21393\C,0,1.4725
 1,0.76939,-0.23495\O,0,2.27446,1.8686,-0.45343\H,0,1.66801,-2.626,0.17
 477\H,0,-0.75635,-2.37122,0.23209\H,0,-0.29997,1.91176,-0.32605\O,0,3.
 40941,-0.55287,-0.16196\C,0,4.08297,-1.82157,-0.05409\H,0,3.77884,-2.4
 8808,-0.86772\H,0,3.87955,-2.28366,0.91743\H,0,5.1449,-1.58845,-0.1408
 1\C,0,-2.18544,-0.10774,-0.03784\C,0,-3.15682,-1.23915,0.18466\N,0,-2.
 85343,0.99575,-0.25631\C,0,-4.32112,0.85126,-0.2491\C,0,-4.50974,-0.52
 734,0.40277\H,0,-2.8602,-1.87301,1.02382\H,0,-3.15796,-1.86715,-0.7170
 9\H,0,-4.67786,0.89264,-1.28447\H,0,-4.76631,1.67711,0.3103\H,0,-4.700
 74,-0.41047,1.47419\H,0,-5.34422,-1.07661,-0.03817\H,0,-2.41551,1.8835
 1,-0.49238\C,0,2.80095,2.48547,0.74266\H,0,1.98135,2.86597,1.36351\H,0
 ,3.42568,3.31442,0.40313\H,0,3.40582,1.77407,1.31534\\Version=ES64L-G1
 6RevC.01\State=1-A\HF=-671.9811833\RMSD=5.109e-09\PG=C01 [X(C12H16N1O2
 )]\\@
 The archive entry for this job was punched.


 ERWIN WITH HIS PSI CAN DO
 CALCULATIONS QUITE A FEW.
 BUT ONE THING HAS NOT BEEN SEEN
 JUST WHAT DOES PSI REALLY MEAN.
 -- WALTER HUCKEL, TRANS. BY FELIX BLOCH
 Job cpu time:       0 days  0 hours 26 minutes 15.3 seconds.
 Elapsed time:       0 days  0 hours  3 minutes 18.5 seconds.
 File lengths (MBytes):  RWF=    907 Int=      0 D2E=      0 Chk=     41 Scr=      1
 Normal termination of Gaussian 16 at Tue Jul 28 09:46:34 2026.
