 Entering Gaussian System, Link 0=g16
 Initial command:
 /opt/packages/gaussian/g16RevC.01/g16/l1.exe "/ocean/projects/che200051p/zlab/tmp/Gau-51227.inp" -scrdir="/ocean/projects/che200051p/zlab/tmp/"
 Entering Link 1 = /opt/packages/gaussian/g16RevC.01/g16/l1.exe PID=     51228.
  
 Copyright (c) 1988-2019, Gaussian, Inc.  All Rights Reserved.
  
 This is part of the Gaussian(R) 16 program.  It is based on
 the Gaussian(R) 09 system (copyright 2009, Gaussian, Inc.),
 the Gaussian(R) 03 system (copyright 2003, Gaussian, Inc.),
 the Gaussian(R) 98 system (copyright 1998, Gaussian, Inc.),
 the Gaussian(R) 94 system (copyright 1995, Gaussian, Inc.),
 the Gaussian 92(TM) system (copyright 1992, Gaussian, Inc.),
 the Gaussian 90(TM) system (copyright 1990, Gaussian, Inc.),
 the Gaussian 88(TM) system (copyright 1988, Gaussian, Inc.),
 the Gaussian 86(TM) system (copyright 1986, Carnegie Mellon
 University), and the Gaussian 82(TM) system (copyright 1983,
 Carnegie Mellon University). Gaussian is a federally registered
 trademark of Gaussian, Inc.
  
 This software contains proprietary and confidential information,
 including trade secrets, belonging to Gaussian, Inc.
  
 This software is provided under written license and may be
 used, copied, transmitted, or stored only in accord with that
 written license.
  
 The following legend is applicable only to US Government
 contracts under FAR:
  
                    RESTRICTED RIGHTS LEGEND
  
 Use, reproduction and disclosure by the US Government is
 subject to restrictions as set forth in subparagraphs (a)
 and (c) of the Commercial Computer Software - Restricted
 Rights clause in FAR 52.227-19.
  
 Gaussian, Inc.
 340 Quinnipiac St., Bldg. 40, Wallingford CT 06492
  
  
 ---------------------------------------------------------------
 Warning -- This program may not be used in any manner that
 competes with the business of Gaussian, Inc. or will provide
 assistance to any competitor of Gaussian, Inc.  The licensee
 of this program is prohibited from giving any competitor of
 Gaussian, Inc. access to this program.  By using this program,
 the user acknowledges that Gaussian, Inc. is engaged in the
 business of creating and licensing software in the field of
 computational chemistry and represents and warrants to the
 licensee that it is not a competitor of Gaussian, Inc. and that
 it will not use this program in any manner prohibited above.
 ---------------------------------------------------------------
  

 Cite this work as:
 Gaussian 16, Revision C.01,
 M. J. Frisch, G. W. Trucks, H. B. Schlegel, G. E. Scuseria, 
 M. A. Robb, J. R. Cheeseman, G. Scalmani, V. Barone, 
 G. A. Petersson, H. Nakatsuji, X. Li, M. Caricato, A. V. Marenich, 
 J. Bloino, B. G. Janesko, R. Gomperts, B. Mennucci, H. P. Hratchian, 
 J. V. Ortiz, A. F. Izmaylov, J. L. Sonnenberg, D. Williams-Young, 
 F. Ding, F. Lipparini, F. Egidi, J. Goings, B. Peng, A. Petrone, 
 T. Henderson, D. Ranasinghe, V. G. Zakrzewski, J. Gao, N. Rega, 
 G. Zheng, W. Liang, M. Hada, M. Ehara, K. Toyota, R. Fukuda, 
 J. Hasegawa, M. Ishida, T. Nakajima, Y. Honda, O. Kitao, H. Nakai, 
 T. Vreven, K. Throssell, J. A. Montgomery, Jr., J. E. Peralta, 
 F. Ogliaro, M. J. Bearpark, J. J. Heyd, E. N. Brothers, K. N. Kudin, 
 V. N. Staroverov, T. A. Keith, R. Kobayashi, J. Normand, 
 K. Raghavachari, A. P. Rendell, J. C. Burant, S. S. Iyengar, 
 J. Tomasi, M. Cossi, J. M. Millam, M. Klene, C. Adamo, R. Cammi, 
 J. W. Ochterski, R. L. Martin, K. Morokuma, O. Farkas, 
 J. B. Foresman, and D. J. Fox, Gaussian, Inc., Wallingford CT, 2019.
 
 ******************************************
 Gaussian 16:  ES64L-G16RevC.01  3-Jul-2019
                28-Jul-2026 
 ******************************************
 %chk=dmp_s0_opt.chk
 %mem=30GB
 %nprocshared=8
 Will use up to    8 processors via shared memory.
 --------------------------------------------------
 #p B3LYP/6-31+G(d) Opt SCRF=(SMD,Solvent=Methanol)
 --------------------------------------------------
 1/18=20,19=15,26=3,38=1/1,3;
 2/9=110,12=2,17=6,18=5,40=1/2;
 3/5=1,6=6,7=11,11=2,25=1,30=1,70=32201,71=1,72=3,74=-5/1,2,3;
 4//1;
 5/5=2,38=5,53=3/2;
 6/7=2,8=2,9=2,10=2,28=1/1;
 7//1,2,3,16;
 1/18=20,19=15,26=3/3(2);
 2/9=110/2;
 99//99;
 2/9=110/2;
 3/5=1,6=6,7=11,11=2,25=1,30=1,70=32205,71=1,72=3,74=-5/1,2,3;
 4/5=5,16=3,69=1/1;
 5/5=2,38=5,53=3/2;
 7//1,2,3,16;
 1/18=20,19=15,26=3/3(-5);
 2/9=110/2;
 6/7=2,8=2,9=2,10=2,19=2,28=1/1;
 99/9=1/99;
 Leave Link    1 at Tue Jul 28 03:15:04 2026, MaxMem=  4026531840 cpu:              10.0 elap:               1.4
 (Enter /opt/packages/gaussian/g16RevC.01/g16/l101.exe)
 ---------------------------------------
 Ground-state geometry optimization (S0)
 ---------------------------------------
 Symbolic Z-matrix:
 Charge =  1 Multiplicity = 1
 C                     2.05329  -0.50919  -0.10584 
 C                     1.23368  -1.6259    0.06501 
 C                    -0.1449   -1.47459   0.09762 
 C                    -0.73836  -0.21468  -0.04802 
 C                     0.09646   0.9087   -0.21317 
 C                     1.46385   0.769    -0.23645 
 O                     2.26488   1.86388  -0.44665 
 H                     1.66357  -2.61445   0.16854 
 H                    -0.7583   -2.35934   0.22769 
 H                    -0.3013    1.91265  -0.3229 
 O                     3.39341  -0.54524  -0.166 
 C                     4.05817  -1.80796  -0.05742 
 H                     3.75295  -2.47449  -0.8694 
 H                     3.85259  -2.2695    0.91284 
 H                     5.12111  -1.58376  -0.14276 
 C                    -2.18157  -0.10326  -0.03753 
 C                    -3.14591  -1.23098   0.19092 
 N                    -2.8437    0.99176  -0.26113 
 C                    -4.30681   0.84552  -0.25376 
 C                    -4.49137  -0.52076   0.41032 
 H                    -2.84424  -1.86094   1.02947 
 H                    -3.14692  -1.8581   -0.70971 
 H                    -4.66074   0.87349  -1.28876 
 H                    -4.75401   1.67476   0.29605 
 H                    -4.67402  -0.39313   1.48071 
 H                    -5.32846  -1.07336  -0.01831 
 H                    -2.40597   1.87828  -0.50001 
 C                     2.81283   2.44105   0.74788 
 H                     2.00771   2.81146   1.39149 
 H                     3.44024   3.27321   0.42516 
 H                     3.41904   1.71005   1.29167 
 
 ITRead=  0  0  0  0  0  0  0  0  0  0  0  0  0  0  0  0  0  0  0  0
 ITRead=  0  0  0  0  0  0  0  0  0  0  0
 MicOpt= -1 -1 -1 -1 -1 -1 -1 -1 -1 -1 -1 -1 -1 -1 -1 -1 -1 -1 -1 -1
 MicOpt= -1 -1 -1 -1 -1 -1 -1 -1 -1 -1 -1
 NAtoms=     31 NQM=       31 NQMF=       0 NMMI=      0 NMMIF=      0
                NMic=       0 NMicF=      0.
                    Isotopes and Nuclear Properties:
 (Nuclear quadrupole moments (NQMom) in fm**2, nuclear magnetic moments (NMagM)
  in nuclear magnetons)

  Atom         1           2           3           4           5           6           7           8           9          10
 IAtWgt=          12          12          12          12          12          12          16           1           1           1
 AtmWgt=  12.0000000  12.0000000  12.0000000  12.0000000  12.0000000  12.0000000  15.9949146   1.0078250   1.0078250   1.0078250
 NucSpn=           0           0           0           0           0           0           0           1           1           1
 AtZEff=  -0.0000000  -0.0000000  -0.0000000  -0.0000000  -0.0000000  -0.0000000  -0.0000000  -0.0000000  -0.0000000  -0.0000000
 NQMom=    0.0000000   0.0000000   0.0000000   0.0000000   0.0000000   0.0000000   0.0000000   0.0000000   0.0000000   0.0000000
 NMagM=    0.0000000   0.0000000   0.0000000   0.0000000   0.0000000   0.0000000   0.0000000   2.7928460   2.7928460   2.7928460
 AtZNuc=   6.0000000   6.0000000   6.0000000   6.0000000   6.0000000   6.0000000   8.0000000   1.0000000   1.0000000   1.0000000

  Atom        11          12          13          14          15          16          17          18          19          20
 IAtWgt=          16          12           1           1           1          12          12          14          12          12
 AtmWgt=  15.9949146  12.0000000   1.0078250   1.0078250   1.0078250  12.0000000  12.0000000  14.0030740  12.0000000  12.0000000
 NucSpn=           0           0           1           1           1           0           0           2           0           0
 AtZEff=  -0.0000000  -0.0000000  -0.0000000  -0.0000000  -0.0000000  -0.0000000  -0.0000000  -0.0000000  -0.0000000  -0.0000000
 NQMom=    0.0000000   0.0000000   0.0000000   0.0000000   0.0000000   0.0000000   0.0000000   2.0440000   0.0000000   0.0000000
 NMagM=    0.0000000   0.0000000   2.7928460   2.7928460   2.7928460   0.0000000   0.0000000   0.4037610   0.0000000   0.0000000
 AtZNuc=   8.0000000   6.0000000   1.0000000   1.0000000   1.0000000   6.0000000   6.0000000   7.0000000   6.0000000   6.0000000

  Atom        21          22          23          24          25          26          27          28          29          30
 IAtWgt=           1           1           1           1           1           1           1          12           1           1
 AtmWgt=   1.0078250   1.0078250   1.0078250   1.0078250   1.0078250   1.0078250   1.0078250  12.0000000   1.0078250   1.0078250
 NucSpn=           1           1           1           1           1           1           1           0           1           1
 AtZEff=  -0.0000000  -0.0000000  -0.0000000  -0.0000000  -0.0000000  -0.0000000  -0.0000000  -0.0000000  -0.0000000  -0.0000000
 NQMom=    0.0000000   0.0000000   0.0000000   0.0000000   0.0000000   0.0000000   0.0000000   0.0000000   0.0000000   0.0000000
 NMagM=    2.7928460   2.7928460   2.7928460   2.7928460   2.7928460   2.7928460   2.7928460   0.0000000   2.7928460   2.7928460
 AtZNuc=   1.0000000   1.0000000   1.0000000   1.0000000   1.0000000   1.0000000   1.0000000   6.0000000   1.0000000   1.0000000

  Atom        31
 IAtWgt=           1
 AtmWgt=   1.0078250
 NucSpn=           1
 AtZEff=  -0.0000000
 NQMom=    0.0000000
 NMagM=    2.7928460
 AtZNuc=   1.0000000
 Leave Link  101 at Tue Jul 28 03:15:04 2026, MaxMem=  4026531840 cpu:               1.3 elap:               0.2
 (Enter /opt/packages/gaussian/g16RevC.01/g16/l103.exe)

 GradGradGradGradGradGradGradGradGradGradGradGradGradGradGradGradGradGrad
 Berny optimization.
 Initialization pass.
                           ----------------------------
                           !    Initial Parameters    !
                           ! (Angstroms and Degrees)  !
 --------------------------                            --------------------------
 ! Name  Definition              Value          Derivative Info.                !
 --------------------------------------------------------------------------------
 ! R1    R(1,2)                  1.3957         estimate D2E/DX2                !
 ! R2    R(1,6)                  1.4136         estimate D2E/DX2                !
 ! R3    R(1,11)                 1.342          estimate D2E/DX2                !
 ! R4    R(2,3)                  1.3872         estimate D2E/DX2                !
 ! R5    R(2,8)                  1.0829         estimate D2E/DX2                !
 ! R6    R(3,4)                  1.4003         estimate D2E/DX2                !
 ! R7    R(3,9)                  1.0844         estimate D2E/DX2                !
 ! R8    R(4,5)                  1.4093         estimate D2E/DX2                !
 ! R9    R(4,16)                 1.4475         estimate D2E/DX2                !
 ! R10   R(5,6)                  1.3747         estimate D2E/DX2                !
 ! R11   R(5,10)                 1.0854         estimate D2E/DX2                !
 ! R12   R(6,7)                  1.3728         estimate D2E/DX2                !
 ! R13   R(7,28)                 1.4354         estimate D2E/DX2                !
 ! R14   R(11,12)                1.4311         estimate D2E/DX2                !
 ! R15   R(12,13)                1.094          estimate D2E/DX2                !
 ! R16   R(12,14)                1.0939         estimate D2E/DX2                !
 ! R17   R(12,15)                1.0897         estimate D2E/DX2                !
 ! R18   R(16,17)                1.5013         estimate D2E/DX2                !
 ! R19   R(16,18)                1.299          estimate D2E/DX2                !
 ! R20   R(17,20)                1.5371         estimate D2E/DX2                !
 ! R21   R(17,21)                1.0913         estimate D2E/DX2                !
 ! R22   R(17,22)                1.0975         estimate D2E/DX2                !
 ! R23   R(18,19)                1.4704         estimate D2E/DX2                !
 ! R24   R(18,27)                1.0171         estimate D2E/DX2                !
 ! R25   R(19,20)                1.5303         estimate D2E/DX2                !
 ! R26   R(19,23)                1.0942         estimate D2E/DX2                !
 ! R27   R(19,24)                1.0908         estimate D2E/DX2                !
 ! R28   R(20,25)                1.0933         estimate D2E/DX2                !
 ! R29   R(20,26)                1.0908         estimate D2E/DX2                !
 ! R30   R(28,29)                1.0953         estimate D2E/DX2                !
 ! R31   R(28,30)                1.091          estimate D2E/DX2                !
 ! R32   R(28,31)                1.0943         estimate D2E/DX2                !
 ! A1    A(2,1,6)              119.3345         estimate D2E/DX2                !
 ! A2    A(2,1,11)             124.7801         estimate D2E/DX2                !
 ! A3    A(6,1,11)             115.8844         estimate D2E/DX2                !
 ! A4    A(1,2,3)              119.9457         estimate D2E/DX2                !
 ! A5    A(1,2,8)              120.5944         estimate D2E/DX2                !
 ! A6    A(3,2,8)              119.4594         estimate D2E/DX2                !
 ! A7    A(2,3,4)              121.1221         estimate D2E/DX2                !
 ! A8    A(2,3,9)              118.4211         estimate D2E/DX2                !
 ! A9    A(4,3,9)              120.4532         estimate D2E/DX2                !
 ! A10   A(3,4,5)              118.5771         estimate D2E/DX2                !
 ! A11   A(3,4,16)             119.4096         estimate D2E/DX2                !
 ! A12   A(5,4,16)             122.0107         estimate D2E/DX2                !
 ! A13   A(4,5,6)              120.6762         estimate D2E/DX2                !
 ! A14   A(4,5,10)             122.1437         estimate D2E/DX2                !
 ! A15   A(6,5,10)             117.1797         estimate D2E/DX2                !
 ! A16   A(1,6,5)              120.3368         estimate D2E/DX2                !
 ! A17   A(1,6,7)              119.4716         estimate D2E/DX2                !
 ! A18   A(5,6,7)              120.1283         estimate D2E/DX2                !
 ! A19   A(6,7,28)             114.5838         estimate D2E/DX2                !
 ! A20   A(1,11,12)            118.9577         estimate D2E/DX2                !
 ! A21   A(11,12,13)           110.5897         estimate D2E/DX2                !
 ! A22   A(11,12,14)           110.6255         estimate D2E/DX2                !
 ! A23   A(11,12,15)           105.404          estimate D2E/DX2                !
 ! A24   A(13,12,14)           110.4161         estimate D2E/DX2                !
 ! A25   A(13,12,15)           109.8398         estimate D2E/DX2                !
 ! A26   A(14,12,15)           109.8518         estimate D2E/DX2                !
 ! A27   A(4,16,17)            125.7112         estimate D2E/DX2                !
 ! A28   A(4,16,18)            124.8773         estimate D2E/DX2                !
 ! A29   A(17,16,18)           109.389          estimate D2E/DX2                !
 ! A30   A(16,17,20)           103.7031         estimate D2E/DX2                !
 ! A31   A(16,17,21)           111.8985         estimate D2E/DX2                !
 ! A32   A(16,17,22)           107.7552         estimate D2E/DX2                !
 ! A33   A(20,17,21)           113.5148         estimate D2E/DX2                !
 ! A34   A(20,17,22)           112.3554         estimate D2E/DX2                !
 ! A35   A(21,17,22)           107.5157         estimate D2E/DX2                !
 ! A36   A(16,18,19)           114.9912         estimate D2E/DX2                !
 ! A37   A(16,18,27)           123.7635         estimate D2E/DX2                !
 ! A38   A(19,18,27)           121.0691         estimate D2E/DX2                !
 ! A39   A(18,19,20)           102.1795         estimate D2E/DX2                !
 ! A40   A(18,19,23)           108.3348         estimate D2E/DX2                !
 ! A41   A(18,19,24)           109.5632         estimate D2E/DX2                !
 ! A42   A(20,19,23)           113.2217         estimate D2E/DX2                !
 ! A43   A(20,19,24)           114.2391         estimate D2E/DX2                !
 ! A44   A(23,19,24)           108.9486         estimate D2E/DX2                !
 ! A45   A(17,20,19)           104.1827         estimate D2E/DX2                !
 ! A46   A(17,20,25)           109.8706         estimate D2E/DX2                !
 ! A47   A(17,20,26)           112.4305         estimate D2E/DX2                !
 ! A48   A(19,20,25)           109.924          estimate D2E/DX2                !
 ! A49   A(19,20,26)           111.9836         estimate D2E/DX2                !
 ! A50   A(25,20,26)           108.3997         estimate D2E/DX2                !
 ! A51   A(7,28,29)            110.1448         estimate D2E/DX2                !
 ! A52   A(7,28,30)            106.2645         estimate D2E/DX2                !
 ! A53   A(7,28,31)            110.8798         estimate D2E/DX2                !
 ! A54   A(29,28,30)           109.7912         estimate D2E/DX2                !
 ! A55   A(29,28,31)           109.9443         estimate D2E/DX2                !
 ! A56   A(30,28,31)           109.7508         estimate D2E/DX2                !
 ! D1    D(6,1,2,3)              0.358          estimate D2E/DX2                !
 ! D2    D(6,1,2,8)           -179.9139         estimate D2E/DX2                !
 ! D3    D(11,1,2,3)          -179.2515         estimate D2E/DX2                !
 ! D4    D(11,1,2,8)             0.4766         estimate D2E/DX2                !
 ! D5    D(2,1,6,5)             -0.8545         estimate D2E/DX2                !
 ! D6    D(2,1,6,7)           -177.9647         estimate D2E/DX2                !
 ! D7    D(11,1,6,5)           178.789          estimate D2E/DX2                !
 ! D8    D(11,1,6,7)             1.6788         estimate D2E/DX2                !
 ! D9    D(2,1,11,12)            0.3687         estimate D2E/DX2                !
 ! D10   D(6,1,11,12)         -179.2529         estimate D2E/DX2                !
 ! D11   D(1,2,3,4)              0.4601         estimate D2E/DX2                !
 ! D12   D(1,2,3,9)            179.765          estimate D2E/DX2                !
 ! D13   D(8,2,3,4)           -179.271          estimate D2E/DX2                !
 ! D14   D(8,2,3,9)              0.0338         estimate D2E/DX2                !
 ! D15   D(2,3,4,5)             -0.7786         estimate D2E/DX2                !
 ! D16   D(2,3,4,16)           178.653          estimate D2E/DX2                !
 ! D17   D(9,3,4,5)            179.9306         estimate D2E/DX2                !
 ! D18   D(9,3,4,16)            -0.6378         estimate D2E/DX2                !
 ! D19   D(3,4,5,6)              0.2763         estimate D2E/DX2                !
 ! D20   D(3,4,5,10)          -179.489          estimate D2E/DX2                !
 ! D21   D(16,4,5,6)          -179.1397         estimate D2E/DX2                !
 ! D22   D(16,4,5,10)            1.0949         estimate D2E/DX2                !
 ! D23   D(3,4,16,17)            3.4049         estimate D2E/DX2                !
 ! D24   D(3,4,16,18)         -174.6851         estimate D2E/DX2                !
 ! D25   D(5,4,16,17)         -177.1837         estimate D2E/DX2                !
 ! D26   D(5,4,16,18)            4.7263         estimate D2E/DX2                !
 ! D27   D(4,5,6,1)              0.5335         estimate D2E/DX2                !
 ! D28   D(4,5,6,7)            177.6246         estimate D2E/DX2                !
 ! D29   D(10,5,6,1)          -179.6899         estimate D2E/DX2                !
 ! D30   D(10,5,6,7)            -2.5988         estimate D2E/DX2                !
 ! D31   D(1,6,7,28)           -84.4065         estimate D2E/DX2                !
 ! D32   D(5,6,7,28)            98.4773         estimate D2E/DX2                !
 ! D33   D(6,7,28,29)          -62.633          estimate D2E/DX2                !
 ! D34   D(6,7,28,30)          178.5041         estimate D2E/DX2                !
 ! D35   D(6,7,28,31)           59.2916         estimate D2E/DX2                !
 ! D36   D(1,11,12,13)          60.828          estimate D2E/DX2                !
 ! D37   D(1,11,12,14)         -61.8253         estimate D2E/DX2                !
 ! D38   D(1,11,12,15)         179.4849         estimate D2E/DX2                !
 ! D39   D(4,16,17,20)         167.7869         estimate D2E/DX2                !
 ! D40   D(4,16,17,21)          45.0608         estimate D2E/DX2                !
 ! D41   D(4,16,17,22)         -72.9284         estimate D2E/DX2                !
 ! D42   D(18,16,17,20)        -13.8741         estimate D2E/DX2                !
 ! D43   D(18,16,17,21)       -136.6002         estimate D2E/DX2                !
 ! D44   D(18,16,17,22)        105.4105         estimate D2E/DX2                !
 ! D45   D(4,16,18,19)         177.481          estimate D2E/DX2                !
 ! D46   D(4,16,18,27)           2.2722         estimate D2E/DX2                !
 ! D47   D(17,16,18,19)         -0.875          estimate D2E/DX2                !
 ! D48   D(17,16,18,27)       -176.0838         estimate D2E/DX2                !
 ! D49   D(16,17,20,19)         22.1834         estimate D2E/DX2                !
 ! D50   D(16,17,20,25)        -95.5317         estimate D2E/DX2                !
 ! D51   D(16,17,20,26)        143.652          estimate D2E/DX2                !
 ! D52   D(21,17,20,19)        143.835          estimate D2E/DX2                !
 ! D53   D(21,17,20,25)         26.1199         estimate D2E/DX2                !
 ! D54   D(21,17,20,26)        -94.6964         estimate D2E/DX2                !
 ! D55   D(22,17,20,19)        -93.8995         estimate D2E/DX2                !
 ! D56   D(22,17,20,25)        148.3854         estimate D2E/DX2                !
 ! D57   D(22,17,20,26)         27.5691         estimate D2E/DX2                !
 ! D58   D(16,18,19,20)         15.2034         estimate D2E/DX2                !
 ! D59   D(16,18,19,23)       -104.5632         estimate D2E/DX2                !
 ! D60   D(16,18,19,24)        136.6987         estimate D2E/DX2                !
 ! D61   D(27,18,19,20)       -169.4465         estimate D2E/DX2                !
 ! D62   D(27,18,19,23)         70.7869         estimate D2E/DX2                !
 ! D63   D(27,18,19,24)        -47.9512         estimate D2E/DX2                !
 ! D64   D(18,19,20,17)        -22.2065         estimate D2E/DX2                !
 ! D65   D(18,19,20,25)         95.4717         estimate D2E/DX2                !
 ! D66   D(18,19,20,26)       -143.9716         estimate D2E/DX2                !
 ! D67   D(23,19,20,17)         94.0752         estimate D2E/DX2                !
 ! D68   D(23,19,20,25)       -148.2465         estimate D2E/DX2                !
 ! D69   D(23,19,20,26)        -27.6898         estimate D2E/DX2                !
 ! D70   D(24,19,20,17)       -140.4262         estimate D2E/DX2                !
 ! D71   D(24,19,20,25)        -22.7479         estimate D2E/DX2                !
 ! D72   D(24,19,20,26)         97.8088         estimate D2E/DX2                !
 --------------------------------------------------------------------------------
 Trust Radius=3.00D-01 FncErr=1.00D-07 GrdErr=1.00D-06 EigMax=2.50D+02 EigMin=1.00D-04
 Number of steps in this run=    170 maximum allowed number of steps=    186.
 GradGradGradGradGradGradGradGradGradGradGradGradGradGradGradGradGradGrad

 Leave Link  103 at Tue Jul 28 03:15:04 2026, MaxMem=  4026531840 cpu:               0.1 elap:               0.0
 (Enter /opt/packages/gaussian/g16RevC.01/g16/l202.exe)
                          Input orientation:                          
 ---------------------------------------------------------------------
 Center     Atomic      Atomic             Coordinates (Angstroms)
 Number     Number       Type             X           Y           Z
 ---------------------------------------------------------------------
      1          6           0        2.053290   -0.509190   -0.105840
      2          6           0        1.233680   -1.625900    0.065010
      3          6           0       -0.144900   -1.474590    0.097620
      4          6           0       -0.738360   -0.214680   -0.048020
      5          6           0        0.096460    0.908700   -0.213170
      6          6           0        1.463850    0.769000   -0.236450
      7          8           0        2.264880    1.863880   -0.446650
      8          1           0        1.663570   -2.614450    0.168540
      9          1           0       -0.758300   -2.359340    0.227690
     10          1           0       -0.301300    1.912650   -0.322900
     11          8           0        3.393410   -0.545240   -0.166000
     12          6           0        4.058170   -1.807960   -0.057420
     13          1           0        3.752950   -2.474490   -0.869400
     14          1           0        3.852590   -2.269500    0.912840
     15          1           0        5.121110   -1.583760   -0.142760
     16          6           0       -2.181570   -0.103260   -0.037530
     17          6           0       -3.145910   -1.230980    0.190920
     18          7           0       -2.843700    0.991760   -0.261130
     19          6           0       -4.306810    0.845520   -0.253760
     20          6           0       -4.491370   -0.520760    0.410320
     21          1           0       -2.844240   -1.860940    1.029470
     22          1           0       -3.146920   -1.858100   -0.709710
     23          1           0       -4.660740    0.873490   -1.288760
     24          1           0       -4.754010    1.674760    0.296050
     25          1           0       -4.674020   -0.393130    1.480710
     26          1           0       -5.328460   -1.073360   -0.018310
     27          1           0       -2.405970    1.878280   -0.500010
     28          6           0        2.812830    2.441050    0.747880
     29          1           0        2.007710    2.811460    1.391490
     30          1           0        3.440240    3.273210    0.425160
     31          1           0        3.419040    1.710050    1.291670
 ---------------------------------------------------------------------
                    Distance matrix (angstroms):
                    1          2          3          4          5
     1  C    0.000000
     2  C    1.395705   0.000000
     3  C    2.409446   1.387242   0.000000
     4  C    2.807737   2.427604   1.400278   0.000000
     5  C    2.418908   2.791926   2.415557   1.409320   0.000000
     6  C    1.413601   2.424748   2.780895   2.419269   1.374705
     7  O    2.406737   3.674743   4.153150   3.674067   2.380951
     8  H    2.158538   1.082938   2.138896   3.402214   3.874806
     9  H    3.382209   2.128939   1.084417   2.162401   3.406620
    10  H    3.384748   3.876593   3.416825   2.189090   1.085435
    11  O    1.341954   2.426031   3.667809   4.146651   3.603616
    12  C    2.389287   2.832998   4.219120   5.054239   4.806209
    13  H    2.708186   2.817791   4.138618   5.094435   5.024593
    14  H    2.715489   2.826964   4.156488   5.120777   5.047511
    15  H    3.250782   3.893206   5.272624   6.018035   5.609316
    16  C    4.254819   3.740706   2.459032   1.447543   2.498866
    17  C    5.257445   4.399162   3.012327   2.624167   3.905699
    18  N    5.124205   4.856289   3.673568   2.435851   2.941724
    19  C    6.504459   6.075077   4.777852   3.728296   4.403910
    20  C    6.564993   5.840956   4.460871   3.793263   4.845645
    21  H    5.205954   4.197006   2.881674   2.881994   4.226438
    22  H    5.406145   4.454634   3.132249   2.989954   4.291998
    23  H    6.956242   6.543992   5.275257   4.255422   4.877406
    24  H    7.160341   6.841065   5.585846   4.451271   4.936923
    25  H    6.912837   6.198778   4.857512   4.225906   5.226994
    26  H    7.403795   6.585888   5.200358   4.669821   5.778952
    27  H    5.073498   5.083855   4.087950   2.713982   2.698985
    28  C    3.163804   4.415893   4.950075   4.505253   3.263492
    29  H    3.642910   4.695619   4.967701   4.332507   3.138201
    30  H    4.063513   5.385155   5.958365   5.463513   4.144784
    31  H    2.956913   4.172416   4.926394   4.773189   3.734467
                    6          7          8          9         10
     6  C    0.000000
     7  O    1.372806   0.000000
     8  H    3.413450   4.560205   0.000000
     9  H    3.865215   5.237360   2.435987   0.000000
    10  H    2.105033   2.569625   4.959522   4.331501   0.000000
    11  O    2.335678   2.675108   2.717700   4.547818   4.440352
    12  C    3.661048   4.104851   2.536847   4.856304   5.737456
    13  H    4.020054   4.605923   2.337181   4.644162   5.998550
    14  H    4.032298   4.631832   2.337687   4.662382   6.022643
    15  H    4.349691   4.487385   3.621300   5.941904   6.454445
    16  C    3.753597   4.879338   4.597134   2.680660   2.771416
    17  C    5.043060   6.265884   5.004557   2.641066   4.270624
    18  N    4.313377   5.185808   5.788337   3.977148   2.704746
    19  C    5.771193   6.652922   6.913405   4.805710   4.145800
    20  C    6.127515   7.215803   6.505788   4.165278   4.900590
    21  H    5.203727   6.492790   4.650734   2.289629   4.747150
    22  H    5.327741   6.573425   4.948151   2.614472   4.739803
    23  H    6.215213   7.046576   7.367927   5.289598   4.584480
    24  H    6.306008   7.060608   7.720033   5.678409   4.501813
    25  H    6.478629   7.546996   6.842595   4.557291   5.262158
    26  H    7.041119   8.152893   7.162287   4.754011   5.855029
    27  H    4.034287   4.671177   6.098585   4.604540   2.112388
    28  C    2.363134   1.435366   5.216753   6.005607   3.335203
    29  H    2.667886   2.083939   5.572660   5.978496   3.013058
    30  H    3.258054   2.031683   6.155238   7.027969   4.050906
    31  H    2.653958   2.092249   4.800458   5.928082   4.060642
                   11         12         13         14         15
    11  O    0.000000
    12  C    1.431138   0.000000
    13  H    2.084717   1.093953   0.000000
    14  H    2.085141   1.093932   1.796755   0.000000
    15  H    2.015939   1.089674   1.786972   1.787085   0.000000
    16  C    5.593948   6.468443   6.444631   6.481272   7.451986
    17  C    6.584857   7.231414   7.089772   7.111870   8.281269
    18  N    6.424403   7.450888   7.476675   7.540181   8.371709
    19  C    7.825299   8.777949   8.738490   8.811363   9.736498
    20  C    7.905852   8.658539   8.568755   8.540040   9.686880
    21  H    6.486023   6.987661   6.892392   6.710295   8.055914
    22  H    6.692917   7.234730   6.929188   7.196878   8.291985
    23  H    8.254860   9.204660   9.065043   9.338213  10.150664
    24  H    8.457088   9.482025   9.536400   9.487422  10.408098
    25  H    8.235182   8.978793   8.992714   8.749075   9.999891
    26  H    8.739093   9.415412   9.228192   9.305346  10.462768
    27  H    6.294269   7.454486   7.550851   7.640013   8.292785
    28  C    3.176504   4.500385   5.259463   4.826758   4.724457
    29  H    3.951376   5.257639   6.008224   5.426679   5.600459
    30  H    3.864224   5.141304   5.899977   5.579382   5.170881
    31  H    2.685478   3.821639   4.721450   4.020982   3.975401
                   16         17         18         19         20
    16  C    0.000000
    17  C    1.501297   0.000000
    18  N    1.299031   2.288286   0.000000
    19  C    2.337431   2.420182   1.470419   0.000000
    20  C    2.389571   1.537144   2.335247   1.530289   0.000000
    21  H    2.160338   1.091339   3.131061   3.333274   2.211892
    22  H    2.112626   1.097458   2.900839   2.977045   2.202383
    23  H    2.943790   2.985458   2.090848   1.094200   2.204426
    24  H    3.144849   3.322704   2.103859   1.090834   2.214124
    25  H    2.932812   2.168103   2.881319   2.162749   1.093337
    26  H    3.293081   2.198214   3.240018   2.186620   1.090784
    27  H    2.047131   3.269923   1.017147   2.177252   3.306507
    28  C    5.659895   7.021438   5.925780   7.364664   7.889081
    29  H    5.299788   6.659016   5.438625   6.815052   7.369154
    30  H    6.574145   7.982479   6.720410   8.146864   8.792319
    31  H    6.035039   7.277354   6.492229   7.926192   8.266068
                   21         22         23         24         25
    21  H    0.000000
    22  H    1.765324   0.000000
    23  H    4.018827   3.176245   0.000000
    24  H    4.084887   4.009413   1.778301   0.000000
    25  H    2.388761   3.045671   3.045401   2.384531   0.000000
    26  H    2.808821   2.419291   2.418702   2.825063   1.771459
    27  H    4.063638   3.814907   2.591470   2.487654   3.771817
    28  C    7.112584   7.491721   7.903126   7.618951   8.038815
    29  H    6.745650   7.265676   7.443634   6.943553   7.410997
    30  H    8.137529   8.426681   8.621024   8.349697   8.966463
    31  H    7.214527   7.736217   8.522986   8.233544   8.364014
                   26         27         28         29         30
    26  H    0.000000
    27  H    4.181526   0.000000
    28  C    8.900490   5.395351   0.000000
    29  H    8.420140   4.891745   1.095288   0.000000
    30  H    9.796910   6.081113   1.091000   1.788616   0.000000
    31  H    9.272657   6.096652   1.094330   1.793020   1.787389
                   31
    31  H    0.000000
 Stoichiometry    C12H16NO2(1+)
 Framework group  C1[X(C12H16NO2)]
 Deg. of freedom    87
 Full point group                 C1      NOp   1
 Largest Abelian subgroup         C1      NOp   1
 Largest concise Abelian subgroup C1      NOp   1
                         Standard orientation:                         
 ---------------------------------------------------------------------
 Center     Atomic      Atomic             Coordinates (Angstroms)
 Number     Number       Type             X           Y           Z
 ---------------------------------------------------------------------
      1          6           0        2.053292   -0.509190   -0.105840
      2          6           0        1.233682   -1.625900    0.065010
      3          6           0       -0.144898   -1.474590    0.097620
      4          6           0       -0.738358   -0.214680   -0.048020
      5          6           0        0.096461    0.908700   -0.213170
      6          6           0        1.463851    0.769000   -0.236450
      7          8           0        2.264881    1.863880   -0.446650
      8          1           0        1.663572   -2.614450    0.168540
      9          1           0       -0.758298   -2.359340    0.227690
     10          1           0       -0.301299    1.912650   -0.322900
     11          8           0        3.393412   -0.545240   -0.166000
     12          6           0        4.058172   -1.807960   -0.057420
     13          1           0        3.752952   -2.474490   -0.869400
     14          1           0        3.852592   -2.269500    0.912840
     15          1           0        5.121112   -1.583759   -0.142760
     16          6           0       -2.181568   -0.103260   -0.037530
     17          6           0       -3.145908   -1.230980    0.190920
     18          7           0       -2.843699    0.991760   -0.261130
     19          6           0       -4.306809    0.845520   -0.253760
     20          6           0       -4.491368   -0.520760    0.410320
     21          1           0       -2.844238   -1.860940    1.029470
     22          1           0       -3.146918   -1.858100   -0.709710
     23          1           0       -4.660739    0.873490   -1.288760
     24          1           0       -4.754009    1.674760    0.296050
     25          1           0       -4.674018   -0.393130    1.480710
     26          1           0       -5.328458   -1.073360   -0.018310
     27          1           0       -2.405969    1.878280   -0.500010
     28          6           0        2.812831    2.441050    0.747880
     29          1           0        2.007711    2.811460    1.391490
     30          1           0        3.440241    3.273210    0.425160
     31          1           0        3.419041    1.710050    1.291670
 ---------------------------------------------------------------------
 Rotational constants (GHZ):           1.3021570           0.3067635           0.2551527
 Leave Link  202 at Tue Jul 28 03:15:05 2026, MaxMem=  4026531840 cpu:               0.1 elap:               0.0
 (Enter /opt/packages/gaussian/g16RevC.01/g16/l301.exe)
 Standard basis: 6-31+G(d) (6D, 7F)
 Ernie: Thresh=  0.10000D-02 Tol=  0.10000D-05 Strict=F.
 There are   317 symmetry adapted cartesian basis functions of A   symmetry.
 There are   317 symmetry adapted basis functions of A   symmetry.
   317 basis functions,   544 primitive gaussians,   317 cartesian basis functions
    55 alpha electrons       55 beta electrons
       nuclear repulsion energy       984.7119732007 Hartrees.
 IExCor=  402 DFT=T Ex+Corr=B3LYP ExCW=0 ScaHFX=  0.200000
 ScaDFX=  0.800000  0.720000  1.000000  0.810000 ScalE2=  1.000000  1.000000
 IRadAn=      5 IRanWt=     -1 IRanGd=            0 ICorTp=0 IEmpDi=  4
 NAtoms=   31 NActive=   31 NUniq=   31 SFac= 1.00D+00 NAtFMM=   60 NAOKFM=F Big=F
 Integral buffers will be    131072 words long.
 Raffenetti 2 integral format.
 Two-electron integral symmetry is turned on.
 ------------------------------------------------------------------------------
 Polarizable Continuum Model (PCM)
 =================================
 Model                : PCM.
 Atomic radii         : SMD-Coulomb.
 Polarization charges : Total charges.
 Charge compensation  : None.
 Solution method      : On-the-fly selection.
 Cavity type          : VdW (van der Waals Surface) (Alpha=1.000).
 Cavity algorithm     : GePol (No added spheres)
                        Default sphere list used, NSphG=   31.
                        Lebedev-Laikov grids with approx.  5.0 points / Ang**2.
                        Smoothing algorithm: York/Karplus (Gamma=1.0000).
                        Polarization charges: spherical gaussians, with
                                              point-specific exponents (IZeta= 3).
                        Self-potential: point-specific (ISelfS= 7).
                        Self-field    : sphere-specific E.n sum rule (ISelfD= 2).
 1st derivatives      : Analytical E(r).r(x)/FMM algorithm (CHGder, D1EAlg=3).
                        Cavity 1st derivative terms included.
 Solvent              : Methanol, Eps=  32.613000 Eps(inf)=   1.765709
 ------------------------------------------------------------------------------
 GePol: Number of generator spheres                  =      31
 GePol: Total number of spheres                      =      31
 GePol: Number of exposed spheres                    =      31 (100.00%)
 GePol: Number of points                             =    2244
 GePol: Average weight of points                     =       0.11
 GePol: Minimum weight of points                     =   0.45D-11
 GePol: Maximum weight of points                     =    0.21991
 GePol: Number of points with low weight             =     119
 GePol: Fraction of low-weight points (<1% of avg)   =       5.30%
 GePol: Cavity surface area                          =    245.794 Ang**2
 GePol: Cavity volume                                =    217.390 Ang**3
 ------------------------------------------------------------------------------
 Atomic radii for non-electrostatic terms: SMD-CDS.
 ------------------------------------------------------------------------------
 PCM non-electrostatic energy =         0.0015159426 Hartrees.
 Nuclear repulsion after PCM non-electrostatic terms =      984.7134891432 Hartrees.
 Leave Link  301 at Tue Jul 28 03:15:05 2026, MaxMem=  4026531840 cpu:               0.7 elap:               0.1
 (Enter /opt/packages/gaussian/g16RevC.01/g16/l302.exe)
 NPDir=0 NMtPBC=     1 NCelOv=     1 NCel=       1 NClECP=     1 NCelD=      1
         NCelK=      1 NCelE2=     1 NClLst=     1 CellRange=     0.0.
 One-electron integrals computed using PRISM.
 One-electron integral symmetry used in STVInt
 NBasis=   317 RedAO= T EigKep=  1.35D-06  NBF=   317
 NBsUse=   315 1.00D-06 EigRej=  7.39D-07 NBFU=   315
 Precomputing XC quadrature grid using
 IXCGrd= 4 IRadAn=           5 IRanWt=          -1 IRanGd=           0 AccXCQ= 0.00D+00.
 Generated NRdTot=       0 NPtTot=           0 NUsed=           0 NTot=          32
 NSgBfM=   316   316   316   316   316 MxSgAt=    31 MxSgA2=    31.
 Leave Link  302 at Tue Jul 28 03:15:05 2026, MaxMem=  4026531840 cpu:               2.1 elap:               0.3
 (Enter /opt/packages/gaussian/g16RevC.01/g16/l303.exe)
 DipDrv:  MaxL=1.
 Leave Link  303 at Tue Jul 28 03:15:06 2026, MaxMem=  4026531840 cpu:               0.5 elap:               0.1
 (Enter /opt/packages/gaussian/g16RevC.01/g16/l401.exe)
 ExpMin= 4.38D-02 ExpMax= 5.48D+03 ExpMxC= 8.25D+02 IAcc=3 IRadAn=         5 AccDes= 0.00D+00
 Harris functional with IExCor=  402 and IRadAn=       5 diagonalized for initial guess.
 HarFok:  IExCor=  402 AccDes= 0.00D+00 IRadAn=         5 IDoV= 1 UseB2=F ITyADJ=14
 ICtDFT=  3500011 ScaDFX=  1.000000  1.000000  1.000000  1.000000
 FoFCou: FMM=F IPFlag=           0 FMFlag=      100000 FMFlg1=           0
         NFxFlg=           0 DoJE=T BraDBF=F KetDBF=T FulRan=T
         wScrn=  0.000000 ICntrl=       500 IOpCl=  0 I1Cent=   200000004 NGrid=           0
         NMat0=    1 NMatS0=      1 NMatT0=    0 NMatD0=    1 NMtDS0=    0 NMtDT0=    0
 Petite list used in FoFCou.
 Harris En= -671.880483148766    
 JPrj=0 DoOrth=F DoCkMO=F.
 Leave Link  401 at Tue Jul 28 03:15:07 2026, MaxMem=  4026531840 cpu:               8.1 elap:               1.1
 (Enter /opt/packages/gaussian/g16RevC.01/g16/l502.exe)
 Integral symmetry usage will be decided dynamically.
 Closed shell SCF:
 Using DIIS extrapolation, IDIIS=  1040.
 NGot=  4026531840 LenX=  4026324160 LenY=  4026223230
 Requested convergence on RMS density matrix=1.00D-08 within 128 cycles.
 Requested convergence on MAX density matrix=1.00D-06.
 Requested convergence on             energy=1.00D-06.
 No special actions if energy rises.
 Fock matrices will be formed incrementally for  20 cycles.

 Cycle   1  Pass 1  IDiag  1:
 FoFJK:  IHMeth= 1 ICntrl=       0 DoSepK=F KAlg= 0 I1Cent=           0 FoldK=F
 IRaf= 870000000 NMat=       1 IRICut=       1 DoRegI=T DoRafI=F ISym2E= 0 IDoP0=0 IntGTp=1.
 FoFCou: FMM=F IPFlag=           0 FMFlag=      100000 FMFlg1=           0
         NFxFlg=           0 DoJE=F BraDBF=F KetDBF=F FulRan=T
         wScrn=  0.000000 ICntrl=         0 IOpCl=  0 I1Cent=           0 NGrid=           0
         NMat0=    1 NMatS0=      1 NMatT0=    0 NMatD0=    1 NMtDS0=    0 NMtDT0=    0
 Symmetry not used in FoFCou.
 Inv3:  Mode=1 IEnd=    15106608.
 Iteration    1 A*A^-1 deviation from unit magnitude is 3.22D-15 for    745.
 Iteration    1 A*A^-1 deviation from orthogonality  is 2.65D-15 for   1771    220.
 Iteration    1 A^-1*A deviation from unit magnitude is 3.11D-15 for    745.
 Iteration    1 A^-1*A deviation from orthogonality  is 2.66D-15 for   2063   1147.
 E= -671.722591336518    
 DIIS: error= 1.64D-02 at cycle   1 NSaved=   1.
 NSaved= 1 IEnMin= 1 EnMin= -671.722591336518     IErMin= 1 ErrMin= 1.64D-02
 ErrMax= 1.64D-02  0.00D+00 EMaxC= 1.00D-01 BMatC= 2.58D-01 BMatP= 2.58D-01
 IDIUse=3 WtCom= 8.36D-01 WtEn= 1.64D-01
 Coeff-Com:  0.100D+01
 Coeff-En:   0.100D+01
 Coeff:      0.100D+01
 Gap=     0.145 Goal=   None    Shift=    0.000
 GapD=    0.145 DampG=1.000 DampE=0.500 DampFc=0.5000 IDamp=-1.
 Damping current iteration by 5.00D-01
 RMSDP=3.44D-02 MaxDP=2.96D+00              OVMax= 1.63D-01

 Cycle   2  Pass 1  IDiag  1:
 RMSU=  1.61D-02    CP:  9.46D-01
 E= -671.843790156707     Delta-E=       -0.121198820188 Rises=F Damp=T
 DIIS: error= 6.11D-03 at cycle   2 NSaved=   2.
 NSaved= 2 IEnMin= 2 EnMin= -671.843790156707     IErMin= 2 ErrMin= 6.11D-03
 ErrMax= 6.11D-03  0.00D+00 EMaxC= 1.00D-01 BMatC= 1.82D-02 BMatP= 2.58D-01
 IDIUse=3 WtCom= 9.39D-01 WtEn= 6.11D-02
 Coeff-Com:  0.264D-02 0.997D+00
 Coeff-En:   0.954D-02 0.990D+00
 Coeff:      0.306D-02 0.997D+00
 Gap=     0.195 Goal=   None    Shift=    0.000
 RMSDP=2.89D-02 MaxDP=3.21D+00 DE=-1.21D-01 OVMax= 1.10D-01

 Cycle   3  Pass 1  IDiag  1:
 RMSU=  8.92D-03    CP:  7.05D-01  6.44D-01
 E= -671.972848907043     Delta-E=       -0.129058750337 Rises=F Damp=F
 DIIS: error= 2.64D-03 at cycle   3 NSaved=   3.
 NSaved= 3 IEnMin= 3 EnMin= -671.972848907043     IErMin= 3 ErrMin= 2.64D-03
 ErrMax= 2.64D-03  0.00D+00 EMaxC= 1.00D-01 BMatC= 8.15D-03 BMatP= 1.82D-02
 IDIUse=3 WtCom= 9.74D-01 WtEn= 2.64D-02
 Coeff-Com: -0.579D-01 0.399D+00 0.659D+00
 Coeff-En:   0.000D+00 0.000D+00 0.100D+01
 Coeff:     -0.564D-01 0.388D+00 0.668D+00
 Gap=     0.159 Goal=   None    Shift=    0.000
 RMSDP=1.63D-03 MaxDP=1.03D-01 DE=-1.29D-01 OVMax= 3.80D-02

 Cycle   4  Pass 1  IDiag  1:
 RMSU=  1.40D-03    CP:  7.06D-01  5.93D-01  1.00D+00
 E= -671.978551212358     Delta-E=       -0.005702305314 Rises=F Damp=F
 DIIS: error= 1.15D-03 at cycle   4 NSaved=   4.
 NSaved= 4 IEnMin= 4 EnMin= -671.978551212358     IErMin= 4 ErrMin= 1.15D-03
 ErrMax= 1.15D-03  0.00D+00 EMaxC= 1.00D-01 BMatC= 2.02D-03 BMatP= 8.15D-03
 IDIUse=3 WtCom= 9.88D-01 WtEn= 1.15D-02
 Coeff-Com: -0.301D-01 0.113D+00 0.373D+00 0.544D+00
 Coeff-En:   0.000D+00 0.000D+00 0.198D+00 0.802D+00
 Coeff:     -0.297D-01 0.112D+00 0.371D+00 0.547D+00
 Gap=     0.158 Goal=   None    Shift=    0.000
 RMSDP=1.37D-03 MaxDP=7.06D-02 DE=-5.70D-03 OVMax= 1.51D-02

 Cycle   5  Pass 1  IDiag  1:
 RMSU=  8.39D-04    CP:  7.01D-01  6.18D-01  9.38D-01  5.68D-01
 E= -671.980433967793     Delta-E=       -0.001882755436 Rises=F Damp=F
 DIIS: error= 3.77D-04 at cycle   5 NSaved=   5.
 NSaved= 5 IEnMin= 5 EnMin= -671.980433967793     IErMin= 5 ErrMin= 3.77D-04
 ErrMax= 3.77D-04  0.00D+00 EMaxC= 1.00D-01 BMatC= 1.21D-04 BMatP= 2.02D-03
 IDIUse=3 WtCom= 9.96D-01 WtEn= 3.77D-03
 Coeff-Com: -0.106D-01 0.271D-01 0.136D+00 0.277D+00 0.570D+00
 Coeff-En:   0.000D+00 0.000D+00 0.000D+00 0.000D+00 0.100D+01
 Coeff:     -0.105D-01 0.270D-01 0.136D+00 0.276D+00 0.572D+00
 Gap=     0.159 Goal=   None    Shift=    0.000
 RMSDP=3.35D-04 MaxDP=2.69D-02 DE=-1.88D-03 OVMax= 3.86D-03

 Cycle   6  Pass 1  IDiag  1:
 RMSU=  2.18D-04    CP:  7.03D-01  6.19D-01  9.29D-01  5.61D-01  9.07D-01
 E= -671.980538585852     Delta-E=       -0.000104618059 Rises=F Damp=F
 DIIS: error= 1.30D-04 at cycle   6 NSaved=   6.
 NSaved= 6 IEnMin= 6 EnMin= -671.980538585852     IErMin= 6 ErrMin= 1.30D-04
 ErrMax= 1.30D-04  0.00D+00 EMaxC= 1.00D-01 BMatC= 1.65D-05 BMatP= 1.21D-04
 IDIUse=3 WtCom= 9.99D-01 WtEn= 1.30D-03
 Coeff-Com: -0.373D-02 0.636D-02 0.468D-01 0.112D+00 0.337D+00 0.501D+00
 Coeff-En:   0.000D+00 0.000D+00 0.000D+00 0.000D+00 0.719D-01 0.928D+00
 Coeff:     -0.373D-02 0.635D-02 0.468D-01 0.112D+00 0.337D+00 0.501D+00
 Gap=     0.159 Goal=   None    Shift=    0.000
 RMSDP=1.13D-04 MaxDP=7.80D-03 DE=-1.05D-04 OVMax= 1.10D-03

 Cycle   7  Pass 1  IDiag  1:
 RMSU=  4.74D-05    CP:  7.02D-01  6.19D-01  9.36D-01  5.65D-01  8.85D-01
                    CP:  7.35D-01
 E= -671.980554049764     Delta-E=       -0.000015463911 Rises=F Damp=F
 DIIS: error= 2.41D-05 at cycle   7 NSaved=   7.
 NSaved= 7 IEnMin= 7 EnMin= -671.980554049764     IErMin= 7 ErrMin= 2.41D-05
 ErrMax= 2.41D-05  0.00D+00 EMaxC= 1.00D-01 BMatC= 5.88D-07 BMatP= 1.65D-05
 IDIUse=1 WtCom= 1.00D+00 WtEn= 0.00D+00
 Coeff-Com: -0.129D-02 0.176D-02 0.160D-01 0.412D-01 0.143D+00 0.246D+00
 Coeff-Com:  0.553D+00
 Coeff:     -0.129D-02 0.176D-02 0.160D-01 0.412D-01 0.143D+00 0.246D+00
 Coeff:      0.553D+00
 Gap=     0.159 Goal=   None    Shift=    0.000
 RMSDP=1.82D-05 MaxDP=2.08D-03 DE=-1.55D-05 OVMax= 2.46D-04

 Cycle   8  Pass 1  IDiag  1:
 RMSU=  1.21D-05    CP:  7.02D-01  6.18D-01  9.36D-01  5.66D-01  8.92D-01
                    CP:  7.39D-01  9.44D-01
 E= -671.980554550959     Delta-E=       -0.000000501195 Rises=F Damp=F
 DIIS: error= 6.86D-06 at cycle   8 NSaved=   8.
 NSaved= 8 IEnMin= 8 EnMin= -671.980554550959     IErMin= 8 ErrMin= 6.86D-06
 ErrMax= 6.86D-06  0.00D+00 EMaxC= 1.00D-01 BMatC= 5.41D-08 BMatP= 5.88D-07
 IDIUse=1 WtCom= 1.00D+00 WtEn= 0.00D+00
 Coeff-Com: -0.242D-04-0.207D-03 0.307D-04 0.122D-02 0.142D-01 0.299D-01
 Coeff-Com:  0.245D+00 0.710D+00
 Coeff:     -0.242D-04-0.207D-03 0.307D-04 0.122D-02 0.142D-01 0.299D-01
 Coeff:      0.245D+00 0.710D+00
 Gap=     0.159 Goal=   None    Shift=    0.000
 RMSDP=6.45D-06 MaxDP=3.54D-04 DE=-5.01D-07 OVMax= 9.04D-05

 Cycle   9  Pass 1  IDiag  1:
 RMSU=  3.54D-06    CP:  7.02D-01  6.18D-01  9.36D-01  5.65D-01  8.95D-01
                    CP:  7.37D-01  9.42D-01  8.55D-01
 E= -671.980554595855     Delta-E=       -0.000000044896 Rises=F Damp=F
 DIIS: error= 2.29D-06 at cycle   9 NSaved=   9.
 NSaved= 9 IEnMin= 9 EnMin= -671.980554595855     IErMin= 9 ErrMin= 2.29D-06
 ErrMax= 2.29D-06  0.00D+00 EMaxC= 1.00D-01 BMatC= 5.63D-09 BMatP= 5.41D-08
 IDIUse=1 WtCom= 1.00D+00 WtEn= 0.00D+00
 Coeff-Com:  0.652D-04-0.200D-03-0.925D-03-0.191D-02-0.134D-02-0.425D-03
 Coeff-Com:  0.870D-01 0.343D+00 0.575D+00
 Coeff:      0.652D-04-0.200D-03-0.925D-03-0.191D-02-0.134D-02-0.425D-03
 Coeff:      0.870D-01 0.343D+00 0.575D+00
 Gap=     0.159 Goal=   None    Shift=    0.000
 RMSDP=2.22D-06 MaxDP=1.28D-04 DE=-4.49D-08 OVMax= 3.65D-05

 Cycle  10  Pass 1  IDiag  1:
 RMSU=  1.53D-06    CP:  7.02D-01  6.18D-01  9.36D-01  5.65D-01  8.96D-01
                    CP:  7.37D-01  9.60D-01  8.41D-01  9.23D-01
 E= -671.980554601296     Delta-E=       -0.000000005441 Rises=F Damp=F
 DIIS: error= 6.98D-07 at cycle  10 NSaved=  10.
 NSaved=10 IEnMin=10 EnMin= -671.980554601296     IErMin=10 ErrMin= 6.98D-07
 ErrMax= 6.98D-07  0.00D+00 EMaxC= 1.00D-01 BMatC= 5.77D-10 BMatP= 5.63D-09
 IDIUse=1 WtCom= 1.00D+00 WtEn= 0.00D+00
 Coeff-Com:  0.335D-04-0.612D-04-0.433D-03-0.111D-02-0.267D-02-0.457D-02
 Coeff-Com:  0.507D-02 0.483D-01 0.268D+00 0.687D+00
 Coeff:      0.335D-04-0.612D-04-0.433D-03-0.111D-02-0.267D-02-0.457D-02
 Coeff:      0.507D-02 0.483D-01 0.268D+00 0.687D+00
 Gap=     0.159 Goal=   None    Shift=    0.000
 RMSDP=7.19D-07 MaxDP=3.42D-05 DE=-5.44D-09 OVMax= 1.41D-05

 Cycle  11  Pass 1  IDiag  1:
 RMSU=  3.61D-07    CP:  7.02D-01  6.18D-01  9.36D-01  5.65D-01  8.97D-01
                    CP:  7.38D-01  9.62D-01  8.60D-01  9.73D-01  8.10D-01
 E= -671.980554601924     Delta-E=       -0.000000000628 Rises=F Damp=F
 DIIS: error= 1.41D-07 at cycle  11 NSaved=  11.
 NSaved=11 IEnMin=11 EnMin= -671.980554601924     IErMin=11 ErrMin= 1.41D-07
 ErrMax= 1.41D-07  0.00D+00 EMaxC= 1.00D-01 BMatC= 2.66D-11 BMatP= 5.77D-10
 IDIUse=1 WtCom= 1.00D+00 WtEn= 0.00D+00
 Coeff-Com:  0.122D-04-0.180D-04-0.147D-03-0.401D-03-0.111D-02-0.195D-02
 Coeff-Com: -0.207D-02 0.311D-02 0.842D-01 0.275D+00 0.643D+00
 Coeff:      0.122D-04-0.180D-04-0.147D-03-0.401D-03-0.111D-02-0.195D-02
 Coeff:     -0.207D-02 0.311D-02 0.842D-01 0.275D+00 0.643D+00
 Gap=     0.159 Goal=   None    Shift=    0.000
 RMSDP=1.22D-07 MaxDP=3.99D-06 DE=-6.28D-10 OVMax= 3.77D-06

 Cycle  12  Pass 1  IDiag  1:
 RMSU=  8.74D-08    CP:  7.02D-01  6.18D-01  9.36D-01  5.65D-01  8.97D-01
                    CP:  7.37D-01  9.62D-01  8.58D-01  9.79D-01  8.49D-01
                    CP:  9.28D-01
 E= -671.980554601960     Delta-E=       -0.000000000036 Rises=F Damp=F
 DIIS: error= 9.84D-08 at cycle  12 NSaved=  12.
 NSaved=12 IEnMin=12 EnMin= -671.980554601960     IErMin=12 ErrMin= 9.84D-08
 ErrMax= 9.84D-08  0.00D+00 EMaxC= 1.00D-01 BMatC= 8.04D-12 BMatP= 2.66D-11
 IDIUse=1 WtCom= 1.00D+00 WtEn= 0.00D+00
 Coeff-Com:  0.336D-07 0.212D-05 0.631D-05-0.187D-05-0.692D-04-0.145D-03
 Coeff-Com: -0.195D-02-0.745D-02-0.293D-02 0.240D-01 0.371D+00 0.618D+00
 Coeff:      0.336D-07 0.212D-05 0.631D-05-0.187D-05-0.692D-04-0.145D-03
 Coeff:     -0.195D-02-0.745D-02-0.293D-02 0.240D-01 0.371D+00 0.618D+00
 Gap=     0.159 Goal=   None    Shift=    0.000
 RMSDP=6.76D-08 MaxDP=5.33D-06 DE=-3.56D-11 OVMax= 1.76D-06

 Cycle  13  Pass 1  IDiag  1:
 RMSU=  3.74D-08    CP:  7.02D-01  6.18D-01  9.36D-01  5.65D-01  8.97D-01
                    CP:  7.37D-01  9.62D-01  8.58D-01  9.84D-01  8.48D-01
                    CP:  1.01D+00  7.77D-01
 E= -671.980554601969     Delta-E=       -0.000000000009 Rises=F Damp=F
 DIIS: error= 1.50D-08 at cycle  13 NSaved=  13.
 NSaved=13 IEnMin=13 EnMin= -671.980554601969     IErMin=13 ErrMin= 1.50D-08
 ErrMax= 1.50D-08  0.00D+00 EMaxC= 1.00D-01 BMatC= 3.06D-13 BMatP= 8.04D-12
 IDIUse=1 WtCom= 1.00D+00 WtEn= 0.00D+00
 Coeff-Com: -0.618D-06 0.184D-05 0.106D-04 0.208D-04 0.296D-04 0.451D-04
 Coeff-Com: -0.714D-03-0.334D-02-0.606D-02-0.746D-02 0.108D+00 0.255D+00
 Coeff-Com:  0.654D+00
 Coeff:     -0.618D-06 0.184D-05 0.106D-04 0.208D-04 0.296D-04 0.451D-04
 Coeff:     -0.714D-03-0.334D-02-0.606D-02-0.746D-02 0.108D+00 0.255D+00
 Coeff:      0.654D+00
 Gap=     0.159 Goal=   None    Shift=    0.000
 RMSDP=1.58D-08 MaxDP=9.09D-07 DE=-8.98D-12 OVMax= 2.88D-07

 Cycle  14  Pass 1  IDiag  1:
 RMSU=  9.10D-09    CP:  7.02D-01  6.18D-01  9.36D-01  5.65D-01  8.97D-01
                    CP:  7.37D-01  9.62D-01  8.58D-01  9.85D-01  8.50D-01
                    CP:  1.02D+00  8.57D-01  8.87D-01
 E= -671.980554601958     Delta-E=        0.000000000011 Rises=F Damp=F
 DIIS: error= 7.75D-09 at cycle  14 NSaved=  14.
 NSaved=14 IEnMin=13 EnMin= -671.980554601969     IErMin=14 ErrMin= 7.75D-09
 ErrMax= 7.75D-09  0.00D+00 EMaxC= 1.00D-01 BMatC= 7.28D-14 BMatP= 3.06D-13
 IDIUse=1 WtCom= 1.00D+00 WtEn= 0.00D+00
 Coeff-Com: -0.320D-06 0.612D-06 0.470D-05 0.114D-04 0.261D-04 0.474D-04
 Coeff-Com: -0.737D-04-0.624D-03-0.262D-02-0.783D-02 0.363D-05 0.486D-01
 Coeff-Com:  0.368D+00 0.594D+00
 Coeff:     -0.320D-06 0.612D-06 0.470D-05 0.114D-04 0.261D-04 0.474D-04
 Coeff:     -0.737D-04-0.624D-03-0.262D-02-0.783D-02 0.363D-05 0.486D-01
 Coeff:      0.368D+00 0.594D+00
 Gap=     0.159 Goal=   None    Shift=    0.000
 RMSDP=4.57D-09 MaxDP=1.57D-07 DE= 1.08D-11 OVMax= 1.07D-07

 Error on total polarization charges =  0.05668
 SCF Done:  E(RB3LYP) =  -671.980554602     A.U. after   14 cycles
            NFock= 14  Conv=0.46D-08     -V/T= 2.0094
 KE= 6.657505159522D+02 PE=-3.514442053989D+03 EE= 1.191997494292D+03
 SMD-CDS (non-electrostatic) energy       (kcal/mol) =       0.95
 (included in total energy above)
 Leave Link  502 at Tue Jul 28 03:15:48 2026, MaxMem=  4026531840 cpu:             323.0 elap:              41.0
 (Enter /opt/packages/gaussian/g16RevC.01/g16/l601.exe)
 Copying SCF densities to generalized density rwf, IOpCl= 0 IROHF=0.

 **********************************************************************

            Population analysis using the SCF Density.

 **********************************************************************

 Orbital symmetries:
       Occupied  (A) (A) (A) (A) (A) (A) (A) (A) (A) (A) (A) (A)
                 (A) (A) (A) (A) (A) (A) (A) (A) (A) (A) (A) (A)
                 (A) (A) (A) (A) (A) (A) (A) (A) (A) (A) (A) (A)
                 (A) (A) (A) (A) (A) (A) (A) (A) (A) (A) (A) (A)
                 (A) (A) (A) (A) (A) (A) (A)
       Virtual   (A) (A) (A) (A) (A) (A) (A) (A) (A) (A) (A) (A)
                 (A) (A) (A) (A) (A) (A) (A) (A) (A) (A) (A) (A)
                 (A) (A) (A) (A) (A) (A) (A) (A) (A) (A) (A) (A)
                 (A) (A) (A) (A) (A) (A) (A) (A) (A) (A) (A) (A)
                 (A) (A) (A) (A) (A) (A) (A) (A) (A) (A) (A) (A)
                 (A) (A) (A) (A) (A) (A) (A) (A) (A) (A) (A) (A)
                 (A) (A) (A) (A) (A) (A) (A) (A) (A) (A) (A) (A)
                 (A) (A) (A) (A) (A) (A) (A) (A) (A) (A) (A) (A)
                 (A) (A) (A) (A) (A) (A) (A) (A) (A) (A) (A) (A)
                 (A) (A) (A) (A) (A) (A) (A) (A) (A) (A) (A) (A)
                 (A) (A) (A) (A) (A) (A) (A) (A) (A) (A) (A) (A)
                 (A) (A) (A) (A) (A) (A) (A) (A) (A) (A) (A) (A)
                 (A) (A) (A) (A) (A) (A) (A) (A) (A) (A) (A) (A)
                 (A) (A) (A) (A) (A) (A) (A) (A) (A) (A) (A) (A)
                 (A) (A) (A) (A) (A) (A) (A) (A) (A) (A) (A) (A)
                 (A) (A) (A) (A) (A) (A) (A) (A) (A) (A) (A) (A)
                 (A) (A) (A) (A) (A) (A) (A) (A) (A) (A) (A) (A)
                 (A) (A) (A) (A) (A) (A) (A) (A) (A) (A) (A) (A)
                 (A) (A) (A) (A) (A) (A) (A) (A) (A) (A) (A) (A)
                 (A) (A) (A) (A) (A) (A) (A) (A) (A) (A) (A) (A)
                 (A) (A) (A) (A) (A) (A) (A) (A) (A) (A) (A) (A)
                 (A) (A) (A) (A) (A) (A) (A) (A)
 The electronic state is 1-A.
 Alpha  occ. eigenvalues --  -19.20989 -19.18620 -14.42243 -10.29789 -10.28047
 Alpha  occ. eigenvalues --  -10.26323 -10.23950 -10.23840 -10.23329 -10.22706
 Alpha  occ. eigenvalues --  -10.22041 -10.21856 -10.21117 -10.20913 -10.20005
 Alpha  occ. eigenvalues --   -1.09959  -1.06597  -1.01770  -0.88411  -0.80776
 Alpha  occ. eigenvalues --   -0.80519  -0.77614  -0.75586  -0.71645  -0.69634
 Alpha  occ. eigenvalues --   -0.63833  -0.63738  -0.61982  -0.61417  -0.56574
 Alpha  occ. eigenvalues --   -0.54280  -0.52330  -0.51120  -0.50429  -0.48798
 Alpha  occ. eigenvalues --   -0.47249  -0.46361  -0.46026  -0.45122  -0.44054
 Alpha  occ. eigenvalues --   -0.43356  -0.42819  -0.41620  -0.40916  -0.39002
 Alpha  occ. eigenvalues --   -0.38773  -0.38448  -0.37227  -0.36499  -0.34801
 Alpha  occ. eigenvalues --   -0.34460  -0.32246  -0.29288  -0.27291  -0.24681
 Alpha virt. eigenvalues --   -0.08828  -0.02626   0.00180   0.01485   0.01824
 Alpha virt. eigenvalues --    0.01912   0.02603   0.02959   0.03094   0.03799
 Alpha virt. eigenvalues --    0.04126   0.04817   0.05208   0.05588   0.06209
 Alpha virt. eigenvalues --    0.06694   0.07419   0.07611   0.07913   0.09003
 Alpha virt. eigenvalues --    0.09676   0.09735   0.10372   0.11135   0.11357
 Alpha virt. eigenvalues --    0.11793   0.11991   0.12422   0.12944   0.13187
 Alpha virt. eigenvalues --    0.14024   0.14229   0.14547   0.15107   0.15327
 Alpha virt. eigenvalues --    0.15727   0.16432   0.16851   0.16857   0.17248
 Alpha virt. eigenvalues --    0.17794   0.18554   0.18868   0.19337   0.19803
 Alpha virt. eigenvalues --    0.20060   0.20734   0.21028   0.21662   0.22175
 Alpha virt. eigenvalues --    0.22569   0.22904   0.23781   0.24049   0.24531
 Alpha virt. eigenvalues --    0.24901   0.25117   0.25290   0.26102   0.26173
 Alpha virt. eigenvalues --    0.26457   0.27030   0.27415   0.28070   0.28409
 Alpha virt. eigenvalues --    0.28967   0.29288   0.30104   0.30768   0.31194
 Alpha virt. eigenvalues --    0.31893   0.32292   0.32573   0.32868   0.33362
 Alpha virt. eigenvalues --    0.33480   0.33750   0.34533   0.35398   0.36076
 Alpha virt. eigenvalues --    0.37027   0.38583   0.39084   0.39955   0.41005
 Alpha virt. eigenvalues --    0.42545   0.43437   0.44674   0.45896   0.46610
 Alpha virt. eigenvalues --    0.47287   0.51013   0.58233   0.60992   0.62770
 Alpha virt. eigenvalues --    0.65075   0.65650   0.65998   0.67212   0.68262
 Alpha virt. eigenvalues --    0.68661   0.69329   0.69397   0.70001   0.70681
 Alpha virt. eigenvalues --    0.71412   0.72592   0.72847   0.73869   0.75526
 Alpha virt. eigenvalues --    0.76017   0.77222   0.77592   0.78648   0.79000
 Alpha virt. eigenvalues --    0.80628   0.83194   0.84497   0.85249   0.85769
 Alpha virt. eigenvalues --    0.89105   0.90106   0.92380   0.92632   0.93740
 Alpha virt. eigenvalues --    0.94215   0.95185   0.96739   0.97401   0.98640
 Alpha virt. eigenvalues --    0.98762   0.99465   1.03265   1.04703   1.05552
 Alpha virt. eigenvalues --    1.06161   1.07795   1.08374   1.09021   1.11455
 Alpha virt. eigenvalues --    1.11628   1.12669   1.13411   1.14843   1.15624
 Alpha virt. eigenvalues --    1.16851   1.19352   1.19836   1.20960   1.21400
 Alpha virt. eigenvalues --    1.23726   1.24125   1.24743   1.27190   1.27622
 Alpha virt. eigenvalues --    1.29123   1.29524   1.34183   1.35136   1.36106
 Alpha virt. eigenvalues --    1.37338   1.38154   1.40414   1.40977   1.43768
 Alpha virt. eigenvalues --    1.46268   1.48477   1.48988   1.50440   1.52258
 Alpha virt. eigenvalues --    1.53152   1.54965   1.57287   1.60509   1.63237
 Alpha virt. eigenvalues --    1.64064   1.72112   1.73143   1.75271   1.77389
 Alpha virt. eigenvalues --    1.80182   1.80803   1.81970   1.82336   1.83951
 Alpha virt. eigenvalues --    1.85429   1.89025   1.91170   1.92390   1.93367
 Alpha virt. eigenvalues --    1.95500   1.96267   1.98063   1.99844   2.01727
 Alpha virt. eigenvalues --    2.03697   2.04218   2.05879   2.06540   2.09445
 Alpha virt. eigenvalues --    2.09818   2.11425   2.12903   2.14210   2.16004
 Alpha virt. eigenvalues --    2.18121   2.18798   2.19817   2.21856   2.24536
 Alpha virt. eigenvalues --    2.25977   2.27963   2.28886   2.30468   2.31287
 Alpha virt. eigenvalues --    2.33372   2.36282   2.37770   2.39963   2.42219
 Alpha virt. eigenvalues --    2.45652   2.48332   2.49650   2.51919   2.55015
 Alpha virt. eigenvalues --    2.58086   2.61554   2.63521   2.64791   2.66993
 Alpha virt. eigenvalues --    2.67401   2.69386   2.76650   2.78344   2.81006
 Alpha virt. eigenvalues --    2.81587   2.85955   2.88682   2.92559   3.01351
 Alpha virt. eigenvalues --    3.05334   3.11267   3.15753   3.29202   3.46340
 Alpha virt. eigenvalues --    4.09732   4.20362   4.25025   4.26346   4.29987
 Alpha virt. eigenvalues --    4.33796   4.34822   4.36674   4.38119   4.43278
 Alpha virt. eigenvalues --    4.48371   4.55280   4.61526   4.70153   5.05258
          Condensed to atoms (all electrons):
               1          2          3          4          5          6
     1  C   17.319570   2.466717  -1.268047  -2.063261  -5.134578  -5.914483
     2  C    2.466717  10.548376  -1.835865  -1.909184   1.979224  -6.521501
     3  C   -1.268047  -1.835865  16.861389   4.174493  -9.915865   3.362596
     4  C   -2.063261  -1.909184   4.174493  14.821246  -7.093326   1.795180
     5  C   -5.134578   1.979224  -9.915865  -7.093326  25.922153  -5.419593
     6  C   -5.914483  -6.521501   3.362596   1.795180  -5.419593  21.562799
     7  O   -0.006969   0.100925  -0.068176  -0.015404  -0.321531   0.323535
     8  H   -0.100449   0.262743   0.079759   0.045246  -0.033157   0.061506
     9  H    0.034241   0.052471   0.192945  -0.049330   0.071424  -0.056862
    10  H    0.049703  -0.003733  -0.022664  -0.112342   0.337980  -0.032964
    11  O    0.462768   0.228565   0.045545  -0.016580   0.045862  -0.787705
    12  C   -0.246621  -0.265017  -0.069521  -0.011225   0.101205   0.270375
    13  H   -0.063401   0.046659   0.018991   0.000316  -0.004519  -0.013130
    14  H   -0.064292   0.038234   0.016184   0.003747  -0.001468  -0.001881
    15  H    0.026459  -0.069716  -0.012068  -0.001185   0.007205   0.052818
    16  C    0.095082   0.851735  -2.853012  -2.370647   4.316236  -1.878797
    17  C   -0.067119   0.125085  -0.948813  -1.263685   0.439424  -0.225390
    18  N   -0.016683  -0.053102  -0.117021   0.084142   0.069485   0.187233
    19  C   -0.005072  -0.004705  -0.006628  -0.019088  -0.104719  -0.008230
    20  C   -0.008241  -0.017798  -0.094856   0.041616   0.118057   0.045451
    21  H    0.000222  -0.002979   0.026042  -0.021897  -0.016645   0.004819
    22  H   -0.001214  -0.008719  -0.034510   0.016327   0.017555   0.006640
    23  H   -0.000177  -0.000846  -0.008133  -0.017384   0.010749   0.001724
    24  H    0.000031  -0.000084   0.001914   0.006046  -0.006230  -0.000316
    25  H    0.000016  -0.000653  -0.010181  -0.000534   0.011436   0.000961
    26  H    0.000055   0.000619   0.002508  -0.000776  -0.001261  -0.000423
    27  H    0.005906  -0.003457  -0.052601  -0.133772   0.127991   0.046174
    28  C   -0.159662  -0.032075  -0.002749  -0.056862   0.048620  -0.041106
    29  H   -0.023801   0.011662  -0.013912  -0.039499   0.089607  -0.027794
    30  H    0.008603   0.000163  -0.000029  -0.002194  -0.001917  -0.003034
    31  H   -0.004848  -0.021968   0.018622   0.020526  -0.074362   0.059538
               7          8          9         10         11         12
     1  C   -0.006969  -0.100449   0.034241   0.049703   0.462768  -0.246621
     2  C    0.100925   0.262743   0.052471  -0.003733   0.228565  -0.265017
     3  C   -0.068176   0.079759   0.192945  -0.022664   0.045545  -0.069521
     4  C   -0.015404   0.045246  -0.049330  -0.112342  -0.016580  -0.011225
     5  C   -0.321531  -0.033157   0.071424   0.337980   0.045862   0.101205
     6  C    0.323535   0.061506  -0.056862  -0.032964  -0.787705   0.270375
     7  O    8.459468  -0.000737   0.000137  -0.002608   0.018588   0.000387
     8  H   -0.000737   0.463053  -0.003685   0.000013  -0.012174  -0.004977
     9  H    0.000137  -0.003685   0.468657  -0.000109  -0.000713   0.001206
    10  H   -0.002608   0.000013  -0.000109   0.473010  -0.000477   0.000455
    11  O    0.018588  -0.012174  -0.000713  -0.000477   8.528319   0.041842
    12  C    0.000387  -0.004977   0.001206   0.000455   0.041842   5.348064
    13  H    0.000116  -0.000919   0.000003   0.000000  -0.035544   0.389128
    14  H    0.000031  -0.000994   0.000003   0.000000  -0.031987   0.384337
    15  H   -0.000325   0.000148  -0.000000  -0.000000  -0.055506   0.399322
    16  C    0.002409  -0.001624   0.044733   0.050097  -0.006219   0.006814
    17  C   -0.001700   0.003843   0.004050   0.020123  -0.000516   0.000108
    18  N    0.000068   0.000092  -0.000039  -0.002292   0.000107  -0.000321
    19  C    0.000369   0.000053   0.001065   0.004551  -0.000013   0.000066
    20  C   -0.000286  -0.000053  -0.001540  -0.000842   0.000064  -0.000125
    21  H    0.000002   0.000001  -0.000018   0.000001  -0.000001  -0.000033
    22  H   -0.000001  -0.000000  -0.001001  -0.000003   0.000001  -0.000003
    23  H   -0.000000   0.000000  -0.000000  -0.000003   0.000000  -0.000000
    24  H    0.000000   0.000000   0.000000   0.000002  -0.000000  -0.000000
    25  H    0.000000   0.000000  -0.000006  -0.000001   0.000000  -0.000000
    26  H    0.000000   0.000000   0.000001   0.000000  -0.000000   0.000000
    27  H    0.000106   0.000000   0.000001   0.004991  -0.000003   0.000004
    28  C    0.089450  -0.000237  -0.000081   0.000725   0.010921  -0.003635
    29  H   -0.049569  -0.000000  -0.000000   0.000114   0.000492  -0.000028
    30  H   -0.045308  -0.000000   0.000000  -0.000034  -0.000472  -0.000905
    31  H   -0.050192   0.000009   0.000000   0.000018   0.001407   0.001328
              13         14         15         16         17         18
     1  C   -0.063401  -0.064292   0.026459   0.095082  -0.067119  -0.016683
     2  C    0.046659   0.038234  -0.069716   0.851735   0.125085  -0.053102
     3  C    0.018991   0.016184  -0.012068  -2.853012  -0.948813  -0.117021
     4  C    0.000316   0.003747  -0.001185  -2.370647  -1.263685   0.084142
     5  C   -0.004519  -0.001468   0.007205   4.316236   0.439424   0.069485
     6  C   -0.013130  -0.001881   0.052818  -1.878797  -0.225390   0.187233
     7  O    0.000116   0.000031  -0.000325   0.002409  -0.001700   0.000068
     8  H   -0.000919  -0.000994   0.000148  -0.001624   0.003843   0.000092
     9  H    0.000003   0.000003  -0.000000   0.044733   0.004050  -0.000039
    10  H    0.000000   0.000000  -0.000000   0.050097   0.020123  -0.002292
    11  O   -0.035544  -0.031987  -0.055506  -0.006219  -0.000516   0.000107
    12  C    0.389128   0.384337   0.399322   0.006814   0.000108  -0.000321
    13  H    0.483025  -0.036568  -0.024826   0.000188  -0.000042  -0.000000
    14  H   -0.036568   0.480008  -0.025464   0.000364   0.000079  -0.000001
    15  H   -0.024826  -0.025464   0.465504  -0.000110  -0.000009   0.000000
    16  C    0.000188   0.000364  -0.000110   7.966023  -1.020889   0.309540
    17  C   -0.000042   0.000079  -0.000009  -1.020889   9.363897  -0.382776
    18  N   -0.000000  -0.000001   0.000000   0.309540  -0.382776   7.009629
    19  C    0.000001   0.000000  -0.000000  -0.523892   0.425036   0.091658
    20  C   -0.000003   0.000002  -0.000000   0.265517  -0.888434  -0.043784
    21  H   -0.000000   0.000000  -0.000000  -0.090168   0.418532   0.009412
    22  H    0.000000  -0.000000   0.000000  -0.021589   0.333009   0.005242
    23  H   -0.000000   0.000000   0.000000  -0.024693   0.025762  -0.033598
    24  H    0.000000  -0.000000   0.000000  -0.015333   0.042308  -0.037100
    25  H    0.000000  -0.000000   0.000000   0.037221  -0.125426   0.012939
    26  H   -0.000000   0.000000  -0.000000   0.023362  -0.073286   0.006034
    27  H   -0.000000   0.000000  -0.000000  -0.000830  -0.007206   0.250941
    28  C    0.000891  -0.001669  -0.000046  -0.001448  -0.002470   0.000921
    29  H    0.000000  -0.000000   0.000000   0.005341  -0.000091   0.000059
    30  H   -0.000000   0.000000  -0.000000  -0.000024  -0.000003  -0.000000
    31  H   -0.000002   0.000014  -0.000020  -0.002554   0.000067  -0.000003
              19         20         21         22         23         24
     1  C   -0.005072  -0.008241   0.000222  -0.001214  -0.000177   0.000031
     2  C   -0.004705  -0.017798  -0.002979  -0.008719  -0.000846  -0.000084
     3  C   -0.006628  -0.094856   0.026042  -0.034510  -0.008133   0.001914
     4  C   -0.019088   0.041616  -0.021897   0.016327  -0.017384   0.006046
     5  C   -0.104719   0.118057  -0.016645   0.017555   0.010749  -0.006230
     6  C   -0.008230   0.045451   0.004819   0.006640   0.001724  -0.000316
     7  O    0.000369  -0.000286   0.000002  -0.000001  -0.000000   0.000000
     8  H    0.000053  -0.000053   0.000001  -0.000000   0.000000   0.000000
     9  H    0.001065  -0.001540  -0.000018  -0.001001  -0.000000   0.000000
    10  H    0.004551  -0.000842   0.000001  -0.000003  -0.000003   0.000002
    11  O   -0.000013   0.000064  -0.000001   0.000001   0.000000  -0.000000
    12  C    0.000066  -0.000125  -0.000033  -0.000003  -0.000000  -0.000000
    13  H    0.000001  -0.000003  -0.000000   0.000000  -0.000000   0.000000
    14  H    0.000000   0.000002   0.000000  -0.000000   0.000000  -0.000000
    15  H   -0.000000  -0.000000  -0.000000   0.000000   0.000000   0.000000
    16  C   -0.523892   0.265517  -0.090168  -0.021589  -0.024693  -0.015333
    17  C    0.425036  -0.888434   0.418532   0.333009   0.025762   0.042308
    18  N    0.091658  -0.043784   0.009412   0.005242  -0.033598  -0.037100
    19  C    6.024300  -0.280711   0.025207   0.002573   0.416960   0.432175
    20  C   -0.280711   6.698908  -0.032967  -0.009753  -0.056453  -0.095963
    21  H    0.025207  -0.032967   0.438091  -0.024405  -0.000201  -0.000040
    22  H    0.002573  -0.009753  -0.024405   0.434721   0.001200  -0.000176
    23  H    0.416960  -0.056453  -0.000201   0.001200   0.458803  -0.030951
    24  H    0.432175  -0.095963  -0.000040  -0.000176  -0.030951   0.456112
    25  H   -0.093191   0.488499  -0.005626   0.003091   0.003114  -0.005844
    26  H   -0.059604   0.430913   0.001092  -0.004972  -0.003822   0.001542
    27  H   -0.028042   0.019363  -0.000098  -0.000241   0.000078  -0.000864
    28  C    0.000551  -0.000851   0.000005   0.000014  -0.000005   0.000001
    29  H   -0.000034   0.000007  -0.000000  -0.000000  -0.000000   0.000000
    30  H   -0.000003   0.000002  -0.000000  -0.000000   0.000000  -0.000000
    31  H    0.000006   0.000001  -0.000000   0.000000  -0.000000   0.000000
              25         26         27         28         29         30
     1  C    0.000016   0.000055   0.005906  -0.159662  -0.023801   0.008603
     2  C   -0.000653   0.000619  -0.003457  -0.032075   0.011662   0.000163
     3  C   -0.010181   0.002508  -0.052601  -0.002749  -0.013912  -0.000029
     4  C   -0.000534  -0.000776  -0.133772  -0.056862  -0.039499  -0.002194
     5  C    0.011436  -0.001261   0.127991   0.048620   0.089607  -0.001917
     6  C    0.000961  -0.000423   0.046174  -0.041106  -0.027794  -0.003034
     7  O    0.000000   0.000000   0.000106   0.089450  -0.049569  -0.045308
     8  H    0.000000   0.000000   0.000000  -0.000237  -0.000000  -0.000000
     9  H   -0.000006   0.000001   0.000001  -0.000081  -0.000000   0.000000
    10  H   -0.000001   0.000000   0.004991   0.000725   0.000114  -0.000034
    11  O    0.000000  -0.000000  -0.000003   0.010921   0.000492  -0.000472
    12  C   -0.000000   0.000000   0.000004  -0.003635  -0.000028  -0.000905
    13  H    0.000000  -0.000000  -0.000000   0.000891   0.000000  -0.000000
    14  H   -0.000000   0.000000   0.000000  -0.001669  -0.000000   0.000000
    15  H    0.000000  -0.000000  -0.000000  -0.000046   0.000000  -0.000000
    16  C    0.037221   0.023362  -0.000830  -0.001448   0.005341  -0.000024
    17  C   -0.125426  -0.073286  -0.007206  -0.002470  -0.000091  -0.000003
    18  N    0.012939   0.006034   0.250941   0.000921   0.000059  -0.000000
    19  C   -0.093191  -0.059604  -0.028042   0.000551  -0.000034  -0.000003
    20  C    0.488499   0.430913   0.019363  -0.000851   0.000007   0.000002
    21  H   -0.005626   0.001092  -0.000098   0.000005  -0.000000  -0.000000
    22  H    0.003091  -0.004972  -0.000241   0.000014  -0.000000  -0.000000
    23  H    0.003114  -0.003822   0.000078  -0.000005  -0.000000   0.000000
    24  H   -0.005844   0.001542  -0.000864   0.000001   0.000000  -0.000000
    25  H    0.460526  -0.025253  -0.000177   0.000003  -0.000000  -0.000000
    26  H   -0.025253   0.458325  -0.000074  -0.000000  -0.000000   0.000000
    27  H   -0.000177  -0.000074   0.279373   0.000097  -0.000002   0.000000
    28  C    0.000003  -0.000000   0.000097   5.372465   0.385169   0.392761
    29  H   -0.000000  -0.000000  -0.000002   0.385169   0.505046  -0.026622
    30  H   -0.000000   0.000000   0.000000   0.392761  -0.026622   0.478545
    31  H   -0.000000   0.000000   0.000000   0.392055  -0.038208  -0.026022
              31
     1  C   -0.004848
     2  C   -0.021968
     3  C    0.018622
     4  C    0.020526
     5  C   -0.074362
     6  C    0.059538
     7  O   -0.050192
     8  H    0.000009
     9  H    0.000000
    10  H    0.000018
    11  O    0.001407
    12  C    0.001328
    13  H   -0.000002
    14  H    0.000014
    15  H   -0.000020
    16  C   -0.002554
    17  C    0.000067
    18  N   -0.000003
    19  C    0.000006
    20  C    0.000001
    21  H   -0.000000
    22  H    0.000000
    23  H   -0.000000
    24  H    0.000000
    25  H   -0.000000
    26  H    0.000000
    27  H    0.000000
    28  C    0.392055
    29  H   -0.038208
    30  H   -0.026022
    31  H    0.498908
 Mulliken charges:
               1
     1  C    0.679545
     2  C    0.038226
     3  C   -1.466337
     4  C    0.189290
     5  C    0.414959
     6  C   -0.848138
     7  O   -0.432783
     8  H    0.242542
     9  H    0.242449
    10  H    0.236285
    11  O   -0.436573
    12  C   -0.342229
    13  H    0.239638
    14  H    0.241318
    15  H    0.237821
    16  C    0.837167
    17  C   -0.193467
    18  N   -0.350782
    19  C   -0.290639
    20  C   -0.575741
    21  H    0.271653
    22  H    0.286215
    23  H    0.257878
    24  H    0.252771
    25  H    0.249086
    26  H    0.245022
    27  H    0.492342
    28  C   -0.391751
    29  H    0.222062
    30  H    0.226494
    31  H    0.225678
 Sum of Mulliken charges =   1.00000
 Mulliken charges with hydrogens summed into heavy atoms:
               1
     1  C    0.679545
     2  C    0.280768
     3  C   -1.223888
     4  C    0.189290
     5  C    0.651244
     6  C   -0.848138
     7  O   -0.432783
    11  O   -0.436573
    12  C    0.376548
    16  C    0.837167
    17  C    0.364401
    18  N    0.141560
    19  C    0.220010
    20  C   -0.081634
    28  C    0.282483
 Electronic spatial extent (au):  <R**2>=           4224.6642
 Charge=              1.0000 electrons
 Dipole moment (field-independent basis, Debye):
    X=             -8.8281    Y=             -1.4024    Z=              1.4524  Tot=              9.0560
 Quadrupole moment (field-independent basis, Debye-Ang):
   XX=            -31.5939   YY=            -65.7303   ZZ=            -88.3363
   XY=            -13.0613   XZ=              7.6995   YZ=              1.8735
 Traceless Quadrupole moment (field-independent basis, Debye-Ang):
   XX=             30.2929   YY=             -3.8434   ZZ=            -26.4495
   XY=            -13.0613   XZ=              7.6995   YZ=              1.8735
 Octapole moment (field-independent basis, Debye-Ang**2):
  XXX=            -95.9631  YYY=              4.6080  ZZZ=             -0.0058  XYY=              7.7509
  XXY=            -16.6915  XXZ=              8.5420  XZZ=             -5.5131  YZZ=              2.0756
  YYZ=              7.5095  XYZ=             15.4678
 Hexadecapole moment (field-independent basis, Debye-Ang**3):
 XXXX=          -3299.8215 YYYY=           -946.6398 ZZZZ=           -180.8655 XXXY=           -190.1501
 XXXZ=             69.5502 YYYX=            -36.0489 YYYZ=              9.7155 ZZZX=              3.3075
 ZZZY=             -0.9720 XXYY=           -690.6437 XXZZ=           -721.0608 YYZZ=           -206.9135
 XXYZ=             20.7367 YYXZ=             29.4885 ZZXY=             -4.2813
 N-N= 9.847134891432D+02 E-N=-3.514442054473D+03  KE= 6.657505159522D+02
 No NMR shielding tensors so no spin-rotation constants.
 Leave Link  601 at Tue Jul 28 03:15:49 2026, MaxMem=  4026531840 cpu:               0.8 elap:               0.2
 (Enter /opt/packages/gaussian/g16RevC.01/g16/l701.exe)
 ... and contract with generalized density number  0.
 Compute integral first derivatives.
 D1PCM: PCM CHGder 1st derivatives, ID1Alg=3 FixD1E=F DoIter=F DoCFld=F I1PDM=0.
 GePol: Maximum number of non-zero 1st derivatives   =     258
 Leave Link  701 at Tue Jul 28 03:15:51 2026, MaxMem=  4026531840 cpu:               8.5 elap:               1.1
 (Enter /opt/packages/gaussian/g16RevC.01/g16/l702.exe)
 L702 exits ... SP integral derivatives will be done elsewhere.
 Leave Link  702 at Tue Jul 28 03:15:51 2026, MaxMem=  4026531840 cpu:               0.1 elap:               0.0
 (Enter /opt/packages/gaussian/g16RevC.01/g16/l703.exe)
 Integral derivatives from FoFJK, PRISM(SPDF).
 Compute integral first derivatives, UseDBF=F ICtDFT=           0.
 Calling FoFJK, ICntrl=      2127 FMM=F ISym2X=0 I1Cent= 0 IOpClX= 0 NMat=1 NMatS=1 NMatT=0.
 FoFJK:  IHMeth= 1 ICntrl=    2127 DoSepK=F KAlg= 0 I1Cent=           0 FoldK=F
 IRaf=         0 NMat=       1 IRICut=       1 DoRegI=T DoRafI=F ISym2E= 0 IDoP0=0 IntGTp=1.
 FoFCou: FMM=F IPFlag=           0 FMFlag=      100000 FMFlg1=         800
         NFxFlg=           0 DoJE=F BraDBF=F KetDBF=F FulRan=T
         wScrn=  0.000000 ICntrl=      2127 IOpCl=  0 I1Cent=           0 NGrid=           0
         NMat0=    1 NMatS0=      1 NMatT0=    0 NMatD0=    1 NMtDS0=    0 NMtDT0=    0
 Symmetry not used in FoFCou.
 Leave Link  703 at Tue Jul 28 03:15:59 2026, MaxMem=  4026531840 cpu:              60.1 elap:               7.6
 (Enter /opt/packages/gaussian/g16RevC.01/g16/l716.exe)
 Dipole        =-3.47323870D+00-5.51731096D-01 5.71420956D-01
 ***** Axes restored to original set *****
 -------------------------------------------------------------------
 Center     Atomic                   Forces (Hartrees/Bohr)
 Number     Number              X              Y              Z
 -------------------------------------------------------------------
      1        6           0.001869788   -0.000557206   -0.000010811
      2        6          -0.000324005   -0.004795471    0.000560430
      3        6          -0.000568028   -0.005572138    0.000893097
      4        6          -0.006392265    0.001519225   -0.000113260
      5        6          -0.001592918    0.004383589   -0.000680301
      6        6           0.000692416    0.001852906   -0.000327775
      7        8           0.000408276    0.001729721   -0.004556650
      8        1           0.000015291   -0.000521889    0.000064584
      9        1          -0.000117977   -0.000363320    0.000049253
     10        1          -0.000208337    0.000333341    0.000007833
     11        8           0.002507356    0.003209207   -0.000606903
     12        6           0.002353228   -0.003206579    0.000234496
     13        1          -0.000041539   -0.000718079   -0.000567094
     14        1           0.000030028   -0.000563493    0.000737796
     15        1           0.000821973    0.000151269   -0.000057525
     16        6           0.007300249   -0.005673154    0.001175463
     17        6           0.000715269   -0.002565558    0.000179101
     18        7          -0.002748667    0.008161858   -0.001502105
     19        6          -0.001765474    0.002104946   -0.000543226
     20        6          -0.002864770   -0.001309870    0.001120631
     21        1           0.000021724   -0.000780941    0.000532475
     22        1          -0.000241848   -0.000960285   -0.000672989
     23        1          -0.000610363    0.000285167   -0.001065579
     24        1          -0.000569964    0.000912753    0.000196161
     25        1          -0.000313577    0.000072543    0.000910913
     26        1          -0.000797792   -0.000418120   -0.000183577
     27        1          -0.000035101    0.000528165   -0.000230034
     28        6           0.001821716    0.001788093    0.003158364
     29        1          -0.000510857    0.000472023    0.000794720
     30        1           0.000546902    0.000709153   -0.000260980
     31        1           0.000599266   -0.000207856    0.000763492
 -------------------------------------------------------------------
 Cartesian Forces:  Max     0.008161858 RMS     0.002085960
 Leave Link  716 at Tue Jul 28 03:15:59 2026, MaxMem=  4026531840 cpu:               0.1 elap:               0.0
 (Enter /opt/packages/gaussian/g16RevC.01/g16/l103.exe)

 GradGradGradGradGradGradGradGradGradGradGradGradGradGradGradGradGradGrad
 Berny optimization.
 FormGI is forming the generalized inverse of G from B-inverse, IUseBI=4.
 Internal  Forces:  Max     0.010196371 RMS     0.001908252
 Search for a local minimum.
 Step number   1 out of a maximum of  170
 All quantities printed in internal units (Hartrees-Bohrs-Radians)
 RMS Force = .19083D-02 SwitMx=.10000D-02 MixMth= 1
 Mixed Optimization -- RFO/linear search
 Second derivative matrix not updated -- first step.
 ITU=  0
     Eigenvalues ---    0.00471   0.01121   0.01224   0.01280   0.01360
     Eigenvalues ---    0.01460   0.01844   0.01855   0.02004   0.02052
     Eigenvalues ---    0.02077   0.02141   0.02149   0.02162   0.02191
     Eigenvalues ---    0.02209   0.02266   0.02460   0.03363   0.03614
     Eigenvalues ---    0.04985   0.05229   0.05621   0.05911   0.06914
     Eigenvalues ---    0.07506   0.08422   0.08450   0.09400   0.10130
     Eigenvalues ---    0.10133   0.10605   0.10713   0.10981   0.15930
     Eigenvalues ---    0.15999   0.16000   0.16000   0.16000   0.16000
     Eigenvalues ---    0.16000   0.16000   0.16000   0.16000   0.21499
     Eigenvalues ---    0.22371   0.22640   0.23478   0.24600   0.24967
     Eigenvalues ---    0.24981   0.24999   0.24999   0.25000   0.25000
     Eigenvalues ---    0.27791   0.28465   0.31169   0.33965   0.34209
     Eigenvalues ---    0.34317   0.34332   0.34360   0.34362   0.34430
     Eigenvalues ---    0.34549   0.34658   0.34697   0.34716   0.34722
     Eigenvalues ---    0.34850   0.35346   0.35466   0.35642   0.38569
     Eigenvalues ---    0.40228   0.40826   0.40955   0.42079   0.44699
     Eigenvalues ---    0.44796   0.45367   0.46851   0.49372   0.50441
     Eigenvalues ---    0.56769   0.63569
 RFO step:  Lambda=-1.32888542D-03 EMin= 4.70963668D-03
 Linear search not attempted -- first point.
 Iteration  1 RMS(Cart)=  0.02076505 RMS(Int)=  0.00005812
 Iteration  2 RMS(Cart)=  0.00010154 RMS(Int)=  0.00000385
 Iteration  3 RMS(Cart)=  0.00000001 RMS(Int)=  0.00000385
 ITry= 1 IFail=0 DXMaxC= 7.98D-02 DCOld= 1.00D+10 DXMaxT= 3.00D-01 DXLimC= 3.00D+00 Rises=F
 Variable       Old X    -DE/DX   Delta X   Delta X   Delta X     New X
                                 (Linear)    (Quad)   (Total)
    R1        2.63750   0.00690   0.00000   0.01482   0.01482   2.65232
    R2        2.67132   0.00723   0.00000   0.01669   0.01669   2.68801
    R3        2.53593   0.00573   0.00000   0.01007   0.01007   2.54599
    R4        2.62151   0.00445   0.00000   0.00916   0.00916   2.63067
    R5        2.04646   0.00049   0.00000   0.00136   0.00136   2.04782
    R6        2.64614   0.00727   0.00000   0.01581   0.01581   2.66195
    R7        2.04925   0.00037   0.00000   0.00103   0.00103   2.05028
    R8        2.66323   0.00632   0.00000   0.01431   0.01431   2.67754
    R9        2.73546   0.00192   0.00000   0.00497   0.00497   2.74043
   R10        2.59782   0.00634   0.00000   0.01273   0.01274   2.61055
   R11        2.05118   0.00039   0.00000   0.00109   0.00109   2.05226
   R12        2.59423   0.00528   0.00000   0.01044   0.01044   2.60467
   R13        2.71245   0.00576   0.00000   0.01427   0.01427   2.72672
   R14        2.70446   0.00528   0.00000   0.01290   0.01290   2.71736
   R15        2.06727   0.00087   0.00000   0.00251   0.00251   2.06978
   R16        2.06723   0.00087   0.00000   0.00253   0.00253   2.06977
   R17        2.05919   0.00085   0.00000   0.00242   0.00242   2.06160
   R18        2.83704   0.00398   0.00000   0.01279   0.01279   2.84983
   R19        2.45481   0.01020   0.00000   0.01598   0.01598   2.47079
   R20        2.90478   0.00438   0.00000   0.01341   0.01341   2.91819
   R21        2.06233   0.00087   0.00000   0.00251   0.00251   2.06484
   R22        2.07390   0.00111   0.00000   0.00324   0.00324   2.07714
   R23        2.77869   0.00307   0.00000   0.00938   0.00938   2.78807
   R24        1.92213   0.00049   0.00000   0.00109   0.00109   1.92322
   R25        2.89183   0.00397   0.00000   0.01194   0.01194   2.90377
   R26        2.06774   0.00121   0.00000   0.00350   0.00350   2.07124
   R27        2.06138   0.00102   0.00000   0.00293   0.00293   2.06431
   R28        2.06611   0.00095   0.00000   0.00276   0.00276   2.06887
   R29        2.06128   0.00090   0.00000   0.00258   0.00258   2.06387
   R30        2.06979   0.00101   0.00000   0.00294   0.00294   2.07274
   R31        2.06169   0.00093   0.00000   0.00268   0.00268   2.06437
   R32        2.06798   0.00084   0.00000   0.00244   0.00244   2.07043
    A1        2.08278  -0.00069   0.00000  -0.00276  -0.00275   2.08002
    A2        2.17782   0.00062   0.00000   0.00247   0.00247   2.18029
    A3        2.02256   0.00007   0.00000   0.00027   0.00027   2.02283
    A4        2.09345   0.00074   0.00000   0.00289   0.00289   2.09633
    A5        2.10477  -0.00018   0.00000  -0.00027  -0.00027   2.10450
    A6        2.08496  -0.00056   0.00000  -0.00263  -0.00262   2.08233
    A7        2.11398   0.00042   0.00000   0.00128   0.00128   2.11525
    A8        2.06684  -0.00033   0.00000  -0.00139  -0.00139   2.06545
    A9        2.10230  -0.00009   0.00000   0.00009   0.00009   2.10239
   A10        2.06956  -0.00093   0.00000  -0.00398  -0.00399   2.06558
   A11        2.08409   0.00055   0.00000   0.00233   0.00233   2.08642
   A12        2.12949   0.00038   0.00000   0.00166   0.00166   2.13115
   A13        2.10620   0.00082   0.00000   0.00383   0.00383   2.11003
   A14        2.13181  -0.00049   0.00000  -0.00242  -0.00242   2.12938
   A15        2.04517  -0.00033   0.00000  -0.00141  -0.00141   2.04376
   A16        2.10027  -0.00036   0.00000  -0.00132  -0.00132   2.09895
   A17        2.08517   0.00090   0.00000   0.00335   0.00333   2.08851
   A18        2.09663  -0.00055   0.00000  -0.00241  -0.00243   2.09421
   A19        1.99986   0.00255   0.00000   0.01016   0.01016   2.01003
   A20        2.07620   0.00284   0.00000   0.01128   0.01128   2.08749
   A21        1.93015   0.00038   0.00000   0.00248   0.00248   1.93263
   A22        1.93078   0.00036   0.00000   0.00241   0.00240   1.93318
   A23        1.83965  -0.00016   0.00000  -0.00130  -0.00130   1.83834
   A24        1.92712  -0.00021   0.00000  -0.00078  -0.00079   1.92634
   A25        1.91707  -0.00018   0.00000  -0.00142  -0.00141   1.91565
   A26        1.91727  -0.00018   0.00000  -0.00144  -0.00144   1.91583
   A27        2.19407   0.00072   0.00000   0.00160   0.00160   2.19567
   A28        2.17952   0.00083   0.00000   0.00201   0.00201   2.18153
   A29        1.90920  -0.00155   0.00000  -0.00359  -0.00359   1.90561
   A30        1.80996   0.00062   0.00000   0.00201   0.00201   1.81197
   A31        1.95300  -0.00013   0.00000   0.00229   0.00229   1.95529
   A32        1.88068   0.00011   0.00000   0.00296   0.00296   1.88364
   A33        1.98121  -0.00016   0.00000  -0.00134  -0.00134   1.97986
   A34        1.96097  -0.00036   0.00000  -0.00207  -0.00207   1.95890
   A35        1.87650  -0.00006   0.00000  -0.00334  -0.00335   1.87315
   A36        2.00697  -0.00018   0.00000   0.00235   0.00235   2.00932
   A37        2.16008   0.00036   0.00000   0.00049   0.00049   2.16057
   A38        2.11305  -0.00018   0.00000  -0.00282  -0.00282   2.11023
   A39        1.78337   0.00021   0.00000   0.00052   0.00051   1.78388
   A40        1.89080   0.00002   0.00000   0.00067   0.00067   1.89147
   A41        1.91224  -0.00008   0.00000   0.00101   0.00101   1.91325
   A42        1.97609  -0.00010   0.00000  -0.00002  -0.00002   1.97607
   A43        1.99385   0.00016   0.00000   0.00154   0.00154   1.99539
   A44        1.90151  -0.00020   0.00000  -0.00336  -0.00336   1.89816
   A45        1.81833   0.00096   0.00000   0.00044   0.00043   1.81876
   A46        1.91760  -0.00021   0.00000  -0.00001  -0.00000   1.91760
   A47        1.96228  -0.00025   0.00000   0.00120   0.00120   1.96348
   A48        1.91854  -0.00020   0.00000  -0.00038  -0.00038   1.91816
   A49        1.95448  -0.00034   0.00000   0.00062   0.00063   1.95511
   A50        1.89193   0.00006   0.00000  -0.00180  -0.00180   1.89013
   A51        1.92239   0.00038   0.00000   0.00244   0.00244   1.92483
   A52        1.85467  -0.00022   0.00000  -0.00172  -0.00172   1.85295
   A53        1.93522   0.00074   0.00000   0.00483   0.00483   1.94004
   A54        1.91622  -0.00024   0.00000  -0.00197  -0.00197   1.91424
   A55        1.91889  -0.00037   0.00000  -0.00167  -0.00168   1.91721
   A56        1.91551  -0.00029   0.00000  -0.00196  -0.00196   1.91355
    D1        0.00625   0.00003   0.00000   0.00126   0.00127   0.00752
    D2       -3.14009   0.00001   0.00000   0.00021   0.00022  -3.13987
    D3       -3.12853   0.00011   0.00000   0.00438   0.00439  -3.12414
    D4        0.00832   0.00008   0.00000   0.00333   0.00334   0.01166
    D5       -0.01491  -0.00009   0.00000  -0.00387  -0.00386  -0.01878
    D6       -3.10607   0.00013   0.00000   0.00493   0.00494  -3.10113
    D7        3.12046  -0.00015   0.00000  -0.00670  -0.00670   3.11376
    D8        0.02930   0.00007   0.00000   0.00209   0.00210   0.03140
    D9        0.00643  -0.00003   0.00000  -0.00141  -0.00141   0.00502
   D10       -3.12855   0.00004   0.00000   0.00163   0.00163  -3.12692
   D11        0.00803   0.00004   0.00000   0.00188   0.00188   0.00991
   D12        3.13749  -0.00001   0.00000  -0.00031  -0.00031   3.13718
   D13       -3.12887   0.00007   0.00000   0.00291   0.00291  -3.12596
   D14        0.00059   0.00002   0.00000   0.00072   0.00072   0.00131
   D15       -0.01359  -0.00006   0.00000  -0.00238  -0.00239  -0.01598
   D16        3.11808  -0.00003   0.00000  -0.00151  -0.00151   3.11657
   D17        3.14038  -0.00000   0.00000  -0.00013  -0.00013   3.14025
   D18       -0.01113   0.00002   0.00000   0.00074   0.00074  -0.01039
   D19        0.00482  -0.00000   0.00000  -0.00027  -0.00027   0.00455
   D20       -3.13267   0.00002   0.00000   0.00040   0.00041  -3.13226
   D21       -3.12658  -0.00003   0.00000  -0.00117  -0.00117  -3.12775
   D22        0.01911  -0.00001   0.00000  -0.00049  -0.00049   0.01862
   D23        0.05943  -0.00001   0.00000  -0.00184  -0.00184   0.05759
   D24       -3.04883  -0.00006   0.00000  -0.00270  -0.00270  -3.05153
   D25       -3.09244   0.00001   0.00000  -0.00097  -0.00097  -3.09341
   D26        0.08249  -0.00005   0.00000  -0.00183  -0.00183   0.08066
   D27        0.00931   0.00007   0.00000   0.00338   0.00338   0.01269
   D28        3.10013  -0.00010   0.00000  -0.00530  -0.00528   3.09485
   D29       -3.13618   0.00005   0.00000   0.00273   0.00273  -3.13345
   D30       -0.04536  -0.00012   0.00000  -0.00595  -0.00594  -0.05129
   D31       -1.47317  -0.00034   0.00000  -0.01515  -0.01516  -1.48833
   D32        1.71875  -0.00013   0.00000  -0.00641  -0.00641   1.71234
   D33       -1.09315  -0.00017   0.00000  -0.00162  -0.00163  -1.09478
   D34        3.11548   0.00005   0.00000   0.00042   0.00042   3.11590
   D35        1.03483   0.00012   0.00000   0.00116   0.00117   1.03600
   D36        1.06165   0.00012   0.00000   0.00092   0.00092   1.06257
   D37       -1.07906  -0.00013   0.00000  -0.00145  -0.00145  -1.08050
   D38        3.13260  -0.00000   0.00000  -0.00023  -0.00023   3.13237
   D39        2.92843   0.00010   0.00000   0.00074   0.00074   2.92917
   D40        0.78646  -0.00003   0.00000  -0.00018  -0.00018   0.78628
   D41       -1.27284   0.00005   0.00000   0.00074   0.00074  -1.27210
   D42       -0.24215   0.00018   0.00000   0.00156   0.00156  -0.24059
   D43       -2.38412   0.00005   0.00000   0.00065   0.00065  -2.38348
   D44        1.83976   0.00013   0.00000   0.00156   0.00157   1.84133
   D45        3.09763   0.00010   0.00000   0.00165   0.00165   3.09928
   D46        0.03966   0.00005   0.00000   0.00158   0.00158   0.04124
   D47       -0.01527   0.00002   0.00000   0.00084   0.00084  -0.01443
   D48       -3.07324  -0.00003   0.00000   0.00077   0.00077  -3.07247
   D49        0.38717   0.00014   0.00000  -0.00284  -0.00285   0.38433
   D50       -1.66734  -0.00004   0.00000  -0.00263  -0.00263  -1.66998
   D51        2.50720   0.00020   0.00000  -0.00115  -0.00115   2.50605
   D52        2.51039   0.00031   0.00000   0.00055   0.00054   2.51094
   D53        0.45588   0.00012   0.00000   0.00076   0.00076   0.45663
   D54       -1.65276   0.00036   0.00000   0.00224   0.00224  -1.65052
   D55       -1.63886  -0.00018   0.00000  -0.00652  -0.00651  -1.64537
   D56        2.58981  -0.00036   0.00000  -0.00631  -0.00630   2.58351
   D57        0.48117  -0.00013   0.00000  -0.00482  -0.00482   0.47635
   D58        0.26535  -0.00020   0.00000  -0.00284  -0.00284   0.26251
   D59       -1.82497  -0.00021   0.00000  -0.00337  -0.00337  -1.82834
   D60        2.38584   0.00006   0.00000  -0.00029  -0.00029   2.38555
   D61       -2.95740  -0.00013   0.00000  -0.00260  -0.00260  -2.96000
   D62        1.23547  -0.00013   0.00000  -0.00313  -0.00313   1.23234
   D63       -0.83691   0.00014   0.00000  -0.00005  -0.00005  -0.83696
   D64       -0.38758  -0.00004   0.00000   0.00366   0.00366  -0.38391
   D65        1.66630   0.00014   0.00000   0.00371   0.00371   1.67001
   D66       -2.51278  -0.00014   0.00000   0.00159   0.00159  -2.51118
   D67        1.64192   0.00007   0.00000   0.00474   0.00474   1.64666
   D68       -2.58739   0.00024   0.00000   0.00479   0.00479  -2.58260
   D69       -0.48328  -0.00004   0.00000   0.00267   0.00267  -0.48061
   D70       -2.45090  -0.00014   0.00000   0.00138   0.00138  -2.44952
   D71       -0.39703   0.00003   0.00000   0.00142   0.00142  -0.39560
   D72        1.70709  -0.00025   0.00000  -0.00069  -0.00069   1.70639
         Item               Value     Threshold  Converged?
 Maximum Force            0.010196     0.000450     NO 
 RMS     Force            0.001908     0.000300     NO 
 Maximum Displacement     0.079796     0.001800     NO 
 RMS     Displacement     0.020816     0.001200     NO 
 Predicted change in Energy=-6.670769D-04
 Lowest energy point so far.  Saving SCF results.
 GradGradGradGradGradGradGradGradGradGradGradGradGradGradGradGradGradGrad

 Leave Link  103 at Tue Jul 28 03:15:59 2026, MaxMem=  4026531840 cpu:               0.9 elap:               0.1
 (Enter /opt/packages/gaussian/g16RevC.01/g16/l202.exe)
                          Input orientation:                          
 ---------------------------------------------------------------------
 Center     Atomic      Atomic             Coordinates (Angstroms)
 Number     Number       Type             X           Y           Z
 ---------------------------------------------------------------------
      1          6           0        2.064636   -0.521479   -0.100247
      2          6           0        1.235621   -1.641332    0.068897
      3          6           0       -0.147593   -1.487760    0.101331
      4          6           0       -0.744605   -0.220315   -0.045094
      5          6           0        0.099311    0.906157   -0.207732
      6          6           0        1.473477    0.765982   -0.227907
      7          8           0        2.275177    1.866465   -0.442400
      8          1           0        1.661822   -2.632511    0.170045
      9          1           0       -0.761272   -2.373294    0.229276
     10          1           0       -0.297091    1.911315   -0.317015
     11          8           0        3.409803   -0.560414   -0.164868
     12          6           0        4.089604   -1.823465   -0.063284
     13          1           0        3.788905   -2.492163   -0.876959
     14          1           0        3.894816   -2.292304    0.907216
     15          1           0        5.151018   -1.587744   -0.152809
     16          6           0       -2.190210   -0.105597   -0.036952
     17          6           0       -3.163601   -1.235346    0.187642
     18          7           0       -2.856103    0.997450   -0.259203
     19          6           0       -4.324557    0.854787   -0.252966
     20          6           0       -4.514664   -0.520150    0.406255
     21          1           0       -2.867627   -1.870827    1.025785
     22          1           0       -3.166668   -1.863582   -0.714296
     23          1           0       -4.679482    0.889910   -1.289368
     24          1           0       -4.771364    1.684431    0.299629
     25          1           0       -4.701386   -0.397006    1.477961
     26          1           0       -5.353278   -1.069534   -0.026985
     27          1           0       -2.418122    1.885109   -0.495846
     28          6           0        2.822801    2.468285    0.749212
     29          1           0        2.016449    2.848364    1.388276
     30          1           0        3.446829    3.298809    0.411279
     31          1           0        3.434553    1.751941    1.308678
 ---------------------------------------------------------------------
                    Distance matrix (angstroms):
                    1          2          3          4          5
     1  C    0.000000
     2  C    1.403548   0.000000
     3  C    2.422456   1.392091   0.000000
     4  C    2.825876   2.439995   1.408645   0.000000
     5  C    2.431502   2.803109   2.426380   1.416892   0.000000
     6  C    1.422435   2.437176   2.795642   2.434356   1.381445
     7  O    2.421502   3.694150   4.173282   3.692098   2.389907
     8  H    2.166050   1.083657   2.142232   3.414068   3.886685
     9  H    3.394637   2.132855   1.084962   2.170454   3.418534
    10  H    3.397533   3.888371   3.427984   2.195007   1.086011
    11  O    1.347281   2.439282   3.685906   4.170026   3.621054
    12  C    2.407702   2.862842   4.253661   5.093132   4.836750
    13  H    2.731296   2.852686   4.178743   5.138677   5.060588
    14  H    2.738679   2.863191   4.199739   5.169551   5.087152
    15  H    3.265798   3.922035   5.305644   6.053084   5.634031
    16  C    4.275592   3.755796   2.470179   1.450173   2.508928
    17  C    5.284596   4.419511   3.027783   2.633628   3.922875
    18  N    5.152289   4.879859   3.693546   2.446880   2.957271
    19  C    6.537524   6.103260   4.802091   3.743676   4.424397
    20  C    6.598768   5.868274   4.483365   3.808801   4.868274
    21  H    5.236020   4.219590   2.898265   2.894511   4.246872
    22  H    5.435517   4.476934   3.149811   3.002424   4.312155
    23  H    6.992078   6.575751   5.303336   4.273649   4.899700
    24  H    7.194222   6.870065   5.610826   4.467850   4.958487
    25  H    6.948762   6.227509   4.880767   4.243470   5.252284
    26  H    7.438493   6.614358   5.224034   4.686296   5.802305
    27  H    5.103262   5.109262   4.109522   2.727022   2.716399
    28  C    3.199231   4.457681   4.989316   4.537166   3.282283
    29  H    3.684273   4.744241   5.014108   4.369755   3.161460
    30  H    4.094718   5.423252   5.993929   5.491870   4.160991
    31  H    3.005026   4.229262   4.978465   4.815376   3.760145
                    6          7          8          9         10
     6  C    0.000000
     7  O    1.378330   0.000000
     8  H    3.426892   4.581711   0.000000
     9  H    3.880485   5.258015   2.437639   0.000000
    10  H    2.110602   2.575713   4.972013   4.344165   0.000000
    11  O    2.347906   2.693352   2.731518   4.565058   4.457988
    12  C    3.684625   4.129342   2.569654   4.890696   5.766807
    13  H    4.049442   4.634420   2.374952   4.684229   6.033201
    14  H    4.062573   4.662623   2.376010   4.705881   6.061455
    15  H    4.366918   4.503985   3.656537   5.976475   6.477057
    16  C    3.770771   4.898276   4.611539   2.693546   2.780336
    17  C    5.067591   6.292733   5.023652   2.658541   4.286377
    18  N    4.335875   5.207570   5.811412   3.998605   2.717909
    19  C    5.798768   6.679511   6.940959   4.832190   4.164232
    20  C    6.157445   7.246937   6.531986   4.189680   4.921693
    21  H    5.231604   6.524673   4.672083   2.307299   4.766064
    22  H    5.355570   6.603095   4.968664   2.633641   4.758377
    23  H    6.245074   7.073775   7.399288   5.320446   4.603703
    24  H    6.334025   7.087840   7.748461   5.705341   4.522261
    25  H    6.510873   7.581789   6.870120   4.581422   5.286596
    26  H    7.072062   8.184497   7.189808   4.780374   5.876615
    27  H    4.058174   4.693641   6.123580   4.626548   2.128718
    28  C    2.381863   1.442920   5.263214   6.046221   3.343768
    29  H    2.691316   2.093429   5.625818   6.026999   3.023003
    30  H    3.273820   2.037927   6.198790   7.064984   4.058632
    31  H    2.679371   2.103222   4.864409   5.982275   4.073505
                   11         12         13         14         15
    11  O    0.000000
    12  C    1.437966   0.000000
    13  H    2.093429   1.095282   0.000000
    14  H    2.093810   1.095273   1.798455   0.000000
    15  H    2.021727   1.090953   1.788216   1.788323   0.000000
    16  C    5.619909   6.510594   6.492390   6.534576   7.490248
    17  C    6.617359   7.281335   7.144950   7.173297   8.329044
    18  N    6.457354   7.499253   7.530946   7.599863   8.414780
    19  C    7.863262   8.832164   8.798847   8.877403   9.785832
    20  C    7.945124   8.715075   8.630454   8.608766   9.740520
    21  H    6.522344   7.042115   6.950965   6.776602   8.109740
    22  H    6.726819   7.285528   6.985813   7.257938   8.341178
    23  H    8.294846   9.260807   9.128093   9.405852  10.201434
    24  H    8.496269   9.536970   9.597213   9.554384  10.457795
    25  H    8.277499   9.038348   9.056511   8.821145  10.057193
    26  H    8.778941   9.473001   9.291170   9.375241  10.517823
    27  H    6.328890   7.502742   7.604798   7.698867   8.334882
    28  C    3.217628   4.547973   5.308844   4.882355   4.762940
    29  H    3.996682   5.313284   6.065816   5.494192   5.646195
    30  H    3.902169   5.184213   5.942384   5.630914   5.205848
    31  H    2.742068   3.885216   4.786960   4.090102   4.029354
                   16         17         18         19         20
    16  C    0.000000
    17  C    1.508066   0.000000
    18  N    1.307487   2.297739   0.000000
    19  C    2.350412   2.431175   1.475381   0.000000
    20  C    2.402368   1.544238   2.344519   1.536608   0.000000
    21  H    2.168949   1.092666   3.142983   3.344671   2.218305
    22  H    2.121974   1.099174   2.913600   2.990496   2.208515
    23  H    2.959063   2.999361   2.097025   1.096055   2.211464
    24  H    3.159088   3.335047   2.110085   1.092385   2.222035
    25  H    2.947183   2.175436   2.892632   2.169123   1.094798
    26  H    3.306701   2.206410   3.249959   2.193706   1.092151
    27  H    2.055587   3.280264   1.017725   2.180607   3.315802
    28  C    5.689746   7.061816   5.952328   7.395435   7.930117
    29  H    5.334149   6.704560   5.466427   6.846632   7.413952
    30  H    6.600539   8.019125   6.743349   8.173671   8.830054
    31  H    6.074465   7.329136   6.526856   7.965387   8.316659
                   21         22         23         24         25
    21  H    0.000000
    22  H    1.765604   0.000000
    23  H    4.032917   3.193905   0.000000
    24  H    4.097728   4.023865   1.778938   0.000000
    25  H    2.395681   3.051589   3.052007   2.392852   0.000000
    26  H    2.815822   2.425731   2.426321   2.833659   1.772602
    27  H    4.077311   3.828933   2.594965   2.492147   3.783815
    28  C    7.161379   7.535295   7.932926   7.647737   8.084204
    29  H    6.801203   7.313545   7.472670   6.972395   7.461218
    30  H    8.183833   8.464961   8.644763   8.376000   9.010565
    31  H    7.274747   7.793622   8.563323   8.267999   8.416658
                   26         27         28         29         30
    26  H    0.000000
    27  H    4.191048   0.000000
    28  C    8.942422   5.418260   0.000000
    29  H    8.465563   4.913573   1.096844   0.000000
    30  H    9.834449   6.100744   1.092420   1.789808   0.000000
    31  H    9.325807   6.125997   1.095624   1.794296   1.788373
                   31
    31  H    0.000000
 Stoichiometry    C12H16NO2(1+)
 Framework group  C1[X(C12H16NO2)]
 Deg. of freedom    87
 Full point group                 C1      NOp   1
 RotChk:  IX=0 Diff= 3.56D-03
 Largest Abelian subgroup         C1      NOp   1
 Largest concise Abelian subgroup C1      NOp   1
                         Standard orientation:                         
 ---------------------------------------------------------------------
 Center     Atomic      Atomic             Coordinates (Angstroms)
 Number     Number       Type             X           Y           Z
 ---------------------------------------------------------------------
      1          6           0        2.064695   -0.516844   -0.100807
      2          6           0        1.237169   -1.637410    0.070884
      3          6           0       -0.146239   -1.485572    0.103223
      4          6           0       -0.744927   -0.219224   -0.045825
      5          6           0        0.097492    0.907995   -0.211027
      6          6           0        1.471836    0.769568   -0.231133
      7          8           0        2.272066    1.870631   -0.448127
      8          1           0        1.664678   -2.627813    0.174090
      9          1           0       -0.758742   -2.371628    0.233175
     10          1           0       -0.300238    1.912398   -0.322403
     11          8           0        3.409901   -0.554165   -0.165571
     12          6           0        4.091365   -1.816107   -0.061388
     13          1           0        3.791403   -2.486944   -0.873573
     14          1           0        3.897350   -2.283112    0.910150
     15          1           0        5.152455   -1.579195   -0.151599
     16          6           0       -2.190680   -0.106373   -0.037685
     17          6           0       -3.162559   -1.236904    0.189502
     18          7           0       -2.858046    0.995325   -0.262194
     19          6           0       -4.326312    0.850762   -0.255401
     20          6           0       -4.514517   -0.523001    0.406806
     21          1           0       -2.865617   -1.870196    1.028958
     22          1           0       -3.164957   -1.867081   -0.711083
     23          1           0       -4.681455    0.883194   -1.291817
     24          1           0       -4.774108    1.681008    0.295485
     25          1           0       -4.701221   -0.397798    1.478276
     26          1           0       -5.352486   -1.074408   -0.025111
     27          1           0       -2.421263    1.883043   -0.500818
     28          6           0        2.819103    2.475724    0.742096
     29          1           0        2.012362    2.856125    1.380479
     30          1           0        3.441991    3.306334    0.402273
     31          1           0        3.431881    1.761383    1.302997
 ---------------------------------------------------------------------
 Rotational constants (GHZ):           1.2848869           0.3036985           0.2523340
 Leave Link  202 at Tue Jul 28 03:15:59 2026, MaxMem=  4026531840 cpu:               0.0 elap:               0.0
 (Enter /opt/packages/gaussian/g16RevC.01/g16/l301.exe)
 Standard basis: 6-31+G(d) (6D, 7F)
 Ernie: Thresh=  0.10000D-02 Tol=  0.10000D-05 Strict=F.
 There are   317 symmetry adapted cartesian basis functions of A   symmetry.
 There are   317 symmetry adapted basis functions of A   symmetry.
   317 basis functions,   544 primitive gaussians,   317 cartesian basis functions
    55 alpha electrons       55 beta electrons
       nuclear repulsion energy       979.7137719044 Hartrees.
 IExCor=  402 DFT=T Ex+Corr=B3LYP ExCW=0 ScaHFX=  0.200000
 ScaDFX=  0.800000  0.720000  1.000000  0.810000 ScalE2=  1.000000  1.000000
 IRadAn=      5 IRanWt=     -1 IRanGd=            0 ICorTp=0 IEmpDi=  4
 NAtoms=   31 NActive=   31 NUniq=   31 SFac= 1.00D+00 NAtFMM=   60 NAOKFM=F Big=F
 Integral buffers will be    131072 words long.
 Raffenetti 2 integral format.
 Two-electron integral symmetry is turned on.
 ------------------------------------------------------------------------------
 Polarizable Continuum Model (PCM)
 =================================
 Model                : PCM.
 Atomic radii         : SMD-Coulomb.
 Polarization charges : Total charges.
 Charge compensation  : None.
 Solution method      : On-the-fly selection.
 Cavity type          : VdW (van der Waals Surface) (Alpha=1.000).
 Cavity algorithm     : GePol (No added spheres)
                        Default sphere list used, NSphG=   31.
                        Lebedev-Laikov grids with approx.  5.0 points / Ang**2.
                        Smoothing algorithm: York/Karplus (Gamma=1.0000).
                        Polarization charges: spherical gaussians, with
                                              point-specific exponents (IZeta= 3).
                        Self-potential: point-specific (ISelfS= 7).
                        Self-field    : sphere-specific E.n sum rule (ISelfD= 2).
 1st derivatives      : Analytical E(r).r(x)/FMM algorithm (CHGder, D1EAlg=3).
                        Cavity 1st derivative terms included.
 Solvent              : Methanol, Eps=  32.613000 Eps(inf)=   1.765709
 ------------------------------------------------------------------------------
 GePol: Number of generator spheres                  =      31
 GePol: Total number of spheres                      =      31
 GePol: Number of exposed spheres                    =      31 (100.00%)
 GePol: Number of points                             =    2260
 GePol: Average weight of points                     =       0.11
 GePol: Minimum weight of points                     =   0.40D-10
 GePol: Maximum weight of points                     =    0.21991
 GePol: Number of points with low weight             =     127
 GePol: Fraction of low-weight points (<1% of avg)   =       5.62%
 GePol: Cavity surface area                          =    247.704 Ang**2
 GePol: Cavity volume                                =    218.602 Ang**3
 ------------------------------------------------------------------------------
 Atomic radii for non-electrostatic terms: SMD-CDS.
 ------------------------------------------------------------------------------
 PCM non-electrostatic energy =         0.0015577285 Hartrees.
 Nuclear repulsion after PCM non-electrostatic terms =      979.7153296329 Hartrees.
 Leave Link  301 at Tue Jul 28 03:15:59 2026, MaxMem=  4026531840 cpu:               0.4 elap:               0.1
 (Enter /opt/packages/gaussian/g16RevC.01/g16/l302.exe)
 NPDir=0 NMtPBC=     1 NCelOv=     1 NCel=       1 NClECP=     1 NCelD=      1
         NCelK=      1 NCelE2=     1 NClLst=     1 CellRange=     0.0.
 One-electron integrals computed using PRISM.
 One-electron integral symmetry used in STVInt
 NBasis=   317 RedAO= T EigKep=  1.44D-06  NBF=   317
 NBsUse=   315 1.00D-06 EigRej=  7.94D-07 NBFU=   315
 Precomputing XC quadrature grid using
 IXCGrd= 4 IRadAn=           5 IRanWt=          -1 IRanGd=           0 AccXCQ= 0.00D+00.
 Generated NRdTot=       0 NPtTot=           0 NUsed=           0 NTot=          32
 NSgBfM=   316   316   316   316   316 MxSgAt=    31 MxSgA2=    31.
 Leave Link  302 at Tue Jul 28 03:15:59 2026, MaxMem=  4026531840 cpu:               1.7 elap:               0.2
 (Enter /opt/packages/gaussian/g16RevC.01/g16/l303.exe)
 DipDrv:  MaxL=1.
 Leave Link  303 at Tue Jul 28 03:15:59 2026, MaxMem=  4026531840 cpu:               0.1 elap:               0.0
 (Enter /opt/packages/gaussian/g16RevC.01/g16/l401.exe)
 Initial guess from the checkpoint file:  "dmp_s0_opt.chk"
 B after Tr=    -0.000000   -0.000000    0.000000
         Rot=    0.999999    0.000965    0.000065   -0.000366 Ang=   0.12 deg.
 Guess basis will be translated and rotated to current coordinates.
 JPrj=2 DoOrth=T DoCkMO=T.
 Generating alternative initial guess.
 ExpMin= 4.38D-02 ExpMax= 5.48D+03 ExpMxC= 8.25D+02 IAcc=3 IRadAn=         5 AccDes= 0.00D+00
 Harris functional with IExCor=  402 and IRadAn=       5 diagonalized for initial guess.
 HarFok:  IExCor=  402 AccDes= 0.00D+00 IRadAn=         5 IDoV= 1 UseB2=F ITyADJ=14
 ICtDFT=  3500011 ScaDFX=  1.000000  1.000000  1.000000  1.000000
 FoFCou: FMM=F IPFlag=           0 FMFlag=      100000 FMFlg1=           0
         NFxFlg=           0 DoJE=T BraDBF=F KetDBF=T FulRan=T
         wScrn=  0.000000 ICntrl=       500 IOpCl=  0 I1Cent=   200000004 NGrid=           0
         NMat0=    1 NMatS0=      1 NMatT0=    0 NMatD0=    1 NMtDS0=    0 NMtDT0=    0
 Petite list used in FoFCou.
 Harris En= -671.876912247279    
 Leave Link  401 at Tue Jul 28 03:16:00 2026, MaxMem=  4026531840 cpu:               8.3 elap:               1.1
 (Enter /opt/packages/gaussian/g16RevC.01/g16/l502.exe)
 Integral symmetry usage will be decided dynamically.
 Closed shell SCF:
 Using DIIS extrapolation, IDIIS=  1040.
 NGot=  4026531840 LenX=  4026324160 LenY=  4026223230
 Requested convergence on RMS density matrix=1.00D-08 within 128 cycles.
 Requested convergence on MAX density matrix=1.00D-06.
 Requested convergence on             energy=1.00D-06.
 No special actions if energy rises.
 Fock matrices will be formed incrementally for  20 cycles.

 Cycle   1  Pass 1  IDiag  1:
 FoFJK:  IHMeth= 1 ICntrl=       0 DoSepK=F KAlg= 0 I1Cent=           0 FoldK=F
 IRaf= 870000000 NMat=       1 IRICut=       1 DoRegI=T DoRafI=F ISym2E= 0 IDoP0=0 IntGTp=1.
 FoFCou: FMM=F IPFlag=           0 FMFlag=      100000 FMFlg1=           0
         NFxFlg=           0 DoJE=F BraDBF=F KetDBF=F FulRan=T
         wScrn=  0.000000 ICntrl=         0 IOpCl=  0 I1Cent=           0 NGrid=           0
         NMat0=    1 NMatS0=      1 NMatT0=    0 NMatD0=    1 NMtDS0=    0 NMtDT0=    0
 Symmetry not used in FoFCou.
 Inv3:  Mode=1 IEnd=    15322800.
 Iteration    1 A*A^-1 deviation from unit magnitude is 3.33D-15 for   1497.
 Iteration    1 A*A^-1 deviation from orthogonality  is 2.66D-15 for   2039    659.
 Iteration    1 A^-1*A deviation from unit magnitude is 2.89D-15 for    730.
 Iteration    1 A^-1*A deviation from orthogonality  is 6.13D-15 for   1187   1154.
 E= -671.980513539392    
 DIIS: error= 5.59D-04 at cycle   1 NSaved=   1.
 NSaved= 1 IEnMin= 1 EnMin= -671.980513539392     IErMin= 1 ErrMin= 5.59D-04
 ErrMax= 5.59D-04  0.00D+00 EMaxC= 1.00D-01 BMatC= 4.43D-04 BMatP= 4.43D-04
 IDIUse=3 WtCom= 9.94D-01 WtEn= 5.59D-03
 Coeff-Com:  0.100D+01
 Coeff-En:   0.100D+01
 Coeff:      0.100D+01
 Gap=     0.421 Goal=   None    Shift=    0.000
 RMSDP=3.96D-03 MaxDP=3.36D-01              OVMax= 4.61D-03

 Cycle   2  Pass 1  IDiag  1:
 RMSU=  1.96D-03    CP:  9.57D-01
 E= -671.981109268401     Delta-E=       -0.000595729008 Rises=F Damp=F
 DIIS: error= 1.50D-04 at cycle   2 NSaved=   2.
 NSaved= 2 IEnMin= 2 EnMin= -671.981109268401     IErMin= 2 ErrMin= 1.50D-04
 ErrMax= 1.50D-04  0.00D+00 EMaxC= 1.00D-01 BMatC= 3.15D-05 BMatP= 4.43D-04
 IDIUse=3 WtCom= 9.99D-01 WtEn= 1.50D-03
 Coeff-Com:  0.966D-01 0.903D+00
 Coeff-En:   0.000D+00 0.100D+01
 Coeff:      0.965D-01 0.904D+00
 Gap=     0.157 Goal=   None    Shift=    0.000
 RMSDP=4.81D-04 MaxDP=6.37D-02 DE=-5.96D-04 OVMax= 1.81D-03

 Cycle   3  Pass 1  IDiag  1:
 RMSU=  3.75D-04    CP:  9.53D-01  1.05D+00
 E= -671.981120089131     Delta-E=       -0.000010820730 Rises=F Damp=F
 DIIS: error= 1.78D-04 at cycle   3 NSaved=   3.
 NSaved= 3 IEnMin= 3 EnMin= -671.981120089131     IErMin= 2 ErrMin= 1.50D-04
 ErrMax= 1.78D-04  0.00D+00 EMaxC= 1.00D-01 BMatC= 2.35D-05 BMatP= 3.15D-05
 IDIUse=3 WtCom= 9.98D-01 WtEn= 1.78D-03
 Coeff-Com: -0.168D-01 0.462D+00 0.555D+00
 Coeff-En:   0.000D+00 0.399D+00 0.601D+00
 Coeff:     -0.168D-01 0.461D+00 0.555D+00
 Gap=     0.157 Goal=   None    Shift=    0.000
 RMSDP=1.57D-04 MaxDP=1.25D-02 DE=-1.08D-05 OVMax= 1.13D-03

 Cycle   4  Pass 1  IDiag  1:
 RMSU=  5.85D-05    CP:  9.53D-01  1.05D+00  6.12D-01
 E= -671.981141682257     Delta-E=       -0.000021593126 Rises=F Damp=F
 DIIS: error= 4.13D-05 at cycle   4 NSaved=   4.
 NSaved= 4 IEnMin= 4 EnMin= -671.981141682257     IErMin= 4 ErrMin= 4.13D-05
 ErrMax= 4.13D-05  0.00D+00 EMaxC= 1.00D-01 BMatC= 1.95D-06 BMatP= 2.35D-05
 IDIUse=1 WtCom= 1.00D+00 WtEn= 0.00D+00
 Coeff-Com: -0.133D-01 0.232D+00 0.329D+00 0.452D+00
 Coeff:     -0.133D-01 0.232D+00 0.329D+00 0.452D+00
 Gap=     0.157 Goal=   None    Shift=    0.000
 RMSDP=3.22D-05 MaxDP=2.64D-03 DE=-2.16D-05 OVMax= 4.22D-04

 Cycle   5  Pass 1  IDiag  1:
 RMSU=  2.36D-05    CP:  9.53D-01  1.05D+00  5.82D-01  9.39D-01
 E= -671.981143488840     Delta-E=       -0.000001806583 Rises=F Damp=F
 DIIS: error= 8.21D-06 at cycle   5 NSaved=   5.
 NSaved= 5 IEnMin= 5 EnMin= -671.981143488840     IErMin= 5 ErrMin= 8.21D-06
 ErrMax= 8.21D-06  0.00D+00 EMaxC= 1.00D-01 BMatC= 7.31D-08 BMatP= 1.95D-06
 IDIUse=1 WtCom= 1.00D+00 WtEn= 0.00D+00
 Coeff-Com: -0.279D-02 0.316D-01 0.608D-01 0.192D+00 0.718D+00
 Coeff:     -0.279D-02 0.316D-01 0.608D-01 0.192D+00 0.718D+00
 Gap=     0.157 Goal=   None    Shift=    0.000
 RMSDP=1.00D-05 MaxDP=1.07D-03 DE=-1.81D-06 OVMax= 8.33D-05

 Cycle   6  Pass 1  IDiag  1:
 RMSU=  5.90D-06    CP:  9.53D-01  1.05D+00  5.90D-01  9.50D-01  8.74D-01
 E= -671.981143555680     Delta-E=       -0.000000066841 Rises=F Damp=F
 DIIS: error= 2.84D-06 at cycle   6 NSaved=   6.
 NSaved= 6 IEnMin= 6 EnMin= -671.981143555680     IErMin= 6 ErrMin= 2.84D-06
 ErrMax= 2.84D-06  0.00D+00 EMaxC= 1.00D-01 BMatC= 9.69D-09 BMatP= 7.31D-08
 IDIUse=1 WtCom= 1.00D+00 WtEn= 0.00D+00
 Coeff-Com: -0.540D-03 0.102D-03 0.951D-02 0.724D-01 0.374D+00 0.544D+00
 Coeff:     -0.540D-03 0.102D-03 0.951D-02 0.724D-01 0.374D+00 0.544D+00
 Gap=     0.157 Goal=   None    Shift=    0.000
 RMSDP=2.08D-06 MaxDP=1.35D-04 DE=-6.68D-08 OVMax= 2.17D-05

 Cycle   7  Pass 1  IDiag  1:
 RMSU=  1.26D-06    CP:  9.53D-01  1.05D+00  5.92D-01  9.64D-01  9.00D-01
                    CP:  8.32D-01
 E= -671.981143563796     Delta-E=       -0.000000008116 Rises=F Damp=F
 DIIS: error= 8.39D-07 at cycle   7 NSaved=   7.
 NSaved= 7 IEnMin= 7 EnMin= -671.981143563796     IErMin= 7 ErrMin= 8.39D-07
 ErrMax= 8.39D-07  0.00D+00 EMaxC= 1.00D-01 BMatC= 8.38D-10 BMatP= 9.69D-09
 IDIUse=1 WtCom= 1.00D+00 WtEn= 0.00D+00
 Coeff-Com:  0.441D-04-0.373D-02-0.244D-02 0.147D-01 0.104D+00 0.274D+00
 Coeff-Com:  0.614D+00
 Coeff:      0.441D-04-0.373D-02-0.244D-02 0.147D-01 0.104D+00 0.274D+00
 Coeff:      0.614D+00
 Gap=     0.157 Goal=   None    Shift=    0.000
 RMSDP=1.07D-06 MaxDP=7.67D-05 DE=-8.12D-09 OVMax= 7.37D-06

 Cycle   8  Pass 1  IDiag  1:
 RMSU=  6.29D-07    CP:  9.53D-01  1.05D+00  5.94D-01  9.71D-01  8.96D-01
                    CP:  7.84D-01  1.03D+00
 E= -671.981143564425     Delta-E=       -0.000000000629 Rises=F Damp=F
 DIIS: error= 2.82D-07 at cycle   8 NSaved=   8.
 NSaved= 8 IEnMin= 8 EnMin= -671.981143564425     IErMin= 8 ErrMin= 2.82D-07
 ErrMax= 2.82D-07  0.00D+00 EMaxC= 1.00D-01 BMatC= 9.33D-11 BMatP= 8.38D-10
 IDIUse=1 WtCom= 1.00D+00 WtEn= 0.00D+00
 Coeff-Com:  0.662D-04-0.217D-02-0.223D-02 0.259D-02 0.277D-01 0.110D+00
 Coeff-Com:  0.330D+00 0.535D+00
 Coeff:      0.662D-04-0.217D-02-0.223D-02 0.259D-02 0.277D-01 0.110D+00
 Coeff:      0.330D+00 0.535D+00
 Gap=     0.157 Goal=   None    Shift=    0.000
 RMSDP=1.91D-07 MaxDP=9.13D-06 DE=-6.29D-10 OVMax= 3.49D-06

 Cycle   9  Pass 1  IDiag  1:
 RMSU=  1.22D-07    CP:  9.53D-01  1.05D+00  5.94D-01  9.71D-01  8.98D-01
                    CP:  8.00D-01  9.98D-01  9.21D-01
 E= -671.981143564518     Delta-E=       -0.000000000093 Rises=F Damp=F
 DIIS: error= 7.82D-08 at cycle   9 NSaved=   9.
 NSaved= 9 IEnMin= 9 EnMin= -671.981143564518     IErMin= 9 ErrMin= 7.82D-08
 ErrMax= 7.82D-08  0.00D+00 EMaxC= 1.00D-01 BMatC= 4.61D-12 BMatP= 9.33D-11
 IDIUse=1 WtCom= 1.00D+00 WtEn= 0.00D+00
 Coeff-Com:  0.160D-04-0.256D-03-0.457D-03-0.805D-03-0.353D-02 0.448D-02
 Coeff-Com:  0.291D-01 0.193D+00 0.778D+00
 Coeff:      0.160D-04-0.256D-03-0.457D-03-0.805D-03-0.353D-02 0.448D-02
 Coeff:      0.291D-01 0.193D+00 0.778D+00
 Gap=     0.157 Goal=   None    Shift=    0.000
 RMSDP=8.38D-08 MaxDP=4.73D-06 DE=-9.31D-11 OVMax= 9.34D-07

 Cycle  10  Pass 1  IDiag  1:
 RMSU=  4.13D-08    CP:  9.53D-01  1.05D+00  5.94D-01  9.72D-01  8.99D-01
                    CP:  8.05D-01  1.02D+00  9.54D-01  8.81D-01
 E= -671.981143564519     Delta-E=       -0.000000000001 Rises=F Damp=F
 DIIS: error= 2.88D-08 at cycle  10 NSaved=  10.
 NSaved=10 IEnMin=10 EnMin= -671.981143564519     IErMin=10 ErrMin= 2.88D-08
 ErrMax= 2.88D-08  0.00D+00 EMaxC= 1.00D-01 BMatC= 6.23D-13 BMatP= 4.61D-12
 IDIUse=1 WtCom= 1.00D+00 WtEn= 0.00D+00
 Coeff-Com:  0.423D-05 0.112D-04-0.787D-04-0.486D-03-0.338D-02-0.438D-02
 Coeff-Com: -0.742D-02 0.586D-01 0.375D+00 0.582D+00
 Coeff:      0.423D-05 0.112D-04-0.787D-04-0.486D-03-0.338D-02-0.438D-02
 Coeff:     -0.742D-02 0.586D-01 0.375D+00 0.582D+00
 Gap=     0.157 Goal=   None    Shift=    0.000
 RMSDP=1.90D-08 MaxDP=1.52D-06 DE=-9.09D-13 OVMax= 2.98D-07

 Cycle  11  Pass 1  IDiag  1:
 RMSU=  1.01D-08    CP:  9.53D-01  1.05D+00  5.94D-01  9.72D-01  8.99D-01
                    CP:  8.04D-01  1.03D+00  9.64D-01  8.97D-01  9.72D-01
 E= -671.981143564519     Delta-E=       -0.000000000000 Rises=F Damp=F
 DIIS: error= 7.66D-09 at cycle  11 NSaved=  11.
 NSaved=11 IEnMin=11 EnMin= -671.981143564519     IErMin=11 ErrMin= 7.66D-09
 ErrMax= 7.66D-09  0.00D+00 EMaxC= 1.00D-01 BMatC= 5.88D-14 BMatP= 6.23D-13
 IDIUse=1 WtCom= 1.00D+00 WtEn= 0.00D+00
 Coeff-Com: -0.670D-06 0.468D-04 0.382D-04-0.766D-04-0.106D-02-0.253D-02
 Coeff-Com: -0.787D-02-0.201D-02 0.538D-01 0.257D+00 0.703D+00
 Coeff:     -0.670D-06 0.468D-04 0.382D-04-0.766D-04-0.106D-02-0.253D-02
 Coeff:     -0.787D-02-0.201D-02 0.538D-01 0.257D+00 0.703D+00
 Gap=     0.157 Goal=   None    Shift=    0.000
 RMSDP=7.66D-09 MaxDP=6.17D-07 DE=-4.55D-13 OVMax= 1.62D-07

 Error on total polarization charges =  0.05690
 SCF Done:  E(RB3LYP) =  -671.981143565     A.U. after   11 cycles
            NFock= 11  Conv=0.77D-08     -V/T= 2.0098
 KE= 6.654731214506D+02 PE=-3.504320334489D+03 EE= 1.187150739841D+03
 SMD-CDS (non-electrostatic) energy       (kcal/mol) =       0.98
 (included in total energy above)
 Leave Link  502 at Tue Jul 28 03:16:32 2026, MaxMem=  4026531840 cpu:             246.6 elap:              31.3
 (Enter /opt/packages/gaussian/g16RevC.01/g16/l701.exe)
 ... and contract with generalized density number  0.
 Compute integral first derivatives.
 D1PCM: PCM CHGder 1st derivatives, ID1Alg=3 FixD1E=F DoIter=F DoCFld=F I1PDM=0.
 GePol: Maximum number of non-zero 1st derivatives   =     262
 Leave Link  701 at Tue Jul 28 03:16:34 2026, MaxMem=  4026531840 cpu:               8.3 elap:               1.1
 (Enter /opt/packages/gaussian/g16RevC.01/g16/l702.exe)
 L702 exits ... SP integral derivatives will be done elsewhere.
 Leave Link  702 at Tue Jul 28 03:16:34 2026, MaxMem=  4026531840 cpu:               0.1 elap:               0.0
 (Enter /opt/packages/gaussian/g16RevC.01/g16/l703.exe)
 Integral derivatives from FoFJK, PRISM(SPDF).
 Compute integral first derivatives, UseDBF=F ICtDFT=           0.
 Calling FoFJK, ICntrl=      2127 FMM=F ISym2X=0 I1Cent= 0 IOpClX= 0 NMat=1 NMatS=1 NMatT=0.
 FoFJK:  IHMeth= 1 ICntrl=    2127 DoSepK=F KAlg= 0 I1Cent=           0 FoldK=F
 IRaf=         0 NMat=       1 IRICut=       1 DoRegI=T DoRafI=F ISym2E= 0 IDoP0=0 IntGTp=1.
 FoFCou: FMM=F IPFlag=           0 FMFlag=      100000 FMFlg1=         800
         NFxFlg=           0 DoJE=F BraDBF=F KetDBF=F FulRan=T
         wScrn=  0.000000 ICntrl=      2127 IOpCl=  0 I1Cent=           0 NGrid=           0
         NMat0=    1 NMatS0=      1 NMatT0=    0 NMatD0=    1 NMtDS0=    0 NMtDT0=    0
 Symmetry not used in FoFCou.
 Leave Link  703 at Tue Jul 28 03:16:41 2026, MaxMem=  4026531840 cpu:              59.1 elap:               7.4
 (Enter /opt/packages/gaussian/g16RevC.01/g16/l716.exe)
 Dipole        =-3.45170561D+00-5.58911788D-01 5.80121818D-01
 ***** Axes restored to original set *****
 -------------------------------------------------------------------
 Center     Atomic                   Forces (Hartrees/Bohr)
 Number     Number              X              Y              Z
 -------------------------------------------------------------------
      1        6           0.000089941   -0.000031027   -0.000188218
      2        6          -0.000615235    0.000503418   -0.000063950
      3        6           0.000903117   -0.000210334   -0.000044049
      4        6          -0.001564941    0.000677824   -0.000028467
      5        6           0.000705206   -0.000182814    0.000082522
      6        6          -0.000183484   -0.000453357    0.000332630
      7        8          -0.000150728   -0.000502303   -0.000869934
      8        1           0.000263808   -0.000059962    0.000040862
      9        1          -0.000040374    0.000070333    0.000009866
     10        1          -0.000162875   -0.000059559    0.000000181
     11        8          -0.000823538    0.001437176    0.000019308
     12        6           0.000327201   -0.001924698    0.000199886
     13        1          -0.000310061    0.000322746    0.000027401
     14        1          -0.000324761    0.000290838   -0.000032384
     15        1          -0.000222934    0.000408935   -0.000029761
     16        6           0.001949378   -0.000986004    0.000166048
     17        6           0.000032253   -0.000113411   -0.000328451
     18        7          -0.000514191    0.000754091    0.000013154
     19        6          -0.000050307   -0.000229653   -0.000201181
     20        6          -0.000078717    0.000114681    0.000299028
     21        1           0.000034566    0.000144621    0.000087868
     22        1          -0.000054092    0.000129935    0.000059313
     23        1           0.000093123   -0.000027456    0.000057009
     24        1           0.000238293   -0.000039558    0.000094080
     25        1           0.000091185    0.000041551   -0.000073128
     26        1           0.000205297    0.000022306   -0.000178235
     27        1           0.000203505   -0.000096119   -0.000026756
     28        6           0.000411312    0.000754252    0.001623126
     29        1          -0.000100809   -0.000244292   -0.000296520
     30        1          -0.000176189   -0.000213955   -0.000425398
     31        1          -0.000174949   -0.000298206   -0.000325851
 -------------------------------------------------------------------
 Cartesian Forces:  Max     0.001949378 RMS     0.000507316
 Leave Link  716 at Tue Jul 28 03:16:41 2026, MaxMem=  4026531840 cpu:               0.1 elap:               0.0
 (Enter /opt/packages/gaussian/g16RevC.01/g16/l103.exe)

 GradGradGradGradGradGradGradGradGradGradGradGradGradGradGradGradGradGrad
 Berny optimization.
 Using GEDIIS/GDIIS optimizer.
 FormGI is forming the generalized inverse of G from B-inverse, IUseBI=4.
 Internal  Forces:  Max     0.002364493 RMS     0.000370625
 Search for a local minimum.
 Step number   2 out of a maximum of  170
 All quantities printed in internal units (Hartrees-Bohrs-Radians)
 RMS Force = .37062D-03 SwitMx=.10000D-02 MixMth= 2
 Mixed Optimization -- En-DIIS/RFO-DIIS
 Update second derivatives using D2CorX and points    1    2
 DE= -5.89D-04 DEPred=-6.67D-04 R= 8.83D-01
 TightC=F SS=  1.41D+00  RLast= 6.32D-02 DXNew= 5.0454D-01 1.8966D-01
 Trust test= 8.83D-01 RLast= 6.32D-02 DXMaxT set to 3.00D-01
 ITU=  1  0
 Use linear search instead of GDIIS.
     Eigenvalues ---    0.00470   0.01120   0.01224   0.01280   0.01361
     Eigenvalues ---    0.01459   0.01845   0.01855   0.02005   0.02050
     Eigenvalues ---    0.02079   0.02141   0.02150   0.02165   0.02191
     Eigenvalues ---    0.02210   0.02265   0.02460   0.03359   0.03607
     Eigenvalues ---    0.04981   0.05227   0.05626   0.05924   0.06921
     Eigenvalues ---    0.07510   0.08424   0.08444   0.09416   0.10093
     Eigenvalues ---    0.10110   0.10604   0.10712   0.10994   0.15926
     Eigenvalues ---    0.15941   0.15998   0.16000   0.16000   0.16000
     Eigenvalues ---    0.16000   0.16000   0.16000   0.16140   0.21501
     Eigenvalues ---    0.22369   0.22665   0.23494   0.24612   0.24851
     Eigenvalues ---    0.24964   0.24984   0.24999   0.24999   0.25749
     Eigenvalues ---    0.27918   0.28506   0.31228   0.33971   0.34217
     Eigenvalues ---    0.34318   0.34331   0.34361   0.34372   0.34432
     Eigenvalues ---    0.34529   0.34655   0.34704   0.34717   0.34729
     Eigenvalues ---    0.34859   0.35343   0.35466   0.35628   0.37963
     Eigenvalues ---    0.40023   0.40622   0.41128   0.42214   0.44795
     Eigenvalues ---    0.44952   0.46374   0.46795   0.50145   0.51596
     Eigenvalues ---    0.58507   0.62607
 RFO step:  Lambda=-5.40574640D-05 EMin= 4.69500588D-03
 Quartic linear search produced a step of -0.09509.
 Iteration  1 RMS(Cart)=  0.00731379 RMS(Int)=  0.00001695
 Iteration  2 RMS(Cart)=  0.00002751 RMS(Int)=  0.00000109
 Iteration  3 RMS(Cart)=  0.00000000 RMS(Int)=  0.00000109
 ITry= 1 IFail=0 DXMaxC= 4.15D-02 DCOld= 1.00D+10 DXMaxT= 3.00D-01 DXLimC= 3.00D+00 Rises=F
 Variable       Old X    -DE/DX   Delta X   Delta X   Delta X     New X
                                 (Linear)    (Quad)   (Total)
    R1        2.65232  -0.00072  -0.00141   0.00052  -0.00089   2.65143
    R2        2.68801  -0.00102  -0.00159   0.00005  -0.00154   2.68648
    R3        2.54599  -0.00136  -0.00096  -0.00081  -0.00177   2.54423
    R4        2.63067  -0.00111  -0.00087  -0.00087  -0.00174   2.62893
    R5        2.04782   0.00016  -0.00013   0.00059   0.00046   2.04827
    R6        2.66195  -0.00008  -0.00150   0.00201   0.00051   2.66246
    R7        2.05028  -0.00004  -0.00010   0.00005  -0.00005   2.05023
    R8        2.67754  -0.00042  -0.00136   0.00110  -0.00026   2.67728
    R9        2.74043  -0.00217  -0.00047  -0.00443  -0.00491   2.73552
   R10        2.61055  -0.00087  -0.00121   0.00012  -0.00109   2.60946
   R11        2.05226   0.00001  -0.00010   0.00016   0.00006   2.05232
   R12        2.60467  -0.00046  -0.00099   0.00058  -0.00042   2.60425
   R13        2.72672   0.00046  -0.00136   0.00295   0.00159   2.72832
   R14        2.71736   0.00052  -0.00123   0.00288   0.00165   2.71901
   R15        2.06978  -0.00013  -0.00024  -0.00002  -0.00026   2.06952
   R16        2.06977  -0.00011  -0.00024   0.00006  -0.00019   2.06958
   R17        2.06160  -0.00012  -0.00023   0.00001  -0.00022   2.06139
   R18        2.84983  -0.00029  -0.00122   0.00088  -0.00033   2.84950
   R19        2.47079   0.00036  -0.00152   0.00262   0.00110   2.47189
   R20        2.91819  -0.00013  -0.00127   0.00138   0.00010   2.91829
   R21        2.06484  -0.00000  -0.00024   0.00033   0.00009   2.06493
   R22        2.07714  -0.00012  -0.00031   0.00011  -0.00020   2.07694
   R23        2.78807  -0.00029  -0.00089   0.00051  -0.00039   2.78768
   R24        1.92322   0.00000  -0.00010   0.00015   0.00005   1.92327
   R25        2.90377  -0.00009  -0.00114   0.00135   0.00022   2.90399
   R26        2.07124  -0.00009  -0.00033   0.00023  -0.00010   2.07114
   R27        2.06431  -0.00008  -0.00028   0.00017  -0.00010   2.06420
   R28        2.06887  -0.00008  -0.00026   0.00016  -0.00010   2.06876
   R29        2.06387  -0.00010  -0.00025   0.00010  -0.00015   2.06372
   R30        2.07274  -0.00018  -0.00028  -0.00007  -0.00035   2.07238
   R31        2.06437  -0.00013  -0.00026   0.00002  -0.00024   2.06414
   R32        2.07043  -0.00008  -0.00023   0.00012  -0.00011   2.07032
    A1        2.08002   0.00045   0.00026   0.00109   0.00136   2.08138
    A2        2.18029  -0.00072  -0.00023  -0.00220  -0.00243   2.17786
    A3        2.02283   0.00028  -0.00003   0.00112   0.00110   2.02393
    A4        2.09633  -0.00011  -0.00027  -0.00013  -0.00040   2.09593
    A5        2.10450  -0.00017   0.00003  -0.00108  -0.00105   2.10345
    A6        2.08233   0.00029   0.00025   0.00121   0.00146   2.08379
    A7        2.11525  -0.00022  -0.00012  -0.00052  -0.00064   2.11461
    A8        2.06545   0.00018   0.00013   0.00056   0.00069   2.06614
    A9        2.10239   0.00004  -0.00001  -0.00002  -0.00003   2.10236
   A10        2.06558   0.00017   0.00038   0.00034   0.00072   2.06630
   A11        2.08642  -0.00016  -0.00022  -0.00039  -0.00062   2.08581
   A12        2.13115  -0.00001  -0.00016   0.00005  -0.00010   2.13105
   A13        2.11003  -0.00022  -0.00036  -0.00025  -0.00062   2.10941
   A14        2.12938  -0.00007   0.00023  -0.00097  -0.00074   2.12864
   A15        2.04376   0.00029   0.00013   0.00123   0.00136   2.04512
   A16        2.09895  -0.00007   0.00013  -0.00051  -0.00038   2.09857
   A17        2.08851  -0.00009  -0.00032   0.00017  -0.00015   2.08836
   A18        2.09421   0.00016   0.00023   0.00032   0.00056   2.09477
   A19        2.01003  -0.00081  -0.00097  -0.00160  -0.00256   2.00746
   A20        2.08749  -0.00236  -0.00107  -0.00706  -0.00814   2.07935
   A21        1.93263  -0.00046  -0.00024  -0.00238  -0.00262   1.93001
   A22        1.93318  -0.00043  -0.00023  -0.00223  -0.00246   1.93072
   A23        1.83834  -0.00047   0.00012  -0.00260  -0.00248   1.83586
   A24        1.92634   0.00034   0.00007   0.00147   0.00154   1.92787
   A25        1.91565   0.00050   0.00013   0.00280   0.00293   1.91858
   A26        1.91583   0.00050   0.00014   0.00288   0.00301   1.91885
   A27        2.19567   0.00016  -0.00015   0.00072   0.00056   2.19624
   A28        2.18153  -0.00029  -0.00019  -0.00084  -0.00104   2.18050
   A29        1.90561   0.00012   0.00034   0.00015   0.00049   1.90609
   A30        1.81197  -0.00008  -0.00019  -0.00015  -0.00034   1.81163
   A31        1.95529  -0.00003  -0.00022  -0.00060  -0.00082   1.95447
   A32        1.88364   0.00004  -0.00028   0.00067   0.00039   1.88403
   A33        1.97986   0.00001   0.00013  -0.00038  -0.00025   1.97962
   A34        1.95890  -0.00000   0.00020  -0.00027  -0.00008   1.95882
   A35        1.87315   0.00006   0.00032   0.00073   0.00105   1.87420
   A36        2.00932  -0.00020  -0.00022  -0.00034  -0.00056   2.00876
   A37        2.16057  -0.00011  -0.00005  -0.00082  -0.00087   2.15970
   A38        2.11023   0.00031   0.00027   0.00114   0.00141   2.11164
   A39        1.78388   0.00006  -0.00005   0.00025   0.00020   1.78408
   A40        1.89147  -0.00002  -0.00006   0.00002  -0.00004   1.89142
   A41        1.91325  -0.00013  -0.00010  -0.00164  -0.00174   1.91151
   A42        1.97607  -0.00001   0.00000   0.00044   0.00044   1.97652
   A43        1.99539  -0.00001  -0.00015  -0.00000  -0.00015   1.99524
   A44        1.89816   0.00009   0.00032   0.00078   0.00109   1.89925
   A45        1.81876   0.00007  -0.00004   0.00028   0.00024   1.81900
   A46        1.91760  -0.00001   0.00000   0.00015   0.00015   1.91775
   A47        1.96348  -0.00011  -0.00011  -0.00129  -0.00140   1.96208
   A48        1.91816  -0.00003   0.00004   0.00022   0.00026   1.91841
   A49        1.95511  -0.00003  -0.00006  -0.00062  -0.00068   1.95443
   A50        1.89013   0.00010   0.00017   0.00123   0.00140   1.89153
   A51        1.92483  -0.00030  -0.00023  -0.00135  -0.00158   1.92325
   A52        1.85295  -0.00053   0.00016  -0.00316  -0.00300   1.84995
   A53        1.94004  -0.00053  -0.00046  -0.00244  -0.00291   1.93714
   A54        1.91424   0.00047   0.00019   0.00258   0.00276   1.91701
   A55        1.91721   0.00038   0.00016   0.00181   0.00197   1.91918
   A56        1.91355   0.00049   0.00019   0.00251   0.00269   1.91625
    D1        0.00752  -0.00001  -0.00012  -0.00024  -0.00036   0.00716
    D2       -3.13987   0.00003  -0.00002   0.00110   0.00108  -3.13879
    D3       -3.12414  -0.00008  -0.00042  -0.00278  -0.00320  -3.12733
    D4        0.01166  -0.00004  -0.00032  -0.00144  -0.00176   0.00990
    D5       -0.01878   0.00004   0.00037   0.00143   0.00180  -0.01698
    D6       -3.10113   0.00002  -0.00047   0.00170   0.00123  -3.09990
    D7        3.11376   0.00010   0.00064   0.00373   0.00437   3.11813
    D8        0.03140   0.00008  -0.00020   0.00400   0.00380   0.03521
    D9        0.00502   0.00003   0.00013   0.00115   0.00128   0.00631
   D10       -3.12692  -0.00004  -0.00016  -0.00132  -0.00148  -3.12840
   D11        0.00991  -0.00003  -0.00018  -0.00111  -0.00129   0.00863
   D12        3.13718   0.00002   0.00003   0.00068   0.00071   3.13789
   D13       -3.12596  -0.00006  -0.00028  -0.00242  -0.00270  -3.12866
   D14        0.00131  -0.00002  -0.00007  -0.00063  -0.00070   0.00061
   D15       -0.01598   0.00004   0.00023   0.00124   0.00147  -0.01451
   D16        3.11657   0.00004   0.00014   0.00143   0.00158   3.11815
   D17        3.14025  -0.00001   0.00001  -0.00059  -0.00058   3.13967
   D18       -0.01039  -0.00001  -0.00007  -0.00040  -0.00047  -0.01086
   D19        0.00455  -0.00000   0.00003  -0.00002   0.00000   0.00455
   D20       -3.13226  -0.00002  -0.00004  -0.00085  -0.00089  -3.13315
   D21       -3.12775  -0.00000   0.00011  -0.00022  -0.00011  -3.12786
   D22        0.01862  -0.00002   0.00005  -0.00104  -0.00100   0.01763
   D23        0.05759  -0.00005   0.00018  -0.00350  -0.00332   0.05426
   D24       -3.05153  -0.00007   0.00026  -0.00422  -0.00397  -3.05550
   D25       -3.09341  -0.00005   0.00009  -0.00330  -0.00321  -3.09661
   D26        0.08066  -0.00006   0.00017  -0.00402  -0.00385   0.07681
   D27        0.01269  -0.00004  -0.00032  -0.00131  -0.00163   0.01106
   D28        3.09485  -0.00003   0.00050  -0.00159  -0.00109   3.09376
   D29       -3.13345  -0.00002  -0.00026  -0.00053  -0.00079  -3.13424
   D30       -0.05129  -0.00001   0.00056  -0.00081  -0.00024  -0.05154
   D31       -1.48833  -0.00001   0.00144  -0.00200  -0.00056  -1.48889
   D32        1.71234  -0.00002   0.00061  -0.00171  -0.00110   1.71125
   D33       -1.09478   0.00007   0.00015   0.00116   0.00131  -1.09346
   D34        3.11590  -0.00002  -0.00004   0.00064   0.00060   3.11650
   D35        1.03600  -0.00001  -0.00011   0.00087   0.00076   1.03676
   D36        1.06257  -0.00008  -0.00009  -0.00025  -0.00034   1.06223
   D37       -1.08050   0.00010   0.00014   0.00108   0.00122  -1.07929
   D38        3.13237  -0.00000   0.00002   0.00033   0.00035   3.13273
   D39        2.92917  -0.00002  -0.00007  -0.00052  -0.00059   2.92858
   D40        0.78628   0.00004   0.00002   0.00036   0.00038   0.78666
   D41       -1.27210  -0.00005  -0.00007  -0.00060  -0.00067  -1.27277
   D42       -0.24059  -0.00002  -0.00015   0.00009  -0.00006  -0.24065
   D43       -2.38348   0.00004  -0.00006   0.00097   0.00091  -2.38257
   D44        1.84133  -0.00004  -0.00015   0.00001  -0.00014   1.84119
   D45        3.09928   0.00002  -0.00016   0.00089   0.00073   3.10001
   D46        0.04124   0.00001  -0.00015   0.00109   0.00094   0.04218
   D47       -0.01443   0.00000  -0.00008   0.00025   0.00017  -0.01426
   D48       -3.07247   0.00000  -0.00007   0.00046   0.00038  -3.07209
   D49        0.38433   0.00003   0.00027  -0.00032  -0.00005   0.38428
   D50       -1.66998   0.00003   0.00025  -0.00079  -0.00054  -1.67052
   D51        2.50605  -0.00002   0.00011  -0.00160  -0.00149   2.50456
   D52        2.51094  -0.00005  -0.00005  -0.00136  -0.00141   2.50953
   D53        0.45663  -0.00005  -0.00007  -0.00184  -0.00191   0.45472
   D54       -1.65052  -0.00010  -0.00021  -0.00264  -0.00285  -1.65338
   D55       -1.64537   0.00003   0.00062  -0.00089  -0.00027  -1.64564
   D56        2.58351   0.00003   0.00060  -0.00137  -0.00077   2.58274
   D57        0.47635  -0.00002   0.00046  -0.00217  -0.00172   0.47464
   D58        0.26251   0.00002   0.00027  -0.00046  -0.00019   0.26233
   D59       -1.82834  -0.00000   0.00032  -0.00109  -0.00077  -1.82911
   D60        2.38555  -0.00002   0.00003  -0.00110  -0.00107   2.38448
   D61       -2.96000  -0.00000   0.00025  -0.00075  -0.00051  -2.96051
   D62        1.23234  -0.00002   0.00030  -0.00139  -0.00110   1.23124
   D63       -0.83696  -0.00004   0.00001  -0.00140  -0.00139  -0.83835
   D64       -0.38391  -0.00007  -0.00035   0.00033  -0.00001  -0.38393
   D65        1.67001  -0.00006  -0.00035   0.00076   0.00041   1.67042
   D66       -2.51118   0.00003  -0.00015   0.00206   0.00191  -2.50928
   D67        1.64666  -0.00006  -0.00045   0.00070   0.00025   1.64692
   D68       -2.58260  -0.00005  -0.00046   0.00113   0.00068  -2.58192
   D69       -0.48061   0.00004  -0.00025   0.00243   0.00217  -0.47844
   D70       -2.44952   0.00005  -0.00013   0.00216   0.00203  -2.44750
   D71       -0.39560   0.00006  -0.00014   0.00259   0.00245  -0.39315
   D72        1.70639   0.00015   0.00007   0.00388   0.00394   1.71034
         Item               Value     Threshold  Converged?
 Maximum Force            0.002364     0.000450     NO 
 RMS     Force            0.000371     0.000300     NO 
 Maximum Displacement     0.041463     0.001800     NO 
 RMS     Displacement     0.007316     0.001200     NO 
 Predicted change in Energy=-3.339954D-05
 Lowest energy point so far.  Saving SCF results.
 GradGradGradGradGradGradGradGradGradGradGradGradGradGradGradGradGradGrad

 Leave Link  103 at Tue Jul 28 03:16:41 2026, MaxMem=  4026531840 cpu:               0.2 elap:               0.0
 (Enter /opt/packages/gaussian/g16RevC.01/g16/l202.exe)
                          Input orientation:                          
 ---------------------------------------------------------------------
 Center     Atomic      Atomic             Coordinates (Angstroms)
 Number     Number       Type             X           Y           Z
 ---------------------------------------------------------------------
      1          6           0        2.064549   -0.517778   -0.102714
      2          6           0        1.237663   -1.638617    0.066431
      3          6           0       -0.144842   -1.486929    0.098368
      4          6           0       -0.742689   -0.219473   -0.047149
      5          6           0        0.099658    0.907959   -0.210070
      6          6           0        1.473314    0.768649   -0.231383
      7          8           0        2.274658    1.868840   -0.447294
      8          1           0        1.666712   -2.628666    0.169195
      9          1           0       -0.757994   -2.372695    0.226997
     10          1           0       -0.298822    1.912326   -0.319373
     11          8           0        3.408963   -0.557281   -0.163045
     12          6           0        4.078025   -1.826675   -0.056957
     13          1           0        3.772976   -2.491921   -0.871657
     14          1           0        3.872875   -2.290911    0.913509
     15          1           0        5.141073   -1.597431   -0.142429
     16          6           0       -2.185822   -0.106520   -0.037607
     17          6           0       -3.158396   -1.237436    0.183429
     18          7           0       -2.852151    0.997928   -0.254966
     19          6           0       -4.320326    0.854570   -0.247600
     20          6           0       -4.509341   -0.523201    0.406264
     21          1           0       -2.861071   -1.875108    1.019491
     22          1           0       -3.162490   -1.862196   -0.720791
     23          1           0       -4.676472    0.894354   -1.283357
     24          1           0       -4.765068    1.681924    0.309962
     25          1           0       -4.695367   -0.404744    1.478562
     26          1           0       -5.347147   -1.071236   -0.030039
     27          1           0       -2.413549    1.886067   -0.488747
     28          6           0        2.820670    2.470219    0.746299
     29          1           0        2.012186    2.848010    1.383704
     30          1           0        3.443873    3.300597    0.406890
     31          1           0        3.431552    1.751557    1.303626
 ---------------------------------------------------------------------
                    Distance matrix (angstroms):
                    1          2          3          4          5
     1  C    0.000000
     2  C    1.403079   0.000000
     3  C    2.420970   1.391168   0.000000
     4  C    2.823590   2.438989   1.408915   0.000000
     5  C    2.430031   2.802955   2.427016   1.416755   0.000000
     6  C    1.421622   2.437038   2.795496   2.433310   1.380867
     7  O    2.420501   3.693443   4.172878   3.691280   2.389600
     8  H    2.165192   1.083900   2.142500   3.414122   3.886800
     9  H    3.393549   2.132440   1.084934   2.170658   3.418960
    10  H    3.396744   3.888294   3.428287   2.194468   1.086042
    11  O    1.346346   2.436491   3.682677   4.166984   3.619480
    12  C    2.401956   2.849254   4.239358   5.081583   4.830018
    13  H    2.721623   2.834774   4.159357   5.122017   5.048776
    14  H    2.728874   2.843830   4.177665   5.149481   5.072708
    15  H    3.260709   3.909210   5.292550   6.043716   5.630046
    16  C    4.270717   3.752119   2.467715   1.447577   2.506457
    17  C    5.280051   4.415877   3.025061   2.631550   3.920775
    18  N    5.147279   4.876602   3.691732   2.444398   2.953520
    19  C    6.532302   6.099659   4.799686   3.740753   4.420466
    20  C    6.593567   5.864103   4.480226   3.805982   4.865281
    21  H    5.231006   4.214721   2.894313   2.892471   4.245374
    22  H    5.432442   4.475607   3.149294   3.001295   4.310013
    23  H    6.987804   6.573802   5.302391   4.271238   4.895258
    24  H    7.186979   6.864261   5.606504   4.463448   4.953283
    25  H    6.943319   6.222331   4.876816   4.240964   5.250422
    26  H    7.432687   6.609913   5.220466   4.682608   5.798043
    27  H    5.097142   5.105190   4.107169   2.723982   2.711192
    28  C    3.196979   4.455409   4.987294   4.534483   3.280123
    29  H    3.679770   4.739717   5.009646   4.364187   3.156212
    30  H    4.091726   5.420250   5.991199   5.488565   4.158020
    31  H    2.999395   4.223396   4.973030   4.809765   3.755589
                    6          7          8          9         10
     6  C    0.000000
     7  O    1.378110   0.000000
     8  H    3.426312   4.580089   0.000000
     9  H    3.880321   5.257591   2.438864   0.000000
    10  H    2.110973   2.577024   4.972186   4.344049   0.000000
    11  O    2.347231   2.693233   2.726987   4.561950   4.457697
    12  C    3.681121   4.130536   2.551228   4.875023   5.762446
    13  H    4.041003   4.630472   2.353385   4.663790   6.023450
    14  H    4.053341   4.659357   2.352709   4.682193   6.048988
    15  H    4.365627   4.508249   3.637545   5.961249   6.476277
    16  C    3.767326   4.895484   4.609338   2.691516   2.777750
    17  C    5.064503   6.290058   5.021692   2.655681   4.283804
    18  N    4.331601   5.203810   5.809666   3.997359   2.712887
    19  C    5.794300   6.675510   6.939112   4.830186   4.158905
    20  C    6.153668   7.243829   6.529381   4.186331   4.918008
    21  H    5.228865   6.522600   4.668155   2.301863   4.764696
    22  H    5.352714   6.599849   4.969984   2.634486   4.754866
    23  H    6.240379   7.068722   7.399835   5.320644   4.596668
    24  H    6.328075   7.082804   7.743952   5.701181   4.516248
    25  H    6.507948   7.580194   6.865589   4.576260   5.284977
    26  H    7.067135   8.179856   7.187454   4.777048   5.871195
    27  H    4.052476   4.688421   6.120803   4.624955   2.121661
    28  C    2.380457   1.443763   5.259591   6.044033   3.343372
    29  H    2.687496   2.092897   5.620352   6.022261   3.019393
    30  H    3.271277   2.036326   6.194430   7.062173   4.057403
    31  H    2.675267   2.101875   4.856742   5.976694   4.071322
                   11         12         13         14         15
    11  O    0.000000
    12  C    1.438840   0.000000
    13  H    2.092240   1.095145   0.000000
    14  H    2.092763   1.095174   1.799223   0.000000
    15  H    2.020530   1.090838   1.789853   1.790041   0.000000
    16  C    5.614315   6.495774   6.472483   6.510299   7.477779
    17  C    6.611570   7.264350   7.122559   7.147139   8.313661
    18  N    6.452028   7.486316   7.513431   7.576791   8.404771
    19  C    7.857632   8.818034   8.780090   8.852727   9.774530
    20  C    7.938816   8.698073   8.608467   8.581587   9.725508
    21  H    6.515242   7.022260   6.925855   6.747603   8.090826
    22  H    6.722937   7.270970   6.965630   7.235406   8.327891
    23  H    8.290754   9.249286   9.112054   9.384214  10.192885
    24  H    8.488377   9.520777   9.576815   9.526896  10.444637
    25  H    8.270326   9.019541   9.032866   8.791568  10.040202
    26  H    8.772188   9.455436   9.268403   9.348085  10.502012
    27  H    6.322789   7.490756   7.588576   7.676756   8.326283
    28  C    3.215393   4.548567   5.305422   4.878879   4.766538
    29  H    3.992420   5.309979   6.058208   5.485595   5.646322
    30  H    3.899905   5.187121   5.941065   5.630779   5.212764
    31  H    2.735391   3.882377   4.780745   4.085156   4.028555
                   16         17         18         19         20
    16  C    0.000000
    17  C    1.507889   0.000000
    18  N    1.308069   2.298441   0.000000
    19  C    2.350298   2.431534   1.475177   0.000000
    20  C    2.401955   1.544293   2.344641   1.536723   0.000000
    21  H    2.168253   1.092716   3.143033   3.344561   2.218219
    22  H    2.122032   1.099070   2.914381   2.990872   2.208431
    23  H    2.959220   3.000091   2.096775   1.096000   2.211835
    24  H    3.157823   3.334676   2.108612   1.092330   2.221991
    25  H    2.947121   2.175552   2.893105   2.169369   1.094743
    26  H    3.305255   2.205407   3.249160   2.193267   1.092072
    27  H    2.055672   3.280684   1.017750   2.181270   3.316317
    28  C    5.684985   7.057816   5.945676   7.388639   7.924976
    29  H    5.326597   6.698242   5.456172   6.836349   7.406130
    30  H    6.595414   8.014589   6.736486   8.166651   8.824684
    31  H    6.066814   7.322317   6.517828   7.956287   8.308884
                   21         22         23         24         25
    21  H    0.000000
    22  H    1.766239   0.000000
    23  H    4.033449   3.194870   0.000000
    24  H    4.096476   4.023865   1.779545   0.000000
    25  H    2.395279   3.051398   3.052247   2.392627   0.000000
    26  H    2.815723   2.423939   2.425728   2.834485   1.773388
    27  H    4.076947   3.829391   2.595327   2.491837   3.784813
    28  C    7.158120   7.531294   7.925276   7.639059   8.080373
    29  H    6.796258   7.306998   7.461108   6.960162   7.455244
    30  H    8.180190   8.459913   8.636374   8.367569   9.006956
    31  H    7.268461   7.787096   8.553791   8.256924   8.409937
                   26         27         28         29         30
    26  H    0.000000
    27  H    4.190710   0.000000
    28  C    8.936321   5.409586   0.000000
    29  H    8.456887   4.900871   1.096657   0.000000
    30  H    9.827810   6.091999   1.092295   1.791292   0.000000
    31  H    9.317315   6.115218   1.095567   1.795333   1.789920
                   31
    31  H    0.000000
 Stoichiometry    C12H16NO2(1+)
 Framework group  C1[X(C12H16NO2)]
 Deg. of freedom    87
 Full point group                 C1      NOp   1
 RotChk:  IX=0 Diff= 1.22D-03
 Largest Abelian subgroup         C1      NOp   1
 Largest concise Abelian subgroup C1      NOp   1
                         Standard orientation:                         
 ---------------------------------------------------------------------
 Center     Atomic      Atomic             Coordinates (Angstroms)
 Number     Number       Type             X           Y           Z
 ---------------------------------------------------------------------
      1          6           0        2.063654   -0.514823   -0.102829
      2          6           0        1.237614   -1.636026    0.068021
      3          6           0       -0.145004   -1.485327    0.099771
      4          6           0       -0.743806   -0.218540   -0.047629
      5          6           0        0.097691    0.909278   -0.212265
      6          6           0        1.471451    0.770966   -0.233409
      7          8           0        2.271963    1.871433   -0.450992
      8          1           0        1.667407   -2.625598    0.172256
      9          1           0       -0.757488   -2.371359    0.229745
     10          1           0       -0.301545    1.913181   -0.323061
     11          8           0        3.408095   -0.553407   -0.163139
     12          6           0        4.078112   -1.822139   -0.055168
     13          1           0        3.773539   -2.488834   -0.868861
     14          1           0        3.873337   -2.285073    0.915999
     15          1           0        5.140985   -1.592226   -0.141015
     16          6           0       -2.187022   -0.106654   -0.038214
     17          6           0       -3.158742   -1.237967    0.184546
     18          7           0       -2.854185    0.996967   -0.257209
     19          6           0       -4.322253    0.852519   -0.249585
     20          6           0       -4.510216   -0.524412    0.406349
     21          1           0       -2.860915   -1.874162    1.021554
     22          1           0       -3.162393   -1.864085   -0.718736
     23          1           0       -4.678458    0.890483   -1.285390
     24          1           0       -4.767599    1.680374    0.306749
     25          1           0       -4.696300   -0.404487    1.478474
     26          1           0       -5.347623   -1.073728   -0.029107
     27          1           0       -2.416256    1.885082   -0.492334
     28          6           0        2.817557    2.475011    0.741682
     29          1           0        2.008809    2.853150    1.378543
     30          1           0        3.440128    3.305346    0.401010
     31          1           0        3.428994    1.757642    1.300068
 ---------------------------------------------------------------------
 Rotational constants (GHZ):           1.2839846           0.3044696           0.2528029
 Leave Link  202 at Tue Jul 28 03:16:41 2026, MaxMem=  4026531840 cpu:               0.0 elap:               0.0
 (Enter /opt/packages/gaussian/g16RevC.01/g16/l301.exe)
 Standard basis: 6-31+G(d) (6D, 7F)
 Ernie: Thresh=  0.10000D-02 Tol=  0.10000D-05 Strict=F.
 There are   317 symmetry adapted cartesian basis functions of A   symmetry.
 There are   317 symmetry adapted basis functions of A   symmetry.
   317 basis functions,   544 primitive gaussians,   317 cartesian basis functions
    55 alpha electrons       55 beta electrons
       nuclear repulsion energy       980.2837312134 Hartrees.
 IExCor=  402 DFT=T Ex+Corr=B3LYP ExCW=0 ScaHFX=  0.200000
 ScaDFX=  0.800000  0.720000  1.000000  0.810000 ScalE2=  1.000000  1.000000
 IRadAn=      5 IRanWt=     -1 IRanGd=            0 ICorTp=0 IEmpDi=  4
 NAtoms=   31 NActive=   31 NUniq=   31 SFac= 1.00D+00 NAtFMM=   60 NAOKFM=F Big=F
 Integral buffers will be    131072 words long.
 Raffenetti 2 integral format.
 Two-electron integral symmetry is turned on.
 ------------------------------------------------------------------------------
 Polarizable Continuum Model (PCM)
 =================================
 Model                : PCM.
 Atomic radii         : SMD-Coulomb.
 Polarization charges : Total charges.
 Charge compensation  : None.
 Solution method      : On-the-fly selection.
 Cavity type          : VdW (van der Waals Surface) (Alpha=1.000).
 Cavity algorithm     : GePol (No added spheres)
                        Default sphere list used, NSphG=   31.
                        Lebedev-Laikov grids with approx.  5.0 points / Ang**2.
                        Smoothing algorithm: York/Karplus (Gamma=1.0000).
                        Polarization charges: spherical gaussians, with
                                              point-specific exponents (IZeta= 3).
                        Self-potential: point-specific (ISelfS= 7).
                        Self-field    : sphere-specific E.n sum rule (ISelfD= 2).
 1st derivatives      : Analytical E(r).r(x)/FMM algorithm (CHGder, D1EAlg=3).
                        Cavity 1st derivative terms included.
 Solvent              : Methanol, Eps=  32.613000 Eps(inf)=   1.765709
 ------------------------------------------------------------------------------
 GePol: Number of generator spheres                  =      31
 GePol: Total number of spheres                      =      31
 GePol: Number of exposed spheres                    =      31 (100.00%)
 GePol: Number of points                             =    2261
 GePol: Average weight of points                     =       0.11
 GePol: Minimum weight of points                     =   0.33D-11
 GePol: Maximum weight of points                     =    0.21991
 GePol: Number of points with low weight             =     131
 GePol: Fraction of low-weight points (<1% of avg)   =       5.79%
 GePol: Cavity surface area                          =    247.407 Ang**2
 GePol: Cavity volume                                =    218.463 Ang**3
 ------------------------------------------------------------------------------
 Atomic radii for non-electrostatic terms: SMD-CDS.
 ------------------------------------------------------------------------------
 PCM non-electrostatic energy =         0.0015769529 Hartrees.
 Nuclear repulsion after PCM non-electrostatic terms =      980.2853081663 Hartrees.
 Leave Link  301 at Tue Jul 28 03:16:41 2026, MaxMem=  4026531840 cpu:               0.4 elap:               0.1
 (Enter /opt/packages/gaussian/g16RevC.01/g16/l302.exe)
 NPDir=0 NMtPBC=     1 NCelOv=     1 NCel=       1 NClECP=     1 NCelD=      1
         NCelK=      1 NCelE2=     1 NClLst=     1 CellRange=     0.0.
 One-electron integrals computed using PRISM.
 One-electron integral symmetry used in STVInt
 NBasis=   317 RedAO= T EigKep=  1.42D-06  NBF=   317
 NBsUse=   315 1.00D-06 EigRej=  7.81D-07 NBFU=   315
 Precomputing XC quadrature grid using
 IXCGrd= 4 IRadAn=           5 IRanWt=          -1 IRanGd=           0 AccXCQ= 0.00D+00.
 Generated NRdTot=       0 NPtTot=           0 NUsed=           0 NTot=          32
 NSgBfM=   316   316   316   316   316 MxSgAt=    31 MxSgA2=    31.
 Leave Link  302 at Tue Jul 28 03:16:42 2026, MaxMem=  4026531840 cpu:               1.7 elap:               0.2
 (Enter /opt/packages/gaussian/g16RevC.01/g16/l303.exe)
 DipDrv:  MaxL=1.
 Leave Link  303 at Tue Jul 28 03:16:42 2026, MaxMem=  4026531840 cpu:               0.2 elap:               0.0
 (Enter /opt/packages/gaussian/g16RevC.01/g16/l401.exe)
 Initial guess from the checkpoint file:  "dmp_s0_opt.chk"
 B after Tr=     0.000000   -0.000000    0.000000
         Rot=    1.000000   -0.000227    0.000005    0.000179 Ang=  -0.03 deg.
 Guess basis will be translated and rotated to current coordinates.
 JPrj=2 DoOrth=T DoCkMO=T.
 Generating alternative initial guess.
 ExpMin= 4.38D-02 ExpMax= 5.48D+03 ExpMxC= 8.25D+02 IAcc=3 IRadAn=         5 AccDes= 0.00D+00
 Harris functional with IExCor=  402 and IRadAn=       5 diagonalized for initial guess.
 HarFok:  IExCor=  402 AccDes= 0.00D+00 IRadAn=         5 IDoV= 1 UseB2=F ITyADJ=14
 ICtDFT=  3500011 ScaDFX=  1.000000  1.000000  1.000000  1.000000
 FoFCou: FMM=F IPFlag=           0 FMFlag=      100000 FMFlg1=           0
         NFxFlg=           0 DoJE=T BraDBF=F KetDBF=T FulRan=T
         wScrn=  0.000000 ICntrl=       500 IOpCl=  0 I1Cent=   200000004 NGrid=           0
         NMat0=    1 NMatS0=      1 NMatT0=    0 NMatD0=    1 NMtDS0=    0 NMtDT0=    0
 Petite list used in FoFCou.
 Harris En= -671.876849965581    
 Leave Link  401 at Tue Jul 28 03:16:43 2026, MaxMem=  4026531840 cpu:               8.3 elap:               1.1
 (Enter /opt/packages/gaussian/g16RevC.01/g16/l502.exe)
 Integral symmetry usage will be decided dynamically.
 Closed shell SCF:
 Using DIIS extrapolation, IDIIS=  1040.
 NGot=  4026531840 LenX=  4026324160 LenY=  4026223230
 Requested convergence on RMS density matrix=1.00D-08 within 128 cycles.
 Requested convergence on MAX density matrix=1.00D-06.
 Requested convergence on             energy=1.00D-06.
 No special actions if energy rises.
 Fock matrices will be formed incrementally for  20 cycles.

 Cycle   1  Pass 1  IDiag  1:
 FoFJK:  IHMeth= 1 ICntrl=       0 DoSepK=F KAlg= 0 I1Cent=           0 FoldK=F
 IRaf= 870000000 NMat=       1 IRICut=       1 DoRegI=T DoRafI=F ISym2E= 0 IDoP0=0 IntGTp=1.
 FoFCou: FMM=F IPFlag=           0 FMFlag=      100000 FMFlg1=           0
         NFxFlg=           0 DoJE=F BraDBF=F KetDBF=F FulRan=T
         wScrn=  0.000000 ICntrl=         0 IOpCl=  0 I1Cent=           0 NGrid=           0
         NMat0=    1 NMatS0=      1 NMatT0=    0 NMatD0=    1 NMtDS0=    0 NMtDT0=    0
 Symmetry not used in FoFCou.
 Inv3:  Mode=1 IEnd=    15336363.
 Iteration    1 A*A^-1 deviation from unit magnitude is 3.22D-15 for    289.
 Iteration    1 A*A^-1 deviation from orthogonality  is 2.88D-15 for   1215    785.
 Iteration    1 A^-1*A deviation from unit magnitude is 3.00D-15 for    228.
 Iteration    1 A^-1*A deviation from orthogonality  is 2.83D-15 for   1542    242.
 E= -671.981076305193    
 DIIS: error= 2.59D-04 at cycle   1 NSaved=   1.
 NSaved= 1 IEnMin= 1 EnMin= -671.981076305193     IErMin= 1 ErrMin= 2.59D-04
 ErrMax= 2.59D-04  0.00D+00 EMaxC= 1.00D-01 BMatC= 6.09D-05 BMatP= 6.09D-05
 IDIUse=3 WtCom= 9.97D-01 WtEn= 2.59D-03
 Coeff-Com:  0.100D+01
 Coeff-En:   0.100D+01
 Coeff:      0.100D+01
 Gap=     0.421 Goal=   None    Shift=    0.000
 RMSDP=5.89D-04 MaxDP=4.15D-02              OVMax= 2.58D-03

 Cycle   2  Pass 1  IDiag  1:
 RMSU=  4.69D-04    CP:  1.00D+00
 E= -671.981177068778     Delta-E=       -0.000100763586 Rises=F Damp=F
 DIIS: error= 3.68D-05 at cycle   2 NSaved=   2.
 NSaved= 2 IEnMin= 2 EnMin= -671.981177068778     IErMin= 2 ErrMin= 3.68D-05
 ErrMax= 3.68D-05  0.00D+00 EMaxC= 1.00D-01 BMatC= 1.25D-06 BMatP= 6.09D-05
 IDIUse=1 WtCom= 1.00D+00 WtEn= 0.00D+00
 Coeff-Com: -0.214D-01 0.102D+01
 Coeff:     -0.214D-01 0.102D+01
 Gap=     0.157 Goal=   None    Shift=    0.000
 RMSDP=8.97D-05 MaxDP=6.11D-03 DE=-1.01D-04 OVMax= 3.96D-04

 Cycle   3  Pass 1  IDiag  1:
 RMSU=  7.36D-05    CP:  1.01D+00  1.09D+00
 E= -671.981177704548     Delta-E=       -0.000000635769 Rises=F Damp=F
 DIIS: error= 3.43D-05 at cycle   3 NSaved=   3.
 NSaved= 3 IEnMin= 3 EnMin= -671.981177704548     IErMin= 3 ErrMin= 3.43D-05
 ErrMax= 3.43D-05  0.00D+00 EMaxC= 1.00D-01 BMatC= 1.12D-06 BMatP= 1.25D-06
 IDIUse=1 WtCom= 1.00D+00 WtEn= 0.00D+00
 Coeff-Com: -0.278D-01 0.506D+00 0.521D+00
 Coeff:     -0.278D-01 0.506D+00 0.521D+00
 Gap=     0.157 Goal=   None    Shift=    0.000
 RMSDP=2.76D-05 MaxDP=1.32D-03 DE=-6.36D-07 OVMax= 2.76D-04

 Cycle   4  Pass 1  IDiag  1:
 RMSU=  1.18D-05    CP:  1.01D+00  1.08D+00  6.77D-01
 E= -671.981178703784     Delta-E=       -0.000000999236 Rises=F Damp=F
 DIIS: error= 7.77D-06 at cycle   4 NSaved=   4.
 NSaved= 4 IEnMin= 4 EnMin= -671.981178703784     IErMin= 4 ErrMin= 7.77D-06
 ErrMax= 7.77D-06  0.00D+00 EMaxC= 1.00D-01 BMatC= 9.24D-08 BMatP= 1.12D-06
 IDIUse=1 WtCom= 1.00D+00 WtEn= 0.00D+00
 Coeff-Com: -0.108D-01 0.146D+00 0.261D+00 0.604D+00
 Coeff:     -0.108D-01 0.146D+00 0.261D+00 0.604D+00
 Gap=     0.156 Goal=   None    Shift=    0.000
 RMSDP=9.19D-06 MaxDP=1.14D-03 DE=-9.99D-07 OVMax= 8.75D-05

 Cycle   5  Pass 1  IDiag  1:
 RMSU=  5.60D-06    CP:  1.00D+00  1.07D+00  6.27D-01  9.44D-01
 E= -671.981178780378     Delta-E=       -0.000000076594 Rises=F Damp=F
 DIIS: error= 2.85D-06 at cycle   5 NSaved=   5.
 NSaved= 5 IEnMin= 5 EnMin= -671.981178780378     IErMin= 5 ErrMin= 2.85D-06
 ErrMax= 2.85D-06  0.00D+00 EMaxC= 1.00D-01 BMatC= 7.96D-09 BMatP= 9.24D-08
 IDIUse=1 WtCom= 1.00D+00 WtEn= 0.00D+00
 Coeff-Com: -0.337D-02 0.366D-01 0.937D-01 0.305D+00 0.568D+00
 Coeff:     -0.337D-02 0.366D-01 0.937D-01 0.305D+00 0.568D+00
 Gap=     0.157 Goal=   None    Shift=    0.000
 RMSDP=2.73D-06 MaxDP=3.21D-04 DE=-7.66D-08 OVMax= 3.07D-05

 Cycle   6  Pass 1  IDiag  1:
 RMSU=  1.53D-06    CP:  1.00D+00  1.07D+00  6.45D-01  9.23D-01  8.29D-01
 E= -671.981178787121     Delta-E=       -0.000000006744 Rises=F Damp=F
 DIIS: error= 1.38D-06 at cycle   6 NSaved=   6.
 NSaved= 6 IEnMin= 6 EnMin= -671.981178787121     IErMin= 6 ErrMin= 1.38D-06
 ErrMax= 1.38D-06  0.00D+00 EMaxC= 1.00D-01 BMatC= 1.10D-09 BMatP= 7.96D-09
 IDIUse=1 WtCom= 1.00D+00 WtEn= 0.00D+00
 Coeff-Com: -0.442D-03 0.665D-03 0.181D-01 0.891D-01 0.308D+00 0.584D+00
 Coeff:     -0.442D-03 0.665D-03 0.181D-01 0.891D-01 0.308D+00 0.584D+00
 Gap=     0.156 Goal=   None    Shift=    0.000
 RMSDP=7.14D-07 MaxDP=3.49D-05 DE=-6.74D-09 OVMax= 1.58D-05

 Cycle   7  Pass 1  IDiag  1:
 RMSU=  4.76D-07    CP:  1.00D+00  1.07D+00  6.49D-01  9.35D-01  8.22D-01
                    CP:  7.52D-01
 E= -671.981178788028     Delta-E=       -0.000000000907 Rises=F Damp=F
 DIIS: error= 3.29D-07 at cycle   7 NSaved=   7.
 NSaved= 7 IEnMin= 7 EnMin= -671.981178788028     IErMin= 7 ErrMin= 3.29D-07
 ErrMax= 3.29D-07  0.00D+00 EMaxC= 1.00D-01 BMatC= 1.18D-10 BMatP= 1.10D-09
 IDIUse=1 WtCom= 1.00D+00 WtEn= 0.00D+00
 Coeff-Com:  0.140D-03-0.418D-02-0.718D-03 0.143D-01 0.105D+00 0.316D+00
 Coeff-Com:  0.570D+00
 Coeff:      0.140D-03-0.418D-02-0.718D-03 0.143D-01 0.105D+00 0.316D+00
 Coeff:      0.570D+00
 Gap=     0.156 Goal=   None    Shift=    0.000
 RMSDP=3.26D-07 MaxDP=3.74D-05 DE=-9.07D-10 OVMax= 2.36D-06

 Cycle   8  Pass 1  IDiag  1:
 RMSU=  1.49D-07    CP:  1.00D+00  1.07D+00  6.48D-01  9.43D-01  8.52D-01
                    CP:  7.68D-01  5.61D-01
 E= -671.981178788133     Delta-E=       -0.000000000105 Rises=F Damp=F
 DIIS: error= 7.76D-08 at cycle   8 NSaved=   8.
 NSaved= 8 IEnMin= 8 EnMin= -671.981178788133     IErMin= 8 ErrMin= 7.76D-08
 ErrMax= 7.76D-08  0.00D+00 EMaxC= 1.00D-01 BMatC= 4.14D-12 BMatP= 1.18D-10
 IDIUse=1 WtCom= 1.00D+00 WtEn= 0.00D+00
 Coeff-Com:  0.813D-04-0.179D-02-0.119D-02 0.968D-03 0.260D-01 0.103D+00
 Coeff-Com:  0.232D+00 0.641D+00
 Coeff:      0.813D-04-0.179D-02-0.119D-02 0.968D-03 0.260D-01 0.103D+00
 Coeff:      0.232D+00 0.641D+00
 Gap=     0.156 Goal=   None    Shift=    0.000
 RMSDP=5.84D-08 MaxDP=3.33D-06 DE=-1.05D-10 OVMax= 7.74D-07

 Cycle   9  Pass 1  IDiag  1:
 RMSU=  4.08D-08    CP:  1.00D+00  1.07D+00  6.48D-01  9.44D-01  8.52D-01
                    CP:  7.75D-01  6.04D-01  9.67D-01
 E= -671.981178788146     Delta-E=       -0.000000000013 Rises=F Damp=F
 DIIS: error= 4.65D-08 at cycle   9 NSaved=   9.
 NSaved= 9 IEnMin= 9 EnMin= -671.981178788146     IErMin= 9 ErrMin= 4.65D-08
 ErrMax= 4.65D-08  0.00D+00 EMaxC= 1.00D-01 BMatC= 1.20D-12 BMatP= 4.14D-12
 IDIUse=1 WtCom= 1.00D+00 WtEn= 0.00D+00
 Coeff-Com:  0.221D-04-0.321D-03-0.453D-03-0.151D-02-0.176D-02 0.920D-02
 Coeff-Com:  0.338D-01 0.366D+00 0.596D+00
 Coeff:      0.221D-04-0.321D-03-0.453D-03-0.151D-02-0.176D-02 0.920D-02
 Coeff:      0.338D-01 0.366D+00 0.596D+00
 Gap=     0.156 Goal=   None    Shift=    0.000
 RMSDP=2.04D-08 MaxDP=1.70D-06 DE=-1.26D-11 OVMax= 4.76D-07

 Cycle  10  Pass 1  IDiag  1:
 RMSU=  1.15D-08    CP:  1.00D+00  1.07D+00  6.48D-01  9.44D-01  8.54D-01
                    CP:  7.80D-01  5.95D-01  1.00D+00  8.66D-01
 E= -671.981178788145     Delta-E=        0.000000000001 Rises=F Damp=F
 DIIS: error= 6.16D-09 at cycle  10 NSaved=  10.
 NSaved=10 IEnMin= 9 EnMin= -671.981178788146     IErMin=10 ErrMin= 6.16D-09
 ErrMax= 6.16D-09  0.00D+00 EMaxC= 1.00D-01 BMatC= 5.91D-14 BMatP= 1.20D-12
 IDIUse=1 WtCom= 1.00D+00 WtEn= 0.00D+00
 Coeff-Com:  0.215D-05 0.320D-04-0.874D-04-0.817D-03-0.362D-02-0.583D-02
 Coeff-Com: -0.966D-02 0.920D-01 0.248D+00 0.680D+00
 Coeff:      0.215D-05 0.320D-04-0.874D-04-0.817D-03-0.362D-02-0.583D-02
 Coeff:     -0.966D-02 0.920D-01 0.248D+00 0.680D+00
 Gap=     0.156 Goal=   None    Shift=    0.000
 RMSDP=7.87D-09 MaxDP=3.59D-07 DE= 1.02D-12 OVMax= 4.67D-08

 Error on total polarization charges =  0.05685
 SCF Done:  E(RB3LYP) =  -671.981178788     A.U. after   10 cycles
            NFock= 10  Conv=0.79D-08     -V/T= 2.0098
 KE= 6.654917562017D+02 PE=-3.505465679876D+03 EE= 1.187707436720D+03
 SMD-CDS (non-electrostatic) energy       (kcal/mol) =       0.99
 (included in total energy above)
 Leave Link  502 at Tue Jul 28 03:17:10 2026, MaxMem=  4026531840 cpu:             219.0 elap:              27.7
 (Enter /opt/packages/gaussian/g16RevC.01/g16/l701.exe)
 ... and contract with generalized density number  0.
 Compute integral first derivatives.
 D1PCM: PCM CHGder 1st derivatives, ID1Alg=3 FixD1E=F DoIter=F DoCFld=F I1PDM=0.
 GePol: Maximum number of non-zero 1st derivatives   =     261
 Leave Link  701 at Tue Jul 28 03:17:11 2026, MaxMem=  4026531840 cpu:               8.3 elap:               1.1
 (Enter /opt/packages/gaussian/g16RevC.01/g16/l702.exe)
 L702 exits ... SP integral derivatives will be done elsewhere.
 Leave Link  702 at Tue Jul 28 03:17:11 2026, MaxMem=  4026531840 cpu:               0.1 elap:               0.0
 (Enter /opt/packages/gaussian/g16RevC.01/g16/l703.exe)
 Integral derivatives from FoFJK, PRISM(SPDF).
 Compute integral first derivatives, UseDBF=F ICtDFT=           0.
 Calling FoFJK, ICntrl=      2127 FMM=F ISym2X=0 I1Cent= 0 IOpClX= 0 NMat=1 NMatS=1 NMatT=0.
 FoFJK:  IHMeth= 1 ICntrl=    2127 DoSepK=F KAlg= 0 I1Cent=           0 FoldK=F
 IRaf=         0 NMat=       1 IRICut=       1 DoRegI=T DoRafI=F ISym2E= 0 IDoP0=0 IntGTp=1.
 FoFCou: FMM=F IPFlag=           0 FMFlag=      100000 FMFlg1=         800
         NFxFlg=           0 DoJE=F BraDBF=F KetDBF=F FulRan=T
         wScrn=  0.000000 ICntrl=      2127 IOpCl=  0 I1Cent=           0 NGrid=           0
         NMat0=    1 NMatS0=      1 NMatT0=    0 NMatD0=    1 NMtDS0=    0 NMtDT0=    0
 Symmetry not used in FoFCou.
 Leave Link  703 at Tue Jul 28 03:17:19 2026, MaxMem=  4026531840 cpu:              59.1 elap:               7.4
 (Enter /opt/packages/gaussian/g16RevC.01/g16/l716.exe)
 Dipole        =-3.43827522D+00-5.63308667D-01 5.88186196D-01
 ***** Axes restored to original set *****
 -------------------------------------------------------------------
 Center     Atomic                   Forces (Hartrees/Bohr)
 Number     Number              X              Y              Z
 -------------------------------------------------------------------
      1        6          -0.000065978    0.000186061    0.000068026
      2        6          -0.000448705    0.000011733    0.000009271
      3        6           0.000443062   -0.000008941    0.000037976
      4        6          -0.000458389    0.000202373   -0.000012898
      5        6           0.000370074   -0.000183700   -0.000017707
      6        6          -0.000224362   -0.000127961    0.000048574
      7        8          -0.000155468   -0.000418575   -0.000537505
      8        1          -0.000098469    0.000125264   -0.000022935
      9        1          -0.000033700    0.000063290   -0.000019163
     10        1           0.000026945   -0.000057628    0.000022219
     11        8          -0.000399815    0.000641057   -0.000061737
     12        6           0.000587154   -0.000905735    0.000063975
     13        1           0.000026674    0.000126087    0.000060546
     14        1           0.000027920    0.000125992   -0.000087246
     15        1          -0.000093855   -0.000001357    0.000013517
     16        6           0.000569232   -0.000284217    0.000019008
     17        6          -0.000028860    0.000119670   -0.000135871
     18        7          -0.000314838    0.000125940    0.000068256
     19        6           0.000107725   -0.000056102   -0.000073009
     20        6          -0.000037698    0.000074555    0.000069173
     21        1          -0.000040289    0.000090245    0.000005346
     22        1          -0.000025677    0.000076650    0.000064220
     23        1          -0.000007436   -0.000018045    0.000068660
     24        1           0.000015513   -0.000046598    0.000028482
     25        1           0.000022320    0.000023407   -0.000080916
     26        1           0.000066455    0.000031203   -0.000053148
     27        1          -0.000015413   -0.000111025   -0.000026246
     28        6           0.000286725    0.000376949    0.000761470
     29        1           0.000038281   -0.000093702   -0.000138729
     30        1          -0.000058485   -0.000085042   -0.000024860
     31        1          -0.000080643   -0.000001848   -0.000116747
 -------------------------------------------------------------------
 Cartesian Forces:  Max     0.000905735 RMS     0.000226451
 Leave Link  716 at Tue Jul 28 03:17:19 2026, MaxMem=  4026531840 cpu:               0.1 elap:               0.0
 (Enter /opt/packages/gaussian/g16RevC.01/g16/l103.exe)

 GradGradGradGradGradGradGradGradGradGradGradGradGradGradGradGradGradGrad
 Berny optimization.
 Using GEDIIS/GDIIS optimizer.
 FormGI is forming the generalized inverse of G from B-inverse, IUseBI=4.
 Internal  Forces:  Max     0.000801739 RMS     0.000131600
 Search for a local minimum.
 Step number   3 out of a maximum of  170
 All quantities printed in internal units (Hartrees-Bohrs-Radians)
 RMS Force = .13160D-03 SwitMx=.10000D-02 MixMth= 2
 Mixed Optimization -- En-DIIS/RFO-DIIS
 Swapping is turned off.
 Update second derivatives using D2CorX and points    1    2    3
 DE= -3.52D-05 DEPred=-3.34D-05 R= 1.05D+00
 TightC=F SS=  1.41D+00  RLast= 2.06D-02 DXNew= 5.0454D-01 6.1889D-02
 Trust test= 1.05D+00 RLast= 2.06D-02 DXMaxT set to 3.00D-01
 ITU=  1  1  0
     Eigenvalues ---    0.00467   0.01120   0.01223   0.01280   0.01361
     Eigenvalues ---    0.01449   0.01840   0.01854   0.02006   0.02045
     Eigenvalues ---    0.02087   0.02144   0.02151   0.02169   0.02192
     Eigenvalues ---    0.02213   0.02264   0.02460   0.03361   0.03600
     Eigenvalues ---    0.04946   0.05222   0.05625   0.05910   0.06921
     Eigenvalues ---    0.07508   0.08408   0.08451   0.09415   0.10111
     Eigenvalues ---    0.10161   0.10627   0.10734   0.10990   0.14377
     Eigenvalues ---    0.15932   0.15999   0.16000   0.16000   0.16000
     Eigenvalues ---    0.16000   0.16000   0.16002   0.16060   0.21499
     Eigenvalues ---    0.22370   0.22645   0.23468   0.24292   0.24669
     Eigenvalues ---    0.24960   0.24984   0.24999   0.25004   0.27819
     Eigenvalues ---    0.28393   0.30748   0.31313   0.33895   0.33984
     Eigenvalues ---    0.34263   0.34325   0.34338   0.34364   0.34427
     Eigenvalues ---    0.34535   0.34651   0.34699   0.34718   0.34732
     Eigenvalues ---    0.34764   0.34899   0.35357   0.35468   0.35826
     Eigenvalues ---    0.40399   0.40805   0.42125   0.43121   0.44839
     Eigenvalues ---    0.44904   0.46554   0.46651   0.49712   0.50633
     Eigenvalues ---    0.59701   0.62554
 En-DIIS/RFO-DIIS/Sim-DIIS IScMMF=       -3 using points:     3    2
 RFO step:  Lambda=-9.85574420D-06.
 NNeg= 0 NGDIIS= 2 SimSw=  2.50D-03 Rises=F DC= -3.52D-05 SmlDif=  1.00D-05
 NRisDI= 0 DoIntr=F SqrtH=F CThrHd= 10.0 CDAdj=  3.0
 RMS Error=  0.9112739772D-03 NUsed= 2 OKEnD=T EnDIS=F
 InvSVX:  RCond= 1.06D-04 Info=           0 Equed=N FErr=  1.94D-15 BErr=  4.81D-17
 DidBck=F Rises=F RFO-DIIS coefs:    1.24854   -0.24854
 Iteration  1 RMS(Cart)=  0.00189892 RMS(Int)=  0.00000190
 Iteration  2 RMS(Cart)=  0.00000252 RMS(Int)=  0.00000046
 Iteration  3 RMS(Cart)=  0.00000000 RMS(Int)=  0.00000046
 ITry= 1 IFail=0 DXMaxC= 7.94D-03 DCOld= 1.00D+10 DXMaxT= 3.00D-01 DXLimC= 3.00D+00 Rises=F
 Variable       Old X    -DE/DX   Delta X   Delta X   Delta X     New X
                                 (Linear)    (Quad)   (Total)
    R1        2.65143   0.00003  -0.00022   0.00027   0.00005   2.65148
    R2        2.68648  -0.00035  -0.00038  -0.00055  -0.00093   2.68555
    R3        2.54423   0.00017  -0.00044   0.00054   0.00010   2.54433
    R4        2.62893  -0.00034  -0.00043  -0.00049  -0.00093   2.62800
    R5        2.04827  -0.00016   0.00011  -0.00048  -0.00037   2.04791
    R6        2.66246  -0.00005   0.00013  -0.00001   0.00011   2.66258
    R7        2.05023  -0.00004  -0.00001  -0.00009  -0.00011   2.05012
    R8        2.67728  -0.00013  -0.00006  -0.00015  -0.00021   2.67706
    R9        2.73552  -0.00032  -0.00122  -0.00036  -0.00158   2.73394
   R10        2.60946  -0.00032  -0.00027  -0.00046  -0.00073   2.60873
   R11        2.05232  -0.00006   0.00001  -0.00018  -0.00016   2.05216
   R12        2.60425  -0.00014  -0.00010  -0.00016  -0.00027   2.60398
   R13        2.72832   0.00056   0.00040   0.00139   0.00179   2.73010
   R14        2.71901   0.00080   0.00041   0.00196   0.00237   2.72139
   R15        2.06952  -0.00013  -0.00006  -0.00035  -0.00041   2.06911
   R16        2.06958  -0.00015  -0.00005  -0.00040  -0.00045   2.06913
   R17        2.06139  -0.00009  -0.00005  -0.00021  -0.00026   2.06112
   R18        2.84950  -0.00011  -0.00008  -0.00023  -0.00031   2.84919
   R19        2.47189   0.00015   0.00027   0.00026   0.00054   2.47243
   R20        2.91829  -0.00010   0.00003  -0.00023  -0.00020   2.91809
   R21        2.06493  -0.00005   0.00002  -0.00014  -0.00012   2.06481
   R22        2.07694  -0.00009  -0.00005  -0.00023  -0.00028   2.07666
   R23        2.78768  -0.00011  -0.00010  -0.00019  -0.00029   2.78739
   R24        1.92327  -0.00011   0.00001  -0.00023  -0.00022   1.92305
   R25        2.90399  -0.00020   0.00005  -0.00061  -0.00056   2.90343
   R26        2.07114  -0.00007  -0.00003  -0.00016  -0.00019   2.07095
   R27        2.06420  -0.00003  -0.00003  -0.00006  -0.00008   2.06412
   R28        2.06876  -0.00008  -0.00003  -0.00020  -0.00023   2.06854
   R29        2.06372  -0.00004  -0.00004  -0.00009  -0.00013   2.06359
   R30        2.07238  -0.00013  -0.00009  -0.00034  -0.00043   2.07195
   R31        2.06414  -0.00009  -0.00006  -0.00022  -0.00028   2.06386
   R32        2.07032  -0.00011  -0.00003  -0.00030  -0.00032   2.07000
    A1        2.08138  -0.00014   0.00034  -0.00072  -0.00039   2.08099
    A2        2.17786   0.00044  -0.00061   0.00203   0.00142   2.17928
    A3        2.02393  -0.00030   0.00027  -0.00132  -0.00104   2.02288
    A4        2.09593   0.00003  -0.00010   0.00020   0.00010   2.09603
    A5        2.10345   0.00002  -0.00026   0.00022  -0.00004   2.10341
    A6        2.08379  -0.00005   0.00036  -0.00042  -0.00006   2.08373
    A7        2.11461   0.00008  -0.00016   0.00046   0.00030   2.11492
    A8        2.06614   0.00002   0.00017   0.00011   0.00028   2.06642
    A9        2.10236  -0.00010  -0.00001  -0.00058  -0.00059   2.10178
   A10        2.06630  -0.00017   0.00018  -0.00078  -0.00060   2.06569
   A11        2.08581  -0.00006  -0.00015  -0.00017  -0.00032   2.08549
   A12        2.13105   0.00023  -0.00003   0.00095   0.00092   2.13197
   A13        2.10941   0.00006  -0.00015   0.00032   0.00016   2.10957
   A14        2.12864  -0.00003  -0.00018  -0.00009  -0.00027   2.12837
   A15        2.04512  -0.00003   0.00034  -0.00023   0.00011   2.04523
   A16        2.09857   0.00014  -0.00009   0.00053   0.00044   2.09901
   A17        2.08836  -0.00018  -0.00004  -0.00068  -0.00072   2.08764
   A18        2.09477   0.00005   0.00014   0.00016   0.00030   2.09506
   A19        2.00746  -0.00021  -0.00064  -0.00056  -0.00120   2.00626
   A20        2.07935   0.00061  -0.00202   0.00328   0.00125   2.08060
   A21        1.93001  -0.00006  -0.00065  -0.00007  -0.00072   1.92929
   A22        1.93072  -0.00006  -0.00061  -0.00013  -0.00074   1.92998
   A23        1.83586  -0.00004  -0.00062  -0.00013  -0.00075   1.83511
   A24        1.92787   0.00011   0.00038   0.00066   0.00104   1.92892
   A25        1.91858   0.00003   0.00073  -0.00015   0.00057   1.91916
   A26        1.91885   0.00002   0.00075  -0.00023   0.00052   1.91937
   A27        2.19624   0.00003   0.00014   0.00005   0.00019   2.19642
   A28        2.18050   0.00015  -0.00026   0.00069   0.00043   2.18093
   A29        1.90609  -0.00018   0.00012  -0.00074  -0.00062   1.90548
   A30        1.81163   0.00012  -0.00008   0.00070   0.00062   1.81225
   A31        1.95447  -0.00005  -0.00020  -0.00017  -0.00037   1.95410
   A32        1.88403  -0.00002   0.00010  -0.00001   0.00008   1.88411
   A33        1.97962  -0.00006  -0.00006  -0.00049  -0.00055   1.97906
   A34        1.95882  -0.00004  -0.00002  -0.00026  -0.00028   1.95855
   A35        1.87420   0.00005   0.00026   0.00023   0.00049   1.87468
   A36        2.00876   0.00006  -0.00014   0.00044   0.00030   2.00906
   A37        2.15970  -0.00006  -0.00022  -0.00031  -0.00053   2.15917
   A38        2.11164  -0.00000   0.00035  -0.00019   0.00016   2.11180
   A39        1.78408   0.00001   0.00005   0.00014   0.00019   1.78427
   A40        1.89142   0.00001  -0.00001   0.00040   0.00038   1.89181
   A41        1.91151   0.00002  -0.00043   0.00022  -0.00022   1.91129
   A42        1.97652  -0.00002   0.00011  -0.00029  -0.00018   1.97634
   A43        1.99524  -0.00004  -0.00004  -0.00048  -0.00051   1.99472
   A44        1.89925   0.00002   0.00027   0.00008   0.00036   1.89961
   A45        1.81900  -0.00001   0.00006  -0.00004   0.00002   1.81902
   A46        1.91775   0.00000   0.00004   0.00014   0.00018   1.91793
   A47        1.96208  -0.00001  -0.00035  -0.00024  -0.00059   1.96149
   A48        1.91841   0.00001   0.00006  -0.00001   0.00005   1.91847
   A49        1.95443  -0.00001  -0.00017  -0.00020  -0.00037   1.95406
   A50        1.89153   0.00002   0.00035   0.00034   0.00068   1.89222
   A51        1.92325  -0.00012  -0.00039  -0.00062  -0.00102   1.92223
   A52        1.84995  -0.00003  -0.00075   0.00011  -0.00063   1.84932
   A53        1.93714  -0.00011  -0.00072  -0.00042  -0.00115   1.93599
   A54        1.91701   0.00008   0.00069   0.00032   0.00100   1.91801
   A55        1.91918   0.00009   0.00049   0.00028   0.00077   1.91995
   A56        1.91625   0.00008   0.00067   0.00033   0.00100   1.91725
    D1        0.00716  -0.00001  -0.00009  -0.00062  -0.00071   0.00645
    D2       -3.13879  -0.00002   0.00027  -0.00115  -0.00088  -3.13967
    D3       -3.12733   0.00002  -0.00079   0.00137   0.00058  -3.12676
    D4        0.00990   0.00001  -0.00044   0.00084   0.00041   0.01031
    D5       -0.01698   0.00001   0.00045   0.00024   0.00069  -0.01629
    D6       -3.09990   0.00000   0.00031   0.00018   0.00048  -3.09942
    D7        3.11813  -0.00002   0.00109  -0.00156  -0.00047   3.11766
    D8        0.03521  -0.00003   0.00095  -0.00163  -0.00068   0.03453
    D9        0.00631  -0.00000   0.00032  -0.00028   0.00004   0.00635
   D10       -3.12840   0.00003  -0.00037   0.00165   0.00129  -3.12711
   D11        0.00863   0.00001  -0.00032   0.00064   0.00032   0.00895
   D12        3.13789  -0.00001   0.00018  -0.00037  -0.00019   3.13770
   D13       -3.12866   0.00002  -0.00067   0.00116   0.00049  -3.12817
   D14        0.00061   0.00000  -0.00017   0.00015  -0.00002   0.00059
   D15       -0.01451  -0.00000   0.00037  -0.00027   0.00009  -0.01441
   D16        3.11815  -0.00001   0.00039  -0.00058  -0.00018   3.11796
   D17        3.13967   0.00001  -0.00014   0.00075   0.00061   3.14028
   D18       -0.01086   0.00001  -0.00012   0.00045   0.00033  -0.01053
   D19        0.00455  -0.00000   0.00000  -0.00011  -0.00011   0.00444
   D20       -3.13315   0.00001  -0.00022   0.00038   0.00016  -3.13299
   D21       -3.12786   0.00000  -0.00003   0.00021   0.00018  -3.12768
   D22        0.01763   0.00001  -0.00025   0.00070   0.00045   0.01808
   D23        0.05426  -0.00001  -0.00083  -0.00048  -0.00131   0.05295
   D24       -3.05550  -0.00001  -0.00099  -0.00032  -0.00131  -3.05681
   D25       -3.09661  -0.00002  -0.00080  -0.00081  -0.00161  -3.09822
   D26        0.07681  -0.00002  -0.00096  -0.00065  -0.00160   0.07521
   D27        0.01106   0.00000  -0.00041   0.00012  -0.00028   0.01078
   D28        3.09376  -0.00000  -0.00027   0.00016  -0.00011   3.09366
   D29       -3.13424  -0.00001  -0.00020  -0.00034  -0.00054  -3.13478
   D30       -0.05154  -0.00001  -0.00006  -0.00030  -0.00036  -0.05190
   D31       -1.48889  -0.00004  -0.00014  -0.00215  -0.00229  -1.49117
   D32        1.71125  -0.00005  -0.00027  -0.00222  -0.00250   1.70875
   D33       -1.09346   0.00003   0.00033   0.00083   0.00116  -1.09231
   D34        3.11650   0.00001   0.00015   0.00072   0.00087   3.11737
   D35        1.03676  -0.00001   0.00019   0.00048   0.00067   1.03742
   D36        1.06223   0.00002  -0.00008  -0.00012  -0.00020   1.06203
   D37       -1.07929  -0.00003   0.00030  -0.00082  -0.00052  -1.07980
   D38        3.13273  -0.00000   0.00009  -0.00041  -0.00032   3.13241
   D39        2.92858  -0.00000  -0.00015   0.00090   0.00075   2.92933
   D40        0.78666   0.00002   0.00009   0.00113   0.00123   0.78788
   D41       -1.27277   0.00000  -0.00017   0.00095   0.00079  -1.27199
   D42       -0.24065   0.00000  -0.00002   0.00078   0.00076  -0.23989
   D43       -2.38257   0.00002   0.00023   0.00101   0.00124  -2.38133
   D44        1.84119   0.00000  -0.00004   0.00083   0.00080   1.84198
   D45        3.10001  -0.00000   0.00018  -0.00033  -0.00014   3.09986
   D46        0.04218   0.00001   0.00023   0.00059   0.00083   0.04300
   D47       -0.01426  -0.00001   0.00004  -0.00019  -0.00015  -0.01441
   D48       -3.07209   0.00001   0.00010   0.00072   0.00082  -3.07127
   D49        0.38428   0.00002  -0.00001  -0.00096  -0.00098   0.38330
   D50       -1.67052   0.00002  -0.00014  -0.00100  -0.00113  -1.67165
   D51        2.50456  -0.00000  -0.00037  -0.00136  -0.00173   2.50283
   D52        2.50953   0.00001  -0.00035  -0.00097  -0.00132   2.50820
   D53        0.45472   0.00001  -0.00047  -0.00101  -0.00148   0.45324
   D54       -1.65338  -0.00002  -0.00071  -0.00137  -0.00208  -1.65546
   D55       -1.64564   0.00000  -0.00007  -0.00123  -0.00130  -1.64694
   D56        2.58274  -0.00000  -0.00019  -0.00127  -0.00146   2.58128
   D57        0.47464  -0.00003  -0.00043  -0.00163  -0.00206   0.47258
   D58        0.26233   0.00001  -0.00005  -0.00047  -0.00052   0.26181
   D59       -1.82911   0.00002  -0.00019  -0.00039  -0.00058  -1.82969
   D60        2.38448  -0.00002  -0.00027  -0.00085  -0.00111   2.38337
   D61       -2.96051  -0.00001  -0.00013  -0.00137  -0.00150  -2.96200
   D62        1.23124   0.00000  -0.00027  -0.00129  -0.00156   1.22968
   D63       -0.83835  -0.00004  -0.00035  -0.00174  -0.00209  -0.84045
   D64       -0.38393   0.00000  -0.00000   0.00100   0.00100  -0.38293
   D65        1.67042   0.00000   0.00010   0.00114   0.00124   1.67166
   D66       -2.50928   0.00003   0.00047   0.00143   0.00190  -2.50738
   D67        1.64692   0.00002   0.00006   0.00142   0.00149   1.64840
   D68       -2.58192   0.00001   0.00017   0.00156   0.00173  -2.58020
   D69       -0.47844   0.00004   0.00054   0.00185   0.00238  -0.47605
   D70       -2.44750  -0.00000   0.00050   0.00089   0.00139  -2.44611
   D71       -0.39315  -0.00001   0.00061   0.00102   0.00163  -0.39152
   D72        1.71034   0.00002   0.00098   0.00131   0.00229   1.71263
         Item               Value     Threshold  Converged?
 Maximum Force            0.000802     0.000450     NO 
 RMS     Force            0.000132     0.000300     YES
 Maximum Displacement     0.007945     0.001800     NO 
 RMS     Displacement     0.001899     0.001200     NO 
 Predicted change in Energy=-4.928344D-06
 Lowest energy point so far.  Saving SCF results.
 GradGradGradGradGradGradGradGradGradGradGradGradGradGradGradGradGradGrad

 Leave Link  103 at Tue Jul 28 03:17:19 2026, MaxMem=  4026531840 cpu:               0.2 elap:               0.0
 (Enter /opt/packages/gaussian/g16RevC.01/g16/l202.exe)
                          Input orientation:                          
 ---------------------------------------------------------------------
 Center     Atomic      Atomic             Coordinates (Angstroms)
 Number     Number       Type             X           Y           Z
 ---------------------------------------------------------------------
      1          6           0        2.064055   -0.518779   -0.101816
      2          6           0        1.236331   -1.638950    0.067856
      3          6           0       -0.145586   -1.486408    0.099809
      4          6           0       -0.743048   -0.218802   -0.046560
      5          6           0        0.100276    0.907612   -0.210481
      6          6           0        1.473439    0.767259   -0.231782
      7          8           0        2.275863    1.866274   -0.448764
      8          1           0        1.664605   -2.629099    0.170842
      9          1           0       -0.759528   -2.371525    0.228656
     10          1           0       -0.297507    1.912101   -0.320342
     11          8           0        3.408506   -0.557479   -0.163060
     12          6           0        4.080578   -1.826755   -0.057529
     13          1           0        3.775525   -2.491871   -0.872041
     14          1           0        3.877079   -2.290470    0.913267
     15          1           0        5.142796   -1.594819   -0.144250
     16          6           0       -2.185344   -0.105902   -0.037078
     17          6           0       -3.158061   -1.236650    0.183078
     18          7           0       -2.852274    0.998655   -0.253751
     19          6           0       -4.320277    0.855093   -0.246751
     20          6           0       -4.509432   -0.523233    0.405206
     21          1           0       -2.861309   -1.873944    1.019548
     22          1           0       -3.161624   -1.861249   -0.721074
     23          1           0       -4.676669    0.896140   -1.282268
     24          1           0       -4.764939    1.681407    0.312329
     25          1           0       -4.696918   -0.406132    1.477277
     26          1           0       -5.345995   -1.071127   -0.033485
     27          1           0       -2.413648    1.886636   -0.487572
     28          6           0        2.819499    2.469380    0.746184
     29          1           0        2.008966    2.847220    1.380557
     30          1           0        3.443270    3.299093    0.406663
     31          1           0        3.428570    1.750506    1.304882
 ---------------------------------------------------------------------
                    Distance matrix (angstroms):
                    1          2          3          4          5
     1  C    0.000000
     2  C    1.403103   0.000000
     3  C    2.420635   1.390678   0.000000
     4  C    2.823627   2.438822   1.408974   0.000000
     5  C    2.429574   2.802333   2.426532   1.416642   0.000000
     6  C    1.421130   2.436358   2.794674   2.432989   1.380482
     7  O    2.419445   3.692440   4.171908   3.690952   2.389349
     8  H    2.165030   1.083707   2.141864   3.413736   3.885983
     9  H    3.393302   2.132130   1.084878   2.170307   3.418311
    10  H    3.396161   3.887585   3.427749   2.194130   1.085955
    11  O    1.346401   2.437466   3.682876   4.166974   3.618442
    12  C    2.403982   2.853197   4.242765   5.084585   4.831456
    13  H    2.723136   2.838730   4.162999   5.125014   5.049911
    14  H    2.730629   2.848288   4.182112   5.153508   5.074917
    15  H    3.261642   3.912468   5.295121   6.045339   5.629703
    16  C    4.269901   3.750881   2.466809   1.446740   2.506260
    17  C    5.278921   4.414273   3.023958   2.630787   3.920397
    18  N    5.147425   4.876175   3.691436   2.444169   2.954270
    19  C    6.532092   6.098780   4.799039   3.740307   4.421014
    20  C    6.593014   5.862801   4.479300   3.805578   4.865778
    21  H    5.230023   4.213264   2.893313   2.891905   4.245117
    22  H    5.430786   4.473683   3.148149   3.000353   4.308978
    23  H    6.988049   6.573667   5.302583   4.271235   4.895719
    24  H    7.186619   6.862928   5.605233   4.462645   4.954029
    25  H    6.943845   6.221717   4.876376   4.241493   5.252383
    26  H    7.430922   6.607550   5.218667   4.681213   5.797293
    27  H    5.097515   5.104959   4.106890   2.723649   2.712025
    28  C    3.196700   4.454764   4.985758   4.532825   3.278491
    29  H    3.678372   4.737707   5.006270   4.360130   3.152234
    30  H    4.091079   5.419376   5.989579   5.486916   4.156399
    31  H    2.998392   4.221913   4.970352   4.806970   3.752911
                    6          7          8          9         10
     6  C    0.000000
     7  O    1.377969   0.000000
     8  H    3.425478   4.578857   0.000000
     9  H    3.879447   5.256561   2.438464   0.000000
    10  H    2.110630   2.576980   4.971282   4.343307   0.000000
    11  O    2.346089   2.690555   2.728423   4.562533   4.456242
    12  C    3.681908   4.128986   2.555941   4.879068   5.763311
    13  H    4.041220   4.628345   2.358478   4.668267   6.024030
    14  H    4.054420   4.658062   2.358158   4.687578   6.050666
    15  H    4.364774   4.504575   3.642367   5.964877   6.475060
    16  C    3.766565   4.895031   4.607805   2.690096   2.777859
    17  C    5.063453   6.289268   5.019679   2.653862   4.283787
    18  N    4.331953   5.204669   5.808879   3.996301   2.713973
    19  C    5.794401   6.676253   6.937780   4.828666   4.159971
    20  C    6.153525   7.244255   6.527506   4.184392   4.919104
    21  H    5.227984   6.521941   4.666311   2.300127   4.764716
    22  H    5.350913   6.598094   4.967655   2.632952   4.754148
    23  H    6.240510   7.069200   7.399365   5.320200   4.597231
    24  H    6.328435   7.084231   7.742062   5.698823   4.517902
    25  H    6.509304   7.582423   6.864207   4.574371   5.287764
    26  H    7.065668   8.178845   7.184535   4.774457   5.871045
    27  H    4.053132   4.689716   6.120255   4.623963   2.122891
    28  C    2.380234   1.444708   5.259210   6.042486   3.341223
    29  H    2.685641   2.092822   5.618903   6.018865   3.014519
    30  H    3.270784   2.036557   6.193765   7.060531   4.055329
    31  H    2.674070   2.101764   4.855776   5.974075   4.068307
                   11         12         13         14         15
    11  O    0.000000
    12  C    1.440097   0.000000
    13  H    2.092661   1.094927   0.000000
    14  H    2.093154   1.094937   1.799500   0.000000
    15  H    2.020938   1.090698   1.789920   1.790059   0.000000
    16  C    5.613462   6.497964   6.474718   6.513714   7.478637
    17  C    6.610665   7.266637   7.124849   7.151008   8.315026
    18  N    6.451910   7.489051   7.516234   7.580532   8.405905
    19  C    7.857254   8.820572   8.782663   8.856458   9.775599
    20  C    7.938378   8.700665   8.610889   8.585734   9.727061
    21  H    6.514769   7.025107   6.928745   6.752086   8.093086
    22  H    6.721444   7.272618   6.967389   7.238691   8.328692
    23  H    8.290699   9.252217   9.115179   9.388369  10.194207
    24  H    8.487862   9.522981   9.579066   9.530027  10.445350
    25  H    8.271125   9.023206   9.036144   8.796719  10.043023
    26  H    8.770514   9.456841   9.269510   9.351376  10.502441
    27  H    6.322696   7.493276   7.591114   7.680092   8.326959
    28  C    3.214892   4.548962   5.305341   4.878787   4.765322
    29  H    3.991672   5.310906   6.058121   5.486717   5.646029
    30  H    3.898582   5.186131   5.939759   5.629213   5.209824
    31  H    2.735333   3.883049   4.780913   4.084606   4.028616
                   16         17         18         19         20
    16  C    0.000000
    17  C    1.507726   0.000000
    18  N    1.308354   2.298024   0.000000
    19  C    2.350619   2.431232   1.475023   0.000000
    20  C    2.402325   1.544186   2.344470   1.536427   0.000000
    21  H    2.167801   1.092652   3.142165   3.343613   2.217690
    22  H    2.121843   1.098921   2.914300   2.990982   2.208026
    23  H    2.959947   3.000367   2.096849   1.095900   2.211370
    24  H    3.157668   3.333740   2.108289   1.092286   2.221339
    25  H    2.948120   2.175498   2.893544   2.169059   1.094623
    26  H    3.304752   2.204847   3.248255   2.192693   1.092005
    27  H    2.055548   3.280067   1.017632   2.181126   3.316147
    28  C    5.682784   7.055705   5.944065   7.387032   7.923714
    29  H    5.321923   6.694037   5.451588   6.831985   7.402755
    30  H    6.593345   8.012523   6.735134   8.165338   8.823585
    31  H    6.063262   7.318829   6.514877   7.953236   8.306094
                   21         22         23         24         25
    21  H    0.000000
    22  H    1.766385   0.000000
    23  H    4.033269   3.195856   0.000000
    24  H    4.094447   4.023550   1.779656   0.000000
    25  H    2.394462   3.050777   3.051461   2.391558   0.000000
    26  H    2.815503   2.422508   2.424376   2.834371   1.773674
    27  H    4.076000   3.828921   2.594974   2.492093   3.785596
    28  C    7.156171   7.528681   7.923525   7.637594   8.080817
    29  H    6.792592   7.302160   7.456210   6.956006   7.454028
    30  H    8.178243   8.457278   8.634818   8.366630   9.007639
    31  H    7.265028   7.783311   8.550918   8.253698   8.408589
                   26         27         28         29         30
    26  H    0.000000
    27  H    4.189656   0.000000
    28  C    8.934113   5.408103   0.000000
    29  H    8.452716   4.896135   1.096429   0.000000
    30  H    9.825667   6.090827   1.092148   1.791615   0.000000
    31  H    9.313745   6.112523   1.095395   1.795491   1.790289
                   31
    31  H    0.000000
 Stoichiometry    C12H16NO2(1+)
 Framework group  C1[X(C12H16NO2)]
 Deg. of freedom    87
 Full point group                 C1      NOp   1
 RotChk:  IX=0 Diff= 4.57D-04
 Largest Abelian subgroup         C1      NOp   1
 Largest concise Abelian subgroup C1      NOp   1
                         Standard orientation:                         
 ---------------------------------------------------------------------
 Center     Atomic      Atomic             Coordinates (Angstroms)
 Number     Number       Type             X           Y           Z
 ---------------------------------------------------------------------
      1          6           0        2.063264   -0.515096   -0.101945
      2          6           0        1.236660   -1.635875    0.069166
      3          6           0       -0.145412   -1.484684    0.100840
      4          6           0       -0.744144   -0.217876   -0.047241
      5          6           0        0.098053    0.909170   -0.212608
      6          6           0        1.471358    0.770172   -0.233647
      7          8           0        2.272686    1.869708   -0.452040
      8          1           0        1.665926   -2.625455    0.173486
      9          1           0       -0.758469   -2.370249    0.230825
     10          1           0       -0.300737    1.913110   -0.323821
     11          8           0        3.407756   -0.552521   -0.163063
     12          6           0        4.081102   -1.820978   -0.055814
     13          1           0        3.776766   -2.487479   -0.869461
     14          1           0        3.878015   -2.283611    0.915584
     15          1           0        5.143090   -1.588086   -0.142783
     16          6           0       -2.186554   -0.106419   -0.037988
     17          6           0       -3.158143   -1.237854    0.183611
     18          7           0       -2.854585    0.997178   -0.256161
     19          6           0       -4.322443    0.852145   -0.249052
     20          6           0       -4.510245   -0.525506    0.404719
     21          1           0       -2.860795   -1.873741    1.020942
     22          1           0       -3.161025   -1.863654   -0.719713
     23          1           0       -4.678817    0.891461   -1.284642
     24          1           0       -4.767969    1.678750    0.308908
     25          1           0       -4.697910   -0.407175    1.476624
     26          1           0       -5.346230   -1.074825   -0.033291
     27          1           0       -2.416841    1.885290   -0.491134
     28          6           0        2.815646    2.474944    0.742139
     29          1           0        2.004696    2.852807    1.375965
     30          1           0        3.438599    3.304835    0.401553
     31          1           0        3.425410    1.757425    1.301821
 ---------------------------------------------------------------------
 Rotational constants (GHZ):           1.2848373           0.3044440           0.2528160
 Leave Link  202 at Tue Jul 28 03:17:19 2026, MaxMem=  4026531840 cpu:               0.0 elap:               0.0
 (Enter /opt/packages/gaussian/g16RevC.01/g16/l301.exe)
 Standard basis: 6-31+G(d) (6D, 7F)
 Ernie: Thresh=  0.10000D-02 Tol=  0.10000D-05 Strict=F.
 There are   317 symmetry adapted cartesian basis functions of A   symmetry.
 There are   317 symmetry adapted basis functions of A   symmetry.
   317 basis functions,   544 primitive gaussians,   317 cartesian basis functions
    55 alpha electrons       55 beta electrons
       nuclear repulsion energy       980.3397423863 Hartrees.
 IExCor=  402 DFT=T Ex+Corr=B3LYP ExCW=0 ScaHFX=  0.200000
 ScaDFX=  0.800000  0.720000  1.000000  0.810000 ScalE2=  1.000000  1.000000
 IRadAn=      5 IRanWt=     -1 IRanGd=            0 ICorTp=0 IEmpDi=  4
 NAtoms=   31 NActive=   31 NUniq=   31 SFac= 1.00D+00 NAtFMM=   60 NAOKFM=F Big=F
 Integral buffers will be    131072 words long.
 Raffenetti 2 integral format.
 Two-electron integral symmetry is turned on.
 ------------------------------------------------------------------------------
 Polarizable Continuum Model (PCM)
 =================================
 Model                : PCM.
 Atomic radii         : SMD-Coulomb.
 Polarization charges : Total charges.
 Charge compensation  : None.
 Solution method      : On-the-fly selection.
 Cavity type          : VdW (van der Waals Surface) (Alpha=1.000).
 Cavity algorithm     : GePol (No added spheres)
                        Default sphere list used, NSphG=   31.
                        Lebedev-Laikov grids with approx.  5.0 points / Ang**2.
                        Smoothing algorithm: York/Karplus (Gamma=1.0000).
                        Polarization charges: spherical gaussians, with
                                              point-specific exponents (IZeta= 3).
                        Self-potential: point-specific (ISelfS= 7).
                        Self-field    : sphere-specific E.n sum rule (ISelfD= 2).
 1st derivatives      : Analytical E(r).r(x)/FMM algorithm (CHGder, D1EAlg=3).
                        Cavity 1st derivative terms included.
 Solvent              : Methanol, Eps=  32.613000 Eps(inf)=   1.765709
 ------------------------------------------------------------------------------
 GePol: Number of generator spheres                  =      31
 GePol: Total number of spheres                      =      31
 GePol: Number of exposed spheres                    =      31 (100.00%)
 GePol: Number of points                             =    2261
 GePol: Average weight of points                     =       0.11
 GePol: Minimum weight of points                     =   0.29D-09
 GePol: Maximum weight of points                     =    0.21991
 GePol: Number of points with low weight             =     130
 GePol: Fraction of low-weight points (<1% of avg)   =       5.75%
 GePol: Cavity surface area                          =    247.419 Ang**2
 GePol: Cavity volume                                =    218.461 Ang**3
 ------------------------------------------------------------------------------
 Atomic radii for non-electrostatic terms: SMD-CDS.
 ------------------------------------------------------------------------------
 PCM non-electrostatic energy =         0.0015788023 Hartrees.
 Nuclear repulsion after PCM non-electrostatic terms =      980.3413211885 Hartrees.
 Leave Link  301 at Tue Jul 28 03:17:19 2026, MaxMem=  4026531840 cpu:               0.4 elap:               0.1
 (Enter /opt/packages/gaussian/g16RevC.01/g16/l302.exe)
 NPDir=0 NMtPBC=     1 NCelOv=     1 NCel=       1 NClECP=     1 NCelD=      1
         NCelK=      1 NCelE2=     1 NClLst=     1 CellRange=     0.0.
 One-electron integrals computed using PRISM.
 One-electron integral symmetry used in STVInt
 NBasis=   317 RedAO= T EigKep=  1.42D-06  NBF=   317
 NBsUse=   315 1.00D-06 EigRej=  7.82D-07 NBFU=   315
 Precomputing XC quadrature grid using
 IXCGrd= 4 IRadAn=           5 IRanWt=          -1 IRanGd=           0 AccXCQ= 0.00D+00.
 Generated NRdTot=       0 NPtTot=           0 NUsed=           0 NTot=          32
 NSgBfM=   316   316   316   316   316 MxSgAt=    31 MxSgA2=    31.
 Leave Link  302 at Tue Jul 28 03:17:19 2026, MaxMem=  4026531840 cpu:               1.7 elap:               0.2
 (Enter /opt/packages/gaussian/g16RevC.01/g16/l303.exe)
 DipDrv:  MaxL=1.
 Leave Link  303 at Tue Jul 28 03:17:19 2026, MaxMem=  4026531840 cpu:               0.1 elap:               0.0
 (Enter /opt/packages/gaussian/g16RevC.01/g16/l401.exe)
 Initial guess from the checkpoint file:  "dmp_s0_opt.chk"
 B after Tr=    -0.000000    0.000000   -0.000000
         Rot=    1.000000   -0.000013    0.000026   -0.000074 Ang=  -0.01 deg.
 Guess basis will be translated and rotated to current coordinates.
 JPrj=2 DoOrth=T DoCkMO=T.
 Leave Link  401 at Tue Jul 28 03:17:20 2026, MaxMem=  4026531840 cpu:               0.7 elap:               0.1
 (Enter /opt/packages/gaussian/g16RevC.01/g16/l502.exe)
 Integral symmetry usage will be decided dynamically.
 Closed shell SCF:
 Using DIIS extrapolation, IDIIS=  1040.
 NGot=  4026531840 LenX=  4026324160 LenY=  4026223230
 Requested convergence on RMS density matrix=1.00D-08 within 128 cycles.
 Requested convergence on MAX density matrix=1.00D-06.
 Requested convergence on             energy=1.00D-06.
 No special actions if energy rises.
 Fock matrices will be formed incrementally for  20 cycles.

 Cycle   1  Pass 1  IDiag  1:
 FoFJK:  IHMeth= 1 ICntrl=       0 DoSepK=F KAlg= 0 I1Cent=           0 FoldK=F
 IRaf= 870000000 NMat=       1 IRICut=       1 DoRegI=T DoRafI=F ISym2E= 0 IDoP0=0 IntGTp=1.
 FoFCou: FMM=F IPFlag=           0 FMFlag=      100000 FMFlg1=           0
         NFxFlg=           0 DoJE=F BraDBF=F KetDBF=F FulRan=T
         wScrn=  0.000000 ICntrl=         0 IOpCl=  0 I1Cent=           0 NGrid=           0
         NMat0=    1 NMatS0=      1 NMatT0=    0 NMatD0=    1 NMtDS0=    0 NMtDT0=    0
 Symmetry not used in FoFCou.
 Inv3:  Mode=1 IEnd=    15336363.
 Iteration    1 A*A^-1 deviation from unit magnitude is 3.00D-15 for    377.
 Iteration    1 A*A^-1 deviation from orthogonality  is 2.46D-15 for   1153    833.
 Iteration    1 A^-1*A deviation from unit magnitude is 2.89D-15 for   1500.
 Iteration    1 A^-1*A deviation from orthogonality  is 1.57D-15 for   2184    112.
 E= -671.981164835236    
 DIIS: error= 1.41D-04 at cycle   1 NSaved=   1.
 NSaved= 1 IEnMin= 1 EnMin= -671.981164835236     IErMin= 1 ErrMin= 1.41D-04
 ErrMax= 1.41D-04  0.00D+00 EMaxC= 1.00D-01 BMatC= 1.23D-05 BMatP= 1.23D-05
 IDIUse=3 WtCom= 9.99D-01 WtEn= 1.41D-03
 Coeff-Com:  0.100D+01
 Coeff-En:   0.100D+01
 Coeff:      0.100D+01
 Gap=     0.421 Goal=   None    Shift=    0.000
 RMSDP=2.37D-04 MaxDP=1.71D-02              OVMax= 9.16D-04

 Cycle   2  Pass 1  IDiag  1:
 RMSU=  2.14D-04    CP:  1.00D+00
 E= -671.981182939966     Delta-E=       -0.000018104731 Rises=F Damp=F
 DIIS: error= 3.64D-05 at cycle   2 NSaved=   2.
 NSaved= 2 IEnMin= 2 EnMin= -671.981182939966     IErMin= 2 ErrMin= 3.64D-05
 ErrMax= 3.64D-05  0.00D+00 EMaxC= 1.00D-01 BMatC= 6.04D-07 BMatP= 1.23D-05
 IDIUse=1 WtCom= 1.00D+00 WtEn= 0.00D+00
 Coeff-Com:  0.300D-01 0.970D+00
 Coeff:      0.300D-01 0.970D+00
 Gap=     0.157 Goal=   None    Shift=    0.000
 RMSDP=4.24D-05 MaxDP=2.56D-03 DE=-1.81D-05 OVMax= 7.37D-04

 Cycle   3  Pass 1  IDiag  1:
 RMSU=  3.33D-05    CP:  1.00D+00  1.12D+00
 E= -671.981182250328     Delta-E=        0.000000689638 Rises=F Damp=F
 DIIS: error= 6.10D-05 at cycle   3 NSaved=   3.
 NSaved= 3 IEnMin= 2 EnMin= -671.981182939966     IErMin= 2 ErrMin= 3.64D-05
 ErrMax= 6.10D-05  0.00D+00 EMaxC= 1.00D-01 BMatC= 1.53D-06 BMatP= 6.04D-07
 IDIUse=1 WtCom= 1.00D+00 WtEn= 0.00D+00
 Coeff-Com: -0.274D-01 0.633D+00 0.394D+00
 Coeff:     -0.274D-01 0.633D+00 0.394D+00
 Gap=     0.156 Goal=   None    Shift=    0.000
 RMSDP=1.56D-05 MaxDP=6.79D-04 DE= 6.90D-07 OVMax= 5.06D-04

 Cycle   4  Pass 1  IDiag  1:
 RMSU=  8.94D-06    CP:  1.00D+00  1.10D+00  6.54D-01
 E= -671.981183506610     Delta-E=       -0.000001256282 Rises=F Damp=F
 DIIS: error= 3.33D-06 at cycle   4 NSaved=   4.
 NSaved= 4 IEnMin= 4 EnMin= -671.981183506610     IErMin= 4 ErrMin= 3.33D-06
 ErrMax= 3.33D-06  0.00D+00 EMaxC= 1.00D-01 BMatC= 8.34D-09 BMatP= 6.04D-07
 IDIUse=1 WtCom= 1.00D+00 WtEn= 0.00D+00
 Coeff-Com: -0.849D-02 0.153D+00 0.126D+00 0.730D+00
 Coeff:     -0.849D-02 0.153D+00 0.126D+00 0.730D+00
 Gap=     0.156 Goal=   None    Shift=    0.000
 RMSDP=2.96D-06 MaxDP=1.76D-04 DE=-1.26D-06 OVMax= 3.78D-05

 Cycle   5  Pass 1  IDiag  1:
 RMSU=  2.34D-06    CP:  1.00D+00  1.11D+00  6.30D-01  8.37D-01
 E= -671.981183511824     Delta-E=       -0.000000005214 Rises=F Damp=F
 DIIS: error= 1.34D-06 at cycle   5 NSaved=   5.
 NSaved= 5 IEnMin= 5 EnMin= -671.981183511824     IErMin= 5 ErrMin= 1.34D-06
 ErrMax= 1.34D-06  0.00D+00 EMaxC= 1.00D-01 BMatC= 2.44D-09 BMatP= 8.34D-09
 IDIUse=1 WtCom= 1.00D+00 WtEn= 0.00D+00
 Coeff-Com: -0.237D-02 0.308D-01 0.382D-01 0.403D+00 0.530D+00
 Coeff:     -0.237D-02 0.308D-01 0.382D-01 0.403D+00 0.530D+00
 Gap=     0.156 Goal=   None    Shift=    0.000
 RMSDP=1.62D-06 MaxDP=1.24D-04 DE=-5.21D-09 OVMax= 1.90D-05

 Cycle   6  Pass 1  IDiag  1:
 RMSU=  7.57D-07    CP:  1.00D+00  1.11D+00  6.55D-01  9.19D-01  6.66D-01
 E= -671.981183514162     Delta-E=       -0.000000002338 Rises=F Damp=F
 DIIS: error= 3.12D-07 at cycle   6 NSaved=   6.
 NSaved= 6 IEnMin= 6 EnMin= -671.981183514162     IErMin= 6 ErrMin= 3.12D-07
 ErrMax= 3.12D-07  0.00D+00 EMaxC= 1.00D-01 BMatC= 1.15D-10 BMatP= 2.44D-09
 IDIUse=1 WtCom= 1.00D+00 WtEn= 0.00D+00
 Coeff-Com: -0.163D-03-0.369D-02 0.369D-02 0.103D+00 0.227D+00 0.670D+00
 Coeff:     -0.163D-03-0.369D-02 0.369D-02 0.103D+00 0.227D+00 0.670D+00
 Gap=     0.156 Goal=   None    Shift=    0.000
 RMSDP=2.87D-07 MaxDP=1.73D-05 DE=-2.34D-09 OVMax= 5.37D-06

 Cycle   7  Pass 1  IDiag  1:
 RMSU=  1.76D-07    CP:  1.00D+00  1.11D+00  6.59D-01  9.20D-01  6.66D-01
                    CP:  9.28D-01
 E= -671.981183514268     Delta-E=       -0.000000000106 Rises=F Damp=F
 DIIS: error= 1.32D-07 at cycle   7 NSaved=   7.
 NSaved= 7 IEnMin= 7 EnMin= -671.981183514268     IErMin= 7 ErrMin= 1.32D-07
 ErrMax= 1.32D-07  0.00D+00 EMaxC= 1.00D-01 BMatC= 2.05D-11 BMatP= 1.15D-10
 IDIUse=1 WtCom= 1.00D+00 WtEn= 0.00D+00
 Coeff-Com:  0.104D-03-0.481D-02-0.107D-02 0.246D-01 0.816D-01 0.374D+00
 Coeff-Com:  0.525D+00
 Coeff:      0.104D-03-0.481D-02-0.107D-02 0.246D-01 0.816D-01 0.374D+00
 Coeff:      0.525D+00
 Gap=     0.156 Goal=   None    Shift=    0.000
 RMSDP=1.02D-07 MaxDP=9.30D-06 DE=-1.06D-10 OVMax= 1.45D-06

 Cycle   8  Pass 1  IDiag  1:
 RMSU=  6.05D-08    CP:  1.00D+00  1.11D+00  6.59D-01  9.23D-01  6.77D-01
                    CP:  9.02D-01  7.95D-01
 E= -671.981183514284     Delta-E=       -0.000000000016 Rises=F Damp=F
 DIIS: error= 3.38D-08 at cycle   8 NSaved=   8.
 NSaved= 8 IEnMin= 8 EnMin= -671.981183514284     IErMin= 8 ErrMin= 3.38D-08
 ErrMax= 3.38D-08  0.00D+00 EMaxC= 1.00D-01 BMatC= 1.25D-12 BMatP= 2.05D-11
 IDIUse=1 WtCom= 1.00D+00 WtEn= 0.00D+00
 Coeff-Com:  0.646D-04-0.213D-02-0.764D-03 0.428D-02 0.216D-01 0.135D+00
 Coeff-Com:  0.259D+00 0.582D+00
 Coeff:      0.646D-04-0.213D-02-0.764D-03 0.428D-02 0.216D-01 0.135D+00
 Coeff:      0.259D+00 0.582D+00
 Gap=     0.156 Goal=   None    Shift=    0.000
 RMSDP=3.40D-08 MaxDP=3.13D-06 DE=-1.59D-11 OVMax= 3.48D-07

 Cycle   9  Pass 1  IDiag  1:
 RMSU=  2.35D-08    CP:  1.00D+00  1.11D+00  6.59D-01  9.23D-01  6.82D-01
                    CP:  9.01D-01  7.82D-01  9.53D-01
 E= -671.981183514285     Delta-E=       -0.000000000000 Rises=F Damp=F
 DIIS: error= 1.38D-08 at cycle   9 NSaved=   9.
 NSaved= 9 IEnMin= 9 EnMin= -671.981183514285     IErMin= 9 ErrMin= 1.38D-08
 ErrMax= 1.38D-08  0.00D+00 EMaxC= 1.00D-01 BMatC= 1.88D-13 BMatP= 1.25D-12
 IDIUse=1 WtCom= 1.00D+00 WtEn= 0.00D+00
 Coeff-Com:  0.152D-04-0.271D-03-0.165D-03-0.197D-02-0.339D-02 0.697D-02
 Coeff-Com:  0.442D-01 0.302D+00 0.653D+00
 Coeff:      0.152D-04-0.271D-03-0.165D-03-0.197D-02-0.339D-02 0.697D-02
 Coeff:      0.442D-01 0.302D+00 0.653D+00
 Gap=     0.156 Goal=   None    Shift=    0.000
 RMSDP=1.05D-08 MaxDP=5.09D-07 DE=-4.55D-13 OVMax= 1.22D-07

 Cycle  10  Pass 1  IDiag  1:
 RMSU=  6.32D-09    CP:  1.00D+00  1.11D+00  6.59D-01  9.23D-01  6.82D-01
                    CP:  9.04D-01  7.85D-01  1.03D+00  8.79D-01
 E= -671.981183514295     Delta-E=       -0.000000000010 Rises=F Damp=F
 DIIS: error= 3.99D-09 at cycle  10 NSaved=  10.
 NSaved=10 IEnMin=10 EnMin= -671.981183514295     IErMin=10 ErrMin= 3.99D-09
 ErrMax= 3.99D-09  0.00D+00 EMaxC= 1.00D-01 BMatC= 2.02D-14 BMatP= 1.88D-13
 IDIUse=1 WtCom= 1.00D+00 WtEn= 0.00D+00
 Coeff-Com:  0.178D-05 0.436D-04 0.745D-05-0.114D-02-0.324D-02-0.626D-02
 Coeff-Com:  0.187D-02 0.103D+00 0.329D+00 0.577D+00
 Coeff:      0.178D-05 0.436D-04 0.745D-05-0.114D-02-0.324D-02-0.626D-02
 Coeff:      0.187D-02 0.103D+00 0.329D+00 0.577D+00
 Gap=     0.156 Goal=   None    Shift=    0.000
 RMSDP=4.57D-09 MaxDP=5.78D-07 DE=-1.00D-11 OVMax= 7.84D-08

 Error on total polarization charges =  0.05682
 SCF Done:  E(RB3LYP) =  -671.981183514     A.U. after   10 cycles
            NFock= 10  Conv=0.46D-08     -V/T= 2.0097
 KE= 6.654974431451D+02 PE=-3.505587445710D+03 EE= 1.187767497862D+03
 SMD-CDS (non-electrostatic) energy       (kcal/mol) =       0.99
 (included in total energy above)
 Leave Link  502 at Tue Jul 28 03:17:48 2026, MaxMem=  4026531840 cpu:             225.7 elap:              28.6
 (Enter /opt/packages/gaussian/g16RevC.01/g16/l701.exe)
 ... and contract with generalized density number  0.
 Compute integral first derivatives.
 D1PCM: PCM CHGder 1st derivatives, ID1Alg=3 FixD1E=F DoIter=F DoCFld=F I1PDM=0.
 GePol: Maximum number of non-zero 1st derivatives   =     262
 Leave Link  701 at Tue Jul 28 03:17:49 2026, MaxMem=  4026531840 cpu:               8.2 elap:               1.0
 (Enter /opt/packages/gaussian/g16RevC.01/g16/l702.exe)
 L702 exits ... SP integral derivatives will be done elsewhere.
 Leave Link  702 at Tue Jul 28 03:17:49 2026, MaxMem=  4026531840 cpu:               0.1 elap:               0.0
 (Enter /opt/packages/gaussian/g16RevC.01/g16/l703.exe)
 Integral derivatives from FoFJK, PRISM(SPDF).
 Compute integral first derivatives, UseDBF=F ICtDFT=           0.
 Calling FoFJK, ICntrl=      2127 FMM=F ISym2X=0 I1Cent= 0 IOpClX= 0 NMat=1 NMatS=1 NMatT=0.
 FoFJK:  IHMeth= 1 ICntrl=    2127 DoSepK=F KAlg= 0 I1Cent=           0 FoldK=F
 IRaf=         0 NMat=       1 IRICut=       1 DoRegI=T DoRafI=F ISym2E= 0 IDoP0=0 IntGTp=1.
 FoFCou: FMM=F IPFlag=           0 FMFlag=      100000 FMFlg1=         800
         NFxFlg=           0 DoJE=F BraDBF=F KetDBF=F FulRan=T
         wScrn=  0.000000 ICntrl=      2127 IOpCl=  0 I1Cent=           0 NGrid=           0
         NMat0=    1 NMatS0=      1 NMatT0=    0 NMatD0=    1 NMtDS0=    0 NMtDT0=    0
 Symmetry not used in FoFCou.
 Leave Link  703 at Tue Jul 28 03:17:57 2026, MaxMem=  4026531840 cpu:              59.0 elap:               7.4
 (Enter /opt/packages/gaussian/g16RevC.01/g16/l716.exe)
 Dipole        =-3.43100586D+00-5.63922903D-01 5.89975542D-01
 ***** Axes restored to original set *****
 -------------------------------------------------------------------
 Center     Atomic                   Forces (Hartrees/Bohr)
 Number     Number              X              Y              Z
 -------------------------------------------------------------------
      1        6           0.000183213   -0.000047471   -0.000055855
      2        6          -0.000001039   -0.000046503    0.000025080
      3        6           0.000082785   -0.000004408    0.000009893
      4        6          -0.000003366    0.000043343   -0.000003086
      5        6           0.000017535   -0.000040425    0.000011151
      6        6          -0.000089207    0.000096537   -0.000003040
      7        8          -0.000018742   -0.000101209   -0.000190035
      8        1           0.000009964   -0.000025437    0.000007809
      9        1          -0.000004318    0.000000060    0.000000385
     10        1          -0.000003982    0.000016056   -0.000006580
     11        8          -0.000187257    0.000090170    0.000017980
     12        6           0.000088794   -0.000231464    0.000021852
     13        1          -0.000001495    0.000022997    0.000017008
     14        1          -0.000001386    0.000021437   -0.000007367
     15        1          -0.000021319   -0.000015409    0.000008621
     16        6          -0.000106562    0.000049642   -0.000022034
     17        6          -0.000029012    0.000016907   -0.000008819
     18        7          -0.000075025   -0.000035970    0.000037429
     19        6           0.000113296    0.000039657   -0.000028187
     20        6           0.000014755    0.000011001    0.000011899
     21        1          -0.000025216    0.000006570    0.000000732
     22        1           0.000002796   -0.000001421    0.000017490
     23        1          -0.000005945    0.000025791    0.000006642
     24        1          -0.000018188    0.000009805   -0.000007085
     25        1          -0.000017168   -0.000004389   -0.000021848
     26        1          -0.000001702    0.000008707    0.000004285
     27        1           0.000010778   -0.000002383   -0.000028067
     28        6           0.000052732    0.000092499    0.000187385
     29        1           0.000034132   -0.000003632   -0.000020743
     30        1           0.000002344   -0.000013922    0.000032544
     31        1          -0.000002195    0.000022865   -0.000015439
 -------------------------------------------------------------------
 Cartesian Forces:  Max     0.000231464 RMS     0.000058565
 Leave Link  716 at Tue Jul 28 03:17:57 2026, MaxMem=  4026531840 cpu:               0.1 elap:               0.0
 (Enter /opt/packages/gaussian/g16RevC.01/g16/l103.exe)

 GradGradGradGradGradGradGradGradGradGradGradGradGradGradGradGradGradGrad
 Berny optimization.
 Using GEDIIS/GDIIS optimizer.
 FormGI is forming the generalized inverse of G from B-inverse, IUseBI=4.
 Internal  Forces:  Max     0.000232445 RMS     0.000035533
 Search for a local minimum.
 Step number   4 out of a maximum of  170
 All quantities printed in internal units (Hartrees-Bohrs-Radians)
 RMS Force = .35533D-04 SwitMx=.10000D-02 MixMth= 2
 Mixed Optimization -- En-DIIS/RFO-DIIS
 Swapping is turned off.
 Update second derivatives using D2CorX and points    1    2    3    4
 DE= -4.73D-06 DEPred=-4.93D-06 R= 9.59D-01
 TightC=F SS=  1.41D+00  RLast= 1.15D-02 DXNew= 5.0454D-01 3.4589D-02
 Trust test= 9.59D-01 RLast= 1.15D-02 DXMaxT set to 3.00D-01
 ITU=  1  1  1  0
     Eigenvalues ---    0.00450   0.01121   0.01218   0.01280   0.01352
     Eigenvalues ---    0.01442   0.01825   0.01854   0.01955   0.02014
     Eigenvalues ---    0.02086   0.02144   0.02155   0.02171   0.02192
     Eigenvalues ---    0.02213   0.02272   0.02457   0.03361   0.03607
     Eigenvalues ---    0.04981   0.05221   0.05630   0.05931   0.06918
     Eigenvalues ---    0.07504   0.08392   0.08452   0.09413   0.10128
     Eigenvalues ---    0.10165   0.10636   0.10741   0.10991   0.13950
     Eigenvalues ---    0.15931   0.15999   0.16000   0.16000   0.16000
     Eigenvalues ---    0.16000   0.16000   0.16063   0.16105   0.21509
     Eigenvalues ---    0.22230   0.22491   0.23169   0.24245   0.24814
     Eigenvalues ---    0.24961   0.24988   0.24999   0.25438   0.27831
     Eigenvalues ---    0.28275   0.30156   0.31266   0.33795   0.33983
     Eigenvalues ---    0.34249   0.34328   0.34335   0.34365   0.34423
     Eigenvalues ---    0.34556   0.34642   0.34704   0.34719   0.34736
     Eigenvalues ---    0.34793   0.34966   0.35383   0.35469   0.36501
     Eigenvalues ---    0.40420   0.40913   0.42032   0.42465   0.44809
     Eigenvalues ---    0.45791   0.46424   0.46954   0.50079   0.52177
     Eigenvalues ---    0.59664   0.62743
 En-DIIS/RFO-DIIS/Sim-DIIS IScMMF=       -3 using points:     4    3    2
 RFO step:  Lambda=-1.06249773D-06.
 NNeg= 0 NGDIIS= 3 SimSw=  2.50D-01 Rises=F DC= -4.73D-06 SmlDif=  1.00D-05
 NRisDI= 0 DoIntr=F SqrtH=F CThrHd= 10.0 CDAdj=  3.0
 RMS Error=  0.5637850834D-03 NUsed= 3 OKEnD=F EnDIS=F
 InvSVX:  RCond= 7.98D-06 Info=           0 Equed=N FErr=  6.02D-15 BErr=  8.47D-17
 DidBck=F Rises=F RFO-DIIS coefs:    1.44297   -0.40288   -0.04009
 Iteration  1 RMS(Cart)=  0.00135994 RMS(Int)=  0.00000089
 Iteration  2 RMS(Cart)=  0.00000126 RMS(Int)=  0.00000015
 Iteration  3 RMS(Cart)=  0.00000000 RMS(Int)=  0.00000015
 ITry= 1 IFail=0 DXMaxC= 6.66D-03 DCOld= 1.00D+10 DXMaxT= 3.00D-01 DXLimC= 3.00D+00 Rises=F
 Variable       Old X    -DE/DX   Delta X   Delta X   Delta X     New X
                                 (Linear)    (Quad)   (Total)
    R1        2.65148   0.00002  -0.00002   0.00006   0.00005   2.65153
    R2        2.68555   0.00014  -0.00047   0.00071   0.00023   2.68578
    R3        2.54433  -0.00010  -0.00002  -0.00018  -0.00021   2.54412
    R4        2.62800   0.00002  -0.00048   0.00038  -0.00010   2.62790
    R5        2.04791   0.00003  -0.00014   0.00019   0.00005   2.04796
    R6        2.66258   0.00009   0.00007   0.00017   0.00024   2.66282
    R7        2.05012  -0.00000  -0.00005   0.00004  -0.00001   2.05011
    R8        2.67706   0.00002  -0.00011   0.00014   0.00003   2.67710
    R9        2.73394   0.00014  -0.00090   0.00097   0.00007   2.73401
   R10        2.60873   0.00003  -0.00037   0.00035  -0.00002   2.60872
   R11        2.05216   0.00002  -0.00007   0.00011   0.00004   2.05220
   R12        2.60398   0.00005  -0.00013   0.00021   0.00007   2.60406
   R13        2.73010   0.00023   0.00085   0.00002   0.00087   2.73097
   R14        2.72139   0.00018   0.00112  -0.00033   0.00078   2.72217
   R15        2.06911  -0.00003  -0.00019   0.00006  -0.00014   2.06898
   R16        2.06913  -0.00003  -0.00021   0.00007  -0.00013   2.06900
   R17        2.06112  -0.00002  -0.00013   0.00004  -0.00008   2.06104
   R18        2.84919   0.00002  -0.00015   0.00022   0.00007   2.84926
   R19        2.47243  -0.00002   0.00028  -0.00020   0.00008   2.47251
   R20        2.91809  -0.00001  -0.00009   0.00005  -0.00003   2.91805
   R21        2.06481  -0.00000  -0.00005   0.00003  -0.00002   2.06479
   R22        2.07666  -0.00001  -0.00013   0.00007  -0.00006   2.07660
   R23        2.78739  -0.00007  -0.00014  -0.00010  -0.00025   2.78714
   R24        1.92305   0.00000  -0.00010   0.00008  -0.00002   1.92303
   R25        2.90343   0.00002  -0.00024   0.00027   0.00003   2.90346
   R26        2.07095  -0.00001  -0.00009   0.00004  -0.00004   2.07091
   R27        2.06412   0.00001  -0.00004   0.00006   0.00002   2.06414
   R28        2.06854  -0.00002  -0.00010   0.00003  -0.00007   2.06846
   R29        2.06359  -0.00000  -0.00006   0.00004  -0.00002   2.06357
   R30        2.07195  -0.00003  -0.00020   0.00006  -0.00015   2.07180
   R31        2.06386  -0.00002  -0.00013   0.00004  -0.00009   2.06377
   R32        2.07000  -0.00003  -0.00015   0.00002  -0.00013   2.06987
    A1        2.08099  -0.00002  -0.00012   0.00003  -0.00009   2.08091
    A2        2.17928  -0.00007   0.00053  -0.00073  -0.00020   2.17908
    A3        2.02288   0.00009  -0.00042   0.00071   0.00029   2.02318
    A4        2.09603  -0.00001   0.00003  -0.00006  -0.00004   2.09599
    A5        2.10341  -0.00000  -0.00006  -0.00000  -0.00006   2.10335
    A6        2.08373   0.00001   0.00003   0.00007   0.00010   2.08383
    A7        2.11492   0.00005   0.00011   0.00014   0.00025   2.11516
    A8        2.06642  -0.00003   0.00015  -0.00023  -0.00008   2.06634
    A9        2.10178  -0.00002  -0.00026   0.00010  -0.00017   2.10161
   A10        2.06569  -0.00005  -0.00024  -0.00006  -0.00030   2.06540
   A11        2.08549   0.00006  -0.00017   0.00039   0.00022   2.08571
   A12        2.13197  -0.00001   0.00040  -0.00033   0.00008   2.13205
   A13        2.10957   0.00003   0.00005   0.00012   0.00016   2.10974
   A14        2.12837  -0.00002  -0.00015  -0.00000  -0.00015   2.12822
   A15        2.04523  -0.00001   0.00010  -0.00011  -0.00001   2.04522
   A16        2.09901  -0.00001   0.00018  -0.00017   0.00001   2.09902
   A17        2.08764   0.00001  -0.00033   0.00030  -0.00002   2.08761
   A18        2.09506  -0.00001   0.00015  -0.00013   0.00002   2.09508
   A19        2.00626  -0.00001  -0.00063   0.00040  -0.00023   2.00603
   A20        2.08060  -0.00001   0.00023  -0.00034  -0.00011   2.08049
   A21        1.92929  -0.00002  -0.00042   0.00013  -0.00029   1.92900
   A22        1.92998  -0.00002  -0.00043   0.00017  -0.00026   1.92972
   A23        1.83511  -0.00000  -0.00043   0.00026  -0.00017   1.83494
   A24        1.92892   0.00003   0.00052  -0.00016   0.00036   1.92928
   A25        1.91916   0.00001   0.00037  -0.00020   0.00017   1.91933
   A26        1.91937   0.00000   0.00035  -0.00019   0.00016   1.91953
   A27        2.19642   0.00004   0.00010   0.00009   0.00019   2.19661
   A28        2.18093  -0.00002   0.00015  -0.00025  -0.00010   2.18083
   A29        1.90548  -0.00002  -0.00026   0.00016  -0.00009   1.90538
   A30        1.81225  -0.00000   0.00026  -0.00009   0.00017   1.81242
   A31        1.95410   0.00002  -0.00020   0.00028   0.00009   1.95419
   A32        1.88411  -0.00000   0.00005  -0.00003   0.00002   1.88414
   A33        1.97906  -0.00001  -0.00025   0.00004  -0.00021   1.97885
   A34        1.95855   0.00001  -0.00012   0.00011  -0.00002   1.95853
   A35        1.87468  -0.00001   0.00026  -0.00029  -0.00003   1.87465
   A36        2.00906   0.00003   0.00011   0.00007   0.00017   2.00923
   A37        2.15917  -0.00002  -0.00027   0.00005  -0.00021   2.15896
   A38        2.11180  -0.00001   0.00013  -0.00014  -0.00001   2.11179
   A39        1.78427  -0.00000   0.00009   0.00001   0.00010   1.78437
   A40        1.89181   0.00000   0.00017  -0.00011   0.00006   1.89186
   A41        1.91129   0.00001  -0.00017   0.00030   0.00014   1.91143
   A42        1.97634   0.00000  -0.00006   0.00006  -0.00000   1.97633
   A43        1.99472  -0.00001  -0.00023   0.00008  -0.00015   1.99457
   A44        1.89961  -0.00001   0.00020  -0.00031  -0.00011   1.89950
   A45        1.81902  -0.00000   0.00002   0.00011   0.00012   1.81914
   A46        1.91793   0.00000   0.00008  -0.00007   0.00002   1.91794
   A47        1.96149  -0.00000  -0.00032   0.00017  -0.00015   1.96134
   A48        1.91847   0.00001   0.00003   0.00007   0.00010   1.91857
   A49        1.95406   0.00001  -0.00019   0.00017  -0.00002   1.95404
   A50        1.89222  -0.00001   0.00036  -0.00042  -0.00006   1.89215
   A51        1.92223   0.00000  -0.00051   0.00038  -0.00014   1.92209
   A52        1.84932   0.00004  -0.00040   0.00050   0.00009   1.84941
   A53        1.93599   0.00001  -0.00062   0.00048  -0.00015   1.93585
   A54        1.91801  -0.00002   0.00055  -0.00054   0.00001   1.91802
   A55        1.91995  -0.00000   0.00042  -0.00028   0.00014   1.92009
   A56        1.91725  -0.00002   0.00055  -0.00052   0.00003   1.91728
    D1        0.00645   0.00000  -0.00033   0.00047   0.00015   0.00660
    D2       -3.13967   0.00000  -0.00035   0.00046   0.00011  -3.13956
    D3       -3.12676  -0.00000   0.00013  -0.00033  -0.00020  -3.12696
    D4        0.01031  -0.00001   0.00011  -0.00035  -0.00024   0.01007
    D5       -0.01629  -0.00001   0.00038  -0.00062  -0.00024  -0.01653
    D6       -3.09942  -0.00001   0.00026  -0.00070  -0.00043  -3.09985
    D7        3.11766   0.00000  -0.00003   0.00011   0.00008   3.11773
    D8        0.03453  -0.00000  -0.00015   0.00003  -0.00012   0.03441
    D9        0.00635   0.00001   0.00007   0.00040   0.00047   0.00682
   D10       -3.12711   0.00000   0.00051  -0.00037   0.00014  -3.12697
   D11        0.00895   0.00000   0.00009  -0.00009  -0.00000   0.00895
   D12        3.13770  -0.00000  -0.00006  -0.00008  -0.00014   3.13756
   D13       -3.12817   0.00000   0.00011  -0.00008   0.00003  -3.12813
   D14        0.00059  -0.00000  -0.00004  -0.00006  -0.00010   0.00049
   D15       -0.01441  -0.00000   0.00010  -0.00015  -0.00005  -0.01446
   D16        3.11796  -0.00000  -0.00002  -0.00009  -0.00011   3.11785
   D17        3.14028   0.00000   0.00025  -0.00016   0.00009   3.14037
   D18       -0.01053   0.00000   0.00013  -0.00010   0.00003  -0.01050
   D19        0.00444  -0.00000  -0.00005   0.00000  -0.00005   0.00439
   D20       -3.13299   0.00000   0.00003   0.00010   0.00013  -3.13286
   D21       -3.12768  -0.00000   0.00008  -0.00006   0.00001  -3.12766
   D22        0.01808   0.00000   0.00016   0.00003   0.00019   0.01827
   D23        0.05295  -0.00000  -0.00071   0.00038  -0.00033   0.05262
   D24       -3.05681  -0.00000  -0.00074   0.00037  -0.00037  -3.05717
   D25       -3.09822  -0.00000  -0.00084   0.00044  -0.00040  -3.09862
   D26        0.07521  -0.00000  -0.00087   0.00043  -0.00043   0.07477
   D27        0.01078   0.00001  -0.00019   0.00038   0.00019   0.01097
   D28        3.09366   0.00001  -0.00009   0.00047   0.00038   3.09404
   D29       -3.13478   0.00000  -0.00027   0.00029   0.00002  -3.13476
   D30       -0.05190   0.00001  -0.00017   0.00038   0.00021  -0.05169
   D31       -1.49117  -0.00004  -0.00104  -0.00146  -0.00249  -1.49367
   D32        1.70875  -0.00005  -0.00115  -0.00154  -0.00269   1.70606
   D33       -1.09231   0.00000   0.00056  -0.00009   0.00047  -1.09183
   D34        3.11737   0.00001   0.00041   0.00007   0.00048   3.11785
   D35        1.03742   0.00001   0.00033   0.00013   0.00046   1.03788
   D36        1.06203   0.00000  -0.00010  -0.00002  -0.00013   1.06191
   D37       -1.07980  -0.00001  -0.00018  -0.00003  -0.00021  -1.08001
   D38        3.13241  -0.00000  -0.00013  -0.00004  -0.00017   3.13224
   D39        2.92933   0.00000   0.00031   0.00049   0.00080   2.93012
   D40        0.78788   0.00001   0.00056   0.00034   0.00090   0.78878
   D41       -1.27199   0.00001   0.00032   0.00055   0.00087  -1.27112
   D42       -0.23989   0.00000   0.00033   0.00049   0.00082  -0.23906
   D43       -2.38133   0.00001   0.00058   0.00034   0.00093  -2.38041
   D44        1.84198   0.00001   0.00035   0.00055   0.00090   1.84288
   D45        3.09986  -0.00000  -0.00003  -0.00021  -0.00024   3.09962
   D46        0.04300   0.00000   0.00040   0.00002   0.00043   0.04343
   D47       -0.01441  -0.00000  -0.00006  -0.00021  -0.00027  -0.01468
   D48       -3.07127   0.00000   0.00038   0.00001   0.00039  -3.07088
   D49        0.38330  -0.00001  -0.00043  -0.00060  -0.00103   0.38227
   D50       -1.67165  -0.00001  -0.00052  -0.00070  -0.00123  -1.67288
   D51        2.50283  -0.00000  -0.00083  -0.00023  -0.00106   2.50177
   D52        2.50820   0.00000  -0.00064  -0.00029  -0.00093   2.50727
   D53        0.45324  -0.00000  -0.00073  -0.00039  -0.00113   0.45212
   D54       -1.65546   0.00001  -0.00104   0.00008  -0.00096  -1.65642
   D55       -1.64694  -0.00001  -0.00059  -0.00056  -0.00115  -1.64809
   D56        2.58128  -0.00001  -0.00068  -0.00067  -0.00134   2.57994
   D57        0.47258  -0.00000  -0.00098  -0.00020  -0.00118   0.47140
   D58        0.26181  -0.00000  -0.00024  -0.00017  -0.00041   0.26140
   D59       -1.82969  -0.00000  -0.00029  -0.00020  -0.00048  -1.83018
   D60        2.38337  -0.00000  -0.00054   0.00007  -0.00047   2.38290
   D61       -2.96200  -0.00001  -0.00068  -0.00038  -0.00107  -2.96307
   D62        1.22968  -0.00001  -0.00073  -0.00041  -0.00114   1.22854
   D63       -0.84045  -0.00001  -0.00098  -0.00014  -0.00112  -0.84157
   D64       -0.38293   0.00000   0.00044   0.00044   0.00089  -0.38204
   D65        1.67166   0.00001   0.00057   0.00046   0.00102   1.67268
   D66       -2.50738   0.00000   0.00092   0.00008   0.00100  -2.50638
   D67        1.64840   0.00001   0.00067   0.00034   0.00101   1.64941
   D68       -2.58020   0.00001   0.00079   0.00035   0.00115  -2.57905
   D69       -0.47605   0.00001   0.00114  -0.00002   0.00112  -0.47493
   D70       -2.44611  -0.00001   0.00070   0.00003   0.00073  -2.44538
   D71       -0.39152  -0.00001   0.00082   0.00005   0.00087  -0.39065
   D72        1.71263  -0.00001   0.00117  -0.00033   0.00084   1.71347
         Item               Value     Threshold  Converged?
 Maximum Force            0.000232     0.000450     YES
 RMS     Force            0.000036     0.000300     YES
 Maximum Displacement     0.006657     0.001800     NO 
 RMS     Displacement     0.001360     0.001200     NO 
 Predicted change in Energy=-5.307222D-07
 Lowest energy point so far.  Saving SCF results.
 GradGradGradGradGradGradGradGradGradGradGradGradGradGradGradGradGradGrad

 Leave Link  103 at Tue Jul 28 03:17:57 2026, MaxMem=  4026531840 cpu:               0.2 elap:               0.0
 (Enter /opt/packages/gaussian/g16RevC.01/g16/l202.exe)
                          Input orientation:                          
 ---------------------------------------------------------------------
 Center     Atomic      Atomic             Coordinates (Angstroms)
 Number     Number       Type             X           Y           Z
 ---------------------------------------------------------------------
      1          6           0        2.064719   -0.519301   -0.102285
      2          6           0        1.236918   -1.639367    0.067907
      3          6           0       -0.144918   -1.486636    0.100177
      4          6           0       -0.742617   -0.219017   -0.046353
      5          6           0        0.100886    0.907218   -0.210728
      6          6           0        1.474034    0.766841   -0.232256
      7          8           0        2.276491    1.865880   -0.449239
      8          1           0        1.665194   -2.629532    0.171005
      9          1           0       -0.758873   -2.371698    0.229294
     10          1           0       -0.296898    1.911727   -0.320618
     11          8           0        3.409044   -0.558387   -0.163617
     12          6           0        4.080802   -1.828309   -0.058185
     13          1           0        3.775165   -2.493015   -0.872715
     14          1           0        3.877189   -2.291662    0.912680
     15          1           0        5.143016   -1.596646   -0.145139
     16          6           0       -2.184938   -0.105972   -0.036652
     17          6           0       -3.157981   -1.236491    0.183483
     18          7           0       -2.851698    0.998787   -0.253086
     19          6           0       -4.319620    0.855718   -0.246296
     20          6           0       -4.509439   -0.522991    0.404695
     21          1           0       -2.861881   -1.873493    1.020394
     22          1           0       -3.161169   -1.861490   -0.720354
     23          1           0       -4.675977    0.897659   -1.281766
     24          1           0       -4.764186    1.681717    0.313340
     25          1           0       -4.698039   -0.406610    1.476609
     26          1           0       -5.345552   -1.070618   -0.035163
     27          1           0       -2.412755    1.886532   -0.487164
     28          6           0        2.817532    2.470892    0.746480
     29          1           0        2.005443    2.848729    1.378728
     30          1           0        3.441322    3.300699    0.407373
     31          1           0        3.425987    1.753018    1.306998
 ---------------------------------------------------------------------
                    Distance matrix (angstroms):
                    1          2          3          4          5
     1  C    0.000000
     2  C    1.403128   0.000000
     3  C    2.420584   1.390625   0.000000
     4  C    2.823904   2.439058   1.409104   0.000000
     5  C    2.429682   2.802374   2.426442   1.416658   0.000000
     6  C    1.421253   2.436423   2.794580   2.433108   1.380473
     7  O    2.419568   3.692547   4.171864   3.691087   2.389389
     8  H    2.165037   1.083733   2.141900   3.413998   3.886049
     9  H    3.393228   2.132026   1.084871   2.170318   3.418200
    10  H    3.396292   3.887648   3.427687   2.194073   1.085977
    11  O    1.346291   2.437264   3.682646   4.167159   3.618581
    12  C    2.404171   2.852942   4.242468   5.084814   4.831781
    13  H    2.723001   2.838342   4.162495   5.124869   5.049766
    14  H    2.730653   2.847835   4.181576   5.153466   5.074972
    15  H    3.261659   3.912137   5.294764   6.045518   5.629983
    16  C    4.270215   3.751177   2.467111   1.446777   2.506361
    17  C    5.279452   4.414838   3.024576   2.630981   3.920599
    18  N    5.147669   4.876441   3.691718   2.444179   2.954307
    19  C    6.532319   6.099121   4.799458   3.740318   4.420948
    20  C    6.593678   5.863474   4.479998   3.805889   4.866142
    21  H    5.231218   4.214523   2.894537   2.892494   4.245704
    22  H    5.430781   4.473685   3.148262   3.000231   4.308882
    23  H    6.988271   6.574225   5.303313   4.271362   4.895471
    24  H    7.186875   6.863168   5.605492   4.462644   4.954132
    25  H    6.945538   6.223169   4.877697   4.242637   5.253848
    26  H    7.431054   6.607798   5.219001   4.681063   5.797097
    27  H    5.097444   5.104917   4.106862   2.723419   2.711801
    28  C    3.198184   4.455674   4.985565   4.531982   3.277422
    29  H    3.679746   4.738342   5.005411   4.358183   3.150107
    30  H    4.092333   5.420229   5.989497   5.486312   4.155637
    31  H    3.000427   4.223227   4.970226   4.806011   3.751689
                    6          7          8          9         10
     6  C    0.000000
     7  O    1.378008   0.000000
     8  H    3.425567   4.578986   0.000000
     9  H    3.879346   5.256511   2.438437   0.000000
    10  H    2.110633   2.577009   4.971371   4.343219   0.000000
    11  O    2.346318   2.690972   2.728118   4.562237   4.456470
    12  C    3.682437   4.129829   2.555318   4.878563   5.763766
    13  H    4.041293   4.628749   2.357958   4.667616   6.023973
    14  H    4.054685   4.658563   2.357363   4.686843   6.050827
    15  H    4.365213   4.505388   3.641709   5.964327   6.475502
    16  C    3.766715   4.895179   4.608145   2.690336   2.777848
    17  C    5.063767   6.289557   5.020332   2.654527   4.283829
    18  N    4.331996   5.204676   5.809206   3.996596   2.713858
    19  C    5.794352   6.676098   6.938235   4.829215   4.159684
    20  C    6.153968   7.244636   6.528263   4.185120   4.919292
    21  H    5.228829   6.522699   4.667705   2.301454   4.765013
    22  H    5.350838   6.598101   4.967715   2.633091   4.754051
    23  H    6.240290   7.068760   7.400140   5.321250   4.596572
    24  H    6.328512   7.084249   7.742355   5.699103   4.517906
    25  H    6.510890   7.584007   6.865618   4.575412   5.289116
    26  H    7.065539   8.178631   7.184934   4.774973   5.870670
    27  H    4.052877   4.689445   6.120269   4.623977   2.122551
    28  C    2.380484   1.445168   5.260550   6.042255   3.339317
    29  H    2.685502   2.093065   5.620116   6.017932   3.011067
    30  H    3.271053   2.036989   6.195010   7.060414   4.053826
    31  H    2.674317   2.102010   4.857738   5.973926   4.066226
                   11         12         13         14         15
    11  O    0.000000
    12  C    1.440512   0.000000
    13  H    2.092760   1.094855   0.000000
    14  H    2.093278   1.094866   1.799607   0.000000
    15  H    2.021133   1.090654   1.789933   1.790068   0.000000
    16  C    5.613683   6.498185   6.474550   6.513667   7.478823
    17  C    6.611061   7.266955   7.124810   7.151135   8.315302
    18  N    6.452108   7.489327   7.516111   7.580501   8.406151
    19  C    7.857403   8.820798   8.782479   8.856461   9.775775
    20  C    7.938930   8.701169   8.610890   8.586138   9.727534
    21  H    6.515819   7.026111   6.929506   6.752891   8.094040
    22  H    6.721290   7.272257   6.966689   7.238117   8.328295
    23  H    8.290832   9.252526   9.115140   9.388504  10.194415
    24  H    8.488065   9.523242   9.578915   9.529969  10.445598
    25  H    8.272737   9.024681   9.037012   8.798066  10.044531
    26  H    8.770509   9.456784   9.268882   9.351380  10.502325
    27  H    6.322631   7.493354   7.590746   7.679861   8.327015
    28  C    3.217872   4.552633   5.308411   4.881845   4.769457
    29  H    3.994667   5.314745   6.060951   5.490378   5.650477
    30  H    3.901233   5.189643   5.942827   5.632035   5.213926
    31  H    2.739633   3.888240   4.785590   4.088827   4.034494
                   16         17         18         19         20
    16  C    0.000000
    17  C    1.507761   0.000000
    18  N    1.308398   2.298014   0.000000
    19  C    2.350673   2.431348   1.474893   0.000000
    20  C    2.402498   1.544168   2.344481   1.536444   0.000000
    21  H    2.167886   1.092642   3.141950   3.343366   2.217518
    22  H    2.121867   1.098888   2.914669   2.991648   2.207973
    23  H    2.960212   3.000977   2.096760   1.095877   2.211365
    24  H    3.157665   3.333571   2.108279   1.092295   2.221257
    25  H    2.948901   2.175467   2.894125   2.169119   1.094584
    26  H    3.304545   2.204719   3.247958   2.192688   1.091995
    27  H    2.055464   3.280000   1.017622   2.180993   3.316218
    28  C    5.681394   7.054673   5.941919   7.384669   7.922415
    29  H    5.319103   6.691680   5.447653   6.827827   7.400062
    30  H    6.592221   8.011680   6.733284   8.163176   8.822427
    31  H    6.061660   7.317655   6.512454   7.950616   8.304538
                   21         22         23         24         25
    21  H    0.000000
    22  H    1.766330   0.000000
    23  H    4.033630   3.197300   0.000000
    24  H    4.093679   4.023991   1.779576   0.000000
    25  H    2.394024   3.050457   3.051268   2.391376   0.000000
    26  H    2.815569   2.422084   2.424141   2.834570   1.773593
    27  H    4.075811   3.829121   2.594501   2.492385   3.786479
    28  C    7.155729   7.527683   7.920955   7.634976   8.080651
    29  H    6.791070   7.299739   7.451596   6.951608   7.452750
    30  H    8.177924   8.456527   8.632401   8.364228   9.007586
    31  H    7.264366   7.782381   8.548401   8.250538   8.407887
                   26         27         28         29         30
    26  H    0.000000
    27  H    4.189312   0.000000
    28  C    8.932480   5.405484   0.000000
    29  H    8.449703   4.891610   1.096351   0.000000
    30  H    9.824123   6.088537   1.092102   1.791523   0.000000
    31  H    9.312046   6.109644   1.095326   1.795458   1.790216
                   31
    31  H    0.000000
 Stoichiometry    C12H16NO2(1+)
 Framework group  C1[X(C12H16NO2)]
 Deg. of freedom    87
 Full point group                 C1      NOp   1
 RotChk:  IX=0 Diff= 3.74D-04
 Largest Abelian subgroup         C1      NOp   1
 Largest concise Abelian subgroup C1      NOp   1
                         Standard orientation:                         
 ---------------------------------------------------------------------
 Center     Atomic      Atomic             Coordinates (Angstroms)
 Number     Number       Type             X           Y           Z
 ---------------------------------------------------------------------
      1          6           0        2.063805   -0.515084   -0.102076
      2          6           0        1.237329   -1.635901    0.069606
      3          6           0       -0.144696   -1.484795    0.101421
      4          6           0       -0.743901   -0.218114   -0.047055
      5          6           0        0.098268    0.908900   -0.212925
      6          6           0        1.471588    0.770152   -0.234017
      7          8           0        2.272753    1.869843   -0.452464
      8          1           0        1.666784   -2.625397    0.174217
      9          1           0       -0.757603   -2.370410    0.231721
     10          1           0       -0.300711    1.912766   -0.324344
     11          8           0        3.408187   -0.552635   -0.163124
     12          6           0        4.081461   -1.821589   -0.055731
     13          1           0        3.776766   -2.487848   -0.869345
     14          1           0        3.878243   -2.283775    0.915772
     15          1           0        5.143409   -1.588769   -0.142843
     16          6           0       -2.186360   -0.106798   -0.037761
     17          6           0       -3.158073   -1.238171    0.183855
     18          7           0       -2.854418    0.996838   -0.255915
     19          6           0       -4.322166    0.852004   -0.249164
     20          6           0       -4.510430   -0.525985    0.403801
     21          1           0       -2.861346   -1.873597    1.021742
     22          1           0       -3.160352   -1.864488   -0.719073
     23          1           0       -4.678398    0.892008   -1.284754
     24          1           0       -4.767826    1.678279    0.309195
     25          1           0       -4.699353   -0.408272    1.475512
     26          1           0       -5.345805   -1.075261   -0.035401
     27          1           0       -2.416508    1.884772   -0.491210
     28          6           0        2.812859    2.477248    0.742465
     29          1           0        2.000206    2.855022    1.374025
     30          1           0        3.435703    3.307314    0.402256
     31          1           0        3.422086    1.760926    1.304129
 ---------------------------------------------------------------------
 Rotational constants (GHZ):           1.2840715           0.3044687           0.2528057
 Leave Link  202 at Tue Jul 28 03:17:57 2026, MaxMem=  4026531840 cpu:               0.0 elap:               0.0
 (Enter /opt/packages/gaussian/g16RevC.01/g16/l301.exe)
 Standard basis: 6-31+G(d) (6D, 7F)
 Ernie: Thresh=  0.10000D-02 Tol=  0.10000D-05 Strict=F.
 There are   317 symmetry adapted cartesian basis functions of A   symmetry.
 There are   317 symmetry adapted basis functions of A   symmetry.
   317 basis functions,   544 primitive gaussians,   317 cartesian basis functions
    55 alpha electrons       55 beta electrons
       nuclear repulsion energy       980.2929101028 Hartrees.
 IExCor=  402 DFT=T Ex+Corr=B3LYP ExCW=0 ScaHFX=  0.200000
 ScaDFX=  0.800000  0.720000  1.000000  0.810000 ScalE2=  1.000000  1.000000
 IRadAn=      5 IRanWt=     -1 IRanGd=            0 ICorTp=0 IEmpDi=  4
 NAtoms=   31 NActive=   31 NUniq=   31 SFac= 1.00D+00 NAtFMM=   60 NAOKFM=F Big=F
 Integral buffers will be    131072 words long.
 Raffenetti 2 integral format.
 Two-electron integral symmetry is turned on.
 ------------------------------------------------------------------------------
 Polarizable Continuum Model (PCM)
 =================================
 Model                : PCM.
 Atomic radii         : SMD-Coulomb.
 Polarization charges : Total charges.
 Charge compensation  : None.
 Solution method      : On-the-fly selection.
 Cavity type          : VdW (van der Waals Surface) (Alpha=1.000).
 Cavity algorithm     : GePol (No added spheres)
                        Default sphere list used, NSphG=   31.
                        Lebedev-Laikov grids with approx.  5.0 points / Ang**2.
                        Smoothing algorithm: York/Karplus (Gamma=1.0000).
                        Polarization charges: spherical gaussians, with
                                              point-specific exponents (IZeta= 3).
                        Self-potential: point-specific (ISelfS= 7).
                        Self-field    : sphere-specific E.n sum rule (ISelfD= 2).
 1st derivatives      : Analytical E(r).r(x)/FMM algorithm (CHGder, D1EAlg=3).
                        Cavity 1st derivative terms included.
 Solvent              : Methanol, Eps=  32.613000 Eps(inf)=   1.765709
 ------------------------------------------------------------------------------
 GePol: Number of generator spheres                  =      31
 GePol: Total number of spheres                      =      31
 GePol: Number of exposed spheres                    =      31 (100.00%)
 GePol: Number of points                             =    2261
 GePol: Average weight of points                     =       0.11
 GePol: Minimum weight of points                     =   0.46D-11
 GePol: Maximum weight of points                     =    0.21991
 GePol: Number of points with low weight             =     132
 GePol: Fraction of low-weight points (<1% of avg)   =       5.84%
 GePol: Cavity surface area                          =    247.455 Ang**2
 GePol: Cavity volume                                =    218.474 Ang**3
 ------------------------------------------------------------------------------
 Atomic radii for non-electrostatic terms: SMD-CDS.
 ------------------------------------------------------------------------------
 PCM non-electrostatic energy =         0.0015817366 Hartrees.
 Nuclear repulsion after PCM non-electrostatic terms =      980.2944918394 Hartrees.
 Leave Link  301 at Tue Jul 28 03:17:57 2026, MaxMem=  4026531840 cpu:               0.4 elap:               0.1
 (Enter /opt/packages/gaussian/g16RevC.01/g16/l302.exe)
 NPDir=0 NMtPBC=     1 NCelOv=     1 NCel=       1 NClECP=     1 NCelD=      1
         NCelK=      1 NCelE2=     1 NClLst=     1 CellRange=     0.0.
 One-electron integrals computed using PRISM.
 One-electron integral symmetry used in STVInt
 NBasis=   317 RedAO= T EigKep=  1.42D-06  NBF=   317
 NBsUse=   315 1.00D-06 EigRej=  7.82D-07 NBFU=   315
 Precomputing XC quadrature grid using
 IXCGrd= 4 IRadAn=           5 IRanWt=          -1 IRanGd=           0 AccXCQ= 0.00D+00.
 Generated NRdTot=       0 NPtTot=           0 NUsed=           0 NTot=          32
 NSgBfM=   316   316   316   316   316 MxSgAt=    31 MxSgA2=    31.
 Leave Link  302 at Tue Jul 28 03:17:57 2026, MaxMem=  4026531840 cpu:               1.7 elap:               0.2
 (Enter /opt/packages/gaussian/g16RevC.01/g16/l303.exe)
 DipDrv:  MaxL=1.
 Leave Link  303 at Tue Jul 28 03:17:57 2026, MaxMem=  4026531840 cpu:               0.1 elap:               0.0
 (Enter /opt/packages/gaussian/g16RevC.01/g16/l401.exe)
 Initial guess from the checkpoint file:  "dmp_s0_opt.chk"
 B after Tr=    -0.000000   -0.000000    0.000000
         Rot=    1.000000    0.000074    0.000032   -0.000078 Ang=   0.01 deg.
 Guess basis will be translated and rotated to current coordinates.
 JPrj=2 DoOrth=T DoCkMO=T.
 Leave Link  401 at Tue Jul 28 03:17:57 2026, MaxMem=  4026531840 cpu:               0.6 elap:               0.1
 (Enter /opt/packages/gaussian/g16RevC.01/g16/l502.exe)
 Integral symmetry usage will be decided dynamically.
 Closed shell SCF:
 Using DIIS extrapolation, IDIIS=  1040.
 NGot=  4026531840 LenX=  4026324160 LenY=  4026223230
 Requested convergence on RMS density matrix=1.00D-08 within 128 cycles.
 Requested convergence on MAX density matrix=1.00D-06.
 Requested convergence on             energy=1.00D-06.
 No special actions if energy rises.
 Fock matrices will be formed incrementally for  20 cycles.

 Cycle   1  Pass 1  IDiag  1:
 FoFJK:  IHMeth= 1 ICntrl=       0 DoSepK=F KAlg= 0 I1Cent=           0 FoldK=F
 IRaf= 870000000 NMat=       1 IRICut=       1 DoRegI=T DoRafI=F ISym2E= 0 IDoP0=0 IntGTp=1.
 FoFCou: FMM=F IPFlag=           0 FMFlag=      100000 FMFlg1=           0
         NFxFlg=           0 DoJE=F BraDBF=F KetDBF=F FulRan=T
         wScrn=  0.000000 ICntrl=         0 IOpCl=  0 I1Cent=           0 NGrid=           0
         NMat0=    1 NMatS0=      1 NMatT0=    0 NMatD0=    1 NMtDS0=    0 NMtDT0=    0
 Symmetry not used in FoFCou.
 Inv3:  Mode=1 IEnd=    15336363.
 Iteration    1 A*A^-1 deviation from unit magnitude is 3.22D-15 for    244.
 Iteration    1 A*A^-1 deviation from orthogonality  is 2.45D-15 for   1152    833.
 Iteration    1 A^-1*A deviation from unit magnitude is 3.33D-15 for   1807.
 Iteration    1 A^-1*A deviation from orthogonality  is 2.71D-15 for   1816    199.
 E= -671.981179466480    
 DIIS: error= 5.14D-05 at cycle   1 NSaved=   1.
 NSaved= 1 IEnMin= 1 EnMin= -671.981179466480     IErMin= 1 ErrMin= 5.14D-05
 ErrMax= 5.14D-05  0.00D+00 EMaxC= 1.00D-01 BMatC= 2.38D-06 BMatP= 2.38D-06
 IDIUse=1 WtCom= 1.00D+00 WtEn= 0.00D+00
 Coeff-Com:  0.100D+01
 Coeff:      0.100D+01
 Gap=     0.421 Goal=   None    Shift=    0.000
 RMSDP=1.31D-04 MaxDP=1.63D-02              OVMax= 6.36D-04

 Cycle   2  Pass 1  IDiag  1:
 RMSU=  1.19D-04    CP:  9.99D-01
 E= -671.981183810092     Delta-E=       -0.000004343612 Rises=F Damp=F
 DIIS: error= 6.93D-06 at cycle   2 NSaved=   2.
 NSaved= 2 IEnMin= 2 EnMin= -671.981183810092     IErMin= 2 ErrMin= 6.93D-06
 ErrMax= 6.93D-06  0.00D+00 EMaxC= 1.00D-01 BMatC= 3.09D-08 BMatP= 2.38D-06
 IDIUse=1 WtCom= 1.00D+00 WtEn= 0.00D+00
 Coeff-Com: -0.591D-01 0.106D+01
 Coeff:     -0.591D-01 0.106D+01
 Gap=     0.156 Goal=   None    Shift=    0.000
 RMSDP=1.75D-05 MaxDP=2.30D-03 DE=-4.34D-06 OVMax= 8.92D-05

 Cycle   3  Pass 1  IDiag  1:
 RMSU=  8.29D-06    CP:  9.99D-01  1.10D+00
 E= -671.981183836441     Delta-E=       -0.000000026349 Rises=F Damp=F
 DIIS: error= 6.21D-06 at cycle   3 NSaved=   3.
 NSaved= 3 IEnMin= 3 EnMin= -671.981183836441     IErMin= 3 ErrMin= 6.21D-06
 ErrMax= 6.21D-06  0.00D+00 EMaxC= 1.00D-01 BMatC= 3.30D-08 BMatP= 3.09D-08
 IDIUse=1 WtCom= 1.00D+00 WtEn= 0.00D+00
 Coeff-Com: -0.403D-01 0.585D+00 0.455D+00
 Coeff:     -0.403D-01 0.585D+00 0.455D+00
 Gap=     0.156 Goal=   None    Shift=    0.000
 RMSDP=3.90D-06 MaxDP=5.50D-04 DE=-2.63D-08 OVMax= 5.34D-05

 Cycle   4  Pass 1  IDiag  1:
 RMSU=  2.51D-06    CP:  9.99D-01  1.08D+00  8.17D-01
 E= -671.981183860154     Delta-E=       -0.000000023713 Rises=F Damp=F
 DIIS: error= 1.63D-06 at cycle   4 NSaved=   4.
 NSaved= 4 IEnMin= 4 EnMin= -671.981183860154     IErMin= 4 ErrMin= 1.63D-06
 ErrMax= 1.63D-06  0.00D+00 EMaxC= 1.00D-01 BMatC= 2.02D-09 BMatP= 3.09D-08
 IDIUse=1 WtCom= 1.00D+00 WtEn= 0.00D+00
 Coeff-Com: -0.833D-02 0.102D+00 0.215D+00 0.691D+00
 Coeff:     -0.833D-02 0.102D+00 0.215D+00 0.691D+00
 Gap=     0.156 Goal=   None    Shift=    0.000
 RMSDP=7.35D-07 MaxDP=5.24D-05 DE=-2.37D-08 OVMax= 1.85D-05

 Cycle   5  Pass 1  IDiag  1:
 RMSU=  6.46D-07    CP:  9.99D-01  1.08D+00  8.57D-01  9.68D-01
 E= -671.981183861570     Delta-E=       -0.000000001416 Rises=F Damp=F
 DIIS: error= 4.10D-07 at cycle   5 NSaved=   5.
 NSaved= 5 IEnMin= 5 EnMin= -671.981183861570     IErMin= 5 ErrMin= 4.10D-07
 ErrMax= 4.10D-07  0.00D+00 EMaxC= 1.00D-01 BMatC= 1.82D-10 BMatP= 2.02D-09
 IDIUse=1 WtCom= 1.00D+00 WtEn= 0.00D+00
 Coeff-Com: -0.199D-02 0.184D-01 0.830D-01 0.354D+00 0.547D+00
 Coeff:     -0.199D-02 0.184D-01 0.830D-01 0.354D+00 0.547D+00
 Gap=     0.156 Goal=   None    Shift=    0.000
 RMSDP=3.66D-07 MaxDP=4.52D-05 DE=-1.42D-09 OVMax= 4.19D-06

 Cycle   6  Pass 1  IDiag  1:
 RMSU=  2.01D-07    CP:  9.99D-01  1.08D+00  8.77D-01  9.49D-01  8.38D-01
 E= -671.981183861718     Delta-E=       -0.000000000148 Rises=F Damp=F
 DIIS: error= 1.40D-07 at cycle   6 NSaved=   6.
 NSaved= 6 IEnMin= 6 EnMin= -671.981183861718     IErMin= 6 ErrMin= 1.40D-07
 ErrMax= 1.40D-07  0.00D+00 EMaxC= 1.00D-01 BMatC= 1.42D-11 BMatP= 1.82D-10
 IDIUse=1 WtCom= 1.00D+00 WtEn= 0.00D+00
 Coeff-Com:  0.297D-04-0.386D-02 0.123D-01 0.854D-01 0.255D+00 0.651D+00
 Coeff:      0.297D-04-0.386D-02 0.123D-01 0.854D-01 0.255D+00 0.651D+00
 Gap=     0.156 Goal=   None    Shift=    0.000
 RMSDP=1.44D-07 MaxDP=1.76D-05 DE=-1.48D-10 OVMax= 1.64D-06

 Cycle   7  Pass 1  IDiag  1:
 RMSU=  8.68D-08    CP:  9.99D-01  1.08D+00  8.82D-01  9.67D-01  8.78D-01
                    CP:  9.19D-01
 E= -671.981183861745     Delta-E=       -0.000000000026 Rises=F Damp=F
 DIIS: error= 5.55D-08 at cycle   7 NSaved=   7.
 NSaved= 7 IEnMin= 7 EnMin= -671.981183861745     IErMin= 7 ErrMin= 5.55D-08
 ErrMax= 5.55D-08  0.00D+00 EMaxC= 1.00D-01 BMatC= 2.49D-12 BMatP= 1.42D-11
 IDIUse=1 WtCom= 1.00D+00 WtEn= 0.00D+00
 Coeff-Com:  0.179D-03-0.381D-02 0.266D-04 0.210D-01 0.993D-01 0.376D+00
 Coeff-Com:  0.508D+00
 Coeff:      0.179D-03-0.381D-02 0.266D-04 0.210D-01 0.993D-01 0.376D+00
 Coeff:      0.508D+00
 Gap=     0.156 Goal=   None    Shift=    0.000
 RMSDP=3.11D-08 MaxDP=1.75D-06 DE=-2.60D-11 OVMax= 3.67D-07

 Cycle   8  Pass 1  IDiag  1:
 RMSU=  2.11D-08    CP:  9.99D-01  1.08D+00  8.81D-01  9.71D-01  8.78D-01
                    CP:  9.31D-01  7.89D-01
 E= -671.981183861739     Delta-E=        0.000000000005 Rises=F Damp=F
 DIIS: error= 7.22D-09 at cycle   8 NSaved=   8.
 NSaved= 8 IEnMin= 7 EnMin= -671.981183861745     IErMin= 8 ErrMin= 7.22D-09
 ErrMax= 7.22D-09  0.00D+00 EMaxC= 1.00D-01 BMatC= 7.21D-14 BMatP= 2.49D-12
 IDIUse=1 WtCom= 1.00D+00 WtEn= 0.00D+00
 Coeff-Com:  0.586D-04-0.106D-02-0.117D-02 0.120D-02 0.151D-01 0.910D-01
 Coeff-Com:  0.190D+00 0.704D+00
 Coeff:      0.586D-04-0.106D-02-0.117D-02 0.120D-02 0.151D-01 0.910D-01
 Coeff:      0.190D+00 0.704D+00
 Gap=     0.156 Goal=   None    Shift=    0.000
 RMSDP=1.38D-08 MaxDP=1.40D-06 DE= 5.12D-12 OVMax= 1.09D-07

 Cycle   9  Pass 1  IDiag  1:
 RMSU=  4.67D-09    CP:  9.99D-01  1.08D+00  8.82D-01  9.73D-01  8.87D-01
                    CP:  9.41D-01  8.41D-01  9.50D-01
 E= -671.981183861748     Delta-E=       -0.000000000008 Rises=F Damp=F
 DIIS: error= 2.84D-09 at cycle   9 NSaved=   9.
 NSaved= 9 IEnMin= 9 EnMin= -671.981183861748     IErMin= 9 ErrMin= 2.84D-09
 ErrMax= 2.84D-09  0.00D+00 EMaxC= 1.00D-01 BMatC= 1.16D-14 BMatP= 7.21D-14
 IDIUse=1 WtCom= 1.00D+00 WtEn= 0.00D+00
 Coeff-Com:  0.745D-05-0.521D-04-0.595D-03-0.171D-02-0.473D-02 0.753D-03
 Coeff-Com:  0.306D-01 0.329D+00 0.646D+00
 Coeff:      0.745D-05-0.521D-04-0.595D-03-0.171D-02-0.473D-02 0.753D-03
 Coeff:      0.306D-01 0.329D+00 0.646D+00
 Gap=     0.156 Goal=   None    Shift=    0.000
 RMSDP=2.71D-09 MaxDP=2.34D-07 DE=-8.41D-12 OVMax= 3.80D-08

 Error on total polarization charges =  0.05682
 SCF Done:  E(RB3LYP) =  -671.981183862     A.U. after    9 cycles
            NFock=  9  Conv=0.27D-08     -V/T= 2.0097
 KE= 6.654961518274D+02 PE=-3.505494503583D+03 EE= 1.187722676055D+03
 SMD-CDS (non-electrostatic) energy       (kcal/mol) =       0.99
 (included in total energy above)
 Leave Link  502 at Tue Jul 28 03:18:22 2026, MaxMem=  4026531840 cpu:             195.6 elap:              24.7
 (Enter /opt/packages/gaussian/g16RevC.01/g16/l701.exe)
 ... and contract with generalized density number  0.
 Compute integral first derivatives.
 D1PCM: PCM CHGder 1st derivatives, ID1Alg=3 FixD1E=F DoIter=F DoCFld=F I1PDM=0.
 GePol: Maximum number of non-zero 1st derivatives   =     260
 Leave Link  701 at Tue Jul 28 03:18:23 2026, MaxMem=  4026531840 cpu:               8.3 elap:               1.1
 (Enter /opt/packages/gaussian/g16RevC.01/g16/l702.exe)
 L702 exits ... SP integral derivatives will be done elsewhere.
 Leave Link  702 at Tue Jul 28 03:18:23 2026, MaxMem=  4026531840 cpu:               0.1 elap:               0.0
 (Enter /opt/packages/gaussian/g16RevC.01/g16/l703.exe)
 Integral derivatives from FoFJK, PRISM(SPDF).
 Compute integral first derivatives, UseDBF=F ICtDFT=           0.
 Calling FoFJK, ICntrl=      2127 FMM=F ISym2X=0 I1Cent= 0 IOpClX= 0 NMat=1 NMatS=1 NMatT=0.
 FoFJK:  IHMeth= 1 ICntrl=    2127 DoSepK=F KAlg= 0 I1Cent=           0 FoldK=F
 IRaf=         0 NMat=       1 IRICut=       1 DoRegI=T DoRafI=F ISym2E= 0 IDoP0=0 IntGTp=1.
 FoFCou: FMM=F IPFlag=           0 FMFlag=      100000 FMFlg1=         800
         NFxFlg=           0 DoJE=F BraDBF=F KetDBF=F FulRan=T
         wScrn=  0.000000 ICntrl=      2127 IOpCl=  0 I1Cent=           0 NGrid=           0
         NMat0=    1 NMatS0=      1 NMatT0=    0 NMatD0=    1 NMtDS0=    0 NMtDT0=    0
 Symmetry not used in FoFCou.
 Leave Link  703 at Tue Jul 28 03:18:31 2026, MaxMem=  4026531840 cpu:              59.1 elap:               7.4
 (Enter /opt/packages/gaussian/g16RevC.01/g16/l716.exe)
 Dipole        =-3.43052277D+00-5.63962537D-01 5.91096342D-01
 ***** Axes restored to original set *****
 -------------------------------------------------------------------
 Center     Atomic                   Forces (Hartrees/Bohr)
 Number     Number              X              Y              Z
 -------------------------------------------------------------------
      1        6           0.000098018   -0.000008665   -0.000025945
      2        6           0.000005577   -0.000019293    0.000006777
      3        6          -0.000049589    0.000020440   -0.000004901
      4        6           0.000079305   -0.000031767   -0.000000464
      5        6          -0.000035965   -0.000018332    0.000023270
      6        6          -0.000030638    0.000047723    0.000001420
      7        8           0.000080585   -0.000025781   -0.000009834
      8        1          -0.000014040   -0.000008484    0.000007917
      9        1          -0.000016031   -0.000007437    0.000008406
     10        1           0.000014748    0.000009132   -0.000008448
     11        8          -0.000038331   -0.000026064    0.000019174
     12        6          -0.000012773   -0.000001920    0.000001875
     13        1          -0.000003116   -0.000012015    0.000005232
     14        1          -0.000001373   -0.000007851    0.000011908
     15        1           0.000000143   -0.000013069    0.000007259
     16        6          -0.000124079    0.000062426   -0.000000861
     17        6          -0.000001410    0.000010019   -0.000015767
     18        7           0.000013481   -0.000052115    0.000018029
     19        6           0.000050657    0.000026023   -0.000014519
     20        6           0.000016967    0.000009350    0.000004411
     21        1           0.000005711   -0.000000136    0.000004255
     22        1           0.000009697   -0.000010937    0.000003364
     23        1          -0.000005484    0.000024892   -0.000009945
     24        1          -0.000003552    0.000016441   -0.000007670
     25        1          -0.000018669    0.000006504   -0.000001698
     26        1          -0.000010458    0.000011706    0.000001753
     27        1           0.000001981    0.000014942   -0.000020135
     28        6          -0.000042295    0.000000645   -0.000004438
     29        1           0.000007370    0.000002339    0.000001936
     30        1           0.000010860   -0.000003485   -0.000003513
     31        1           0.000012703   -0.000015231    0.000001152
 -------------------------------------------------------------------
 Cartesian Forces:  Max     0.000124079 RMS     0.000027396
 Leave Link  716 at Tue Jul 28 03:18:31 2026, MaxMem=  4026531840 cpu:               0.1 elap:               0.0
 (Enter /opt/packages/gaussian/g16RevC.01/g16/l103.exe)

 GradGradGradGradGradGradGradGradGradGradGradGradGradGradGradGradGradGrad
 Berny optimization.
 Using GEDIIS/GDIIS optimizer.
 FormGI is forming the generalized inverse of G from B-inverse, IUseBI=4.
 Internal  Forces:  Max     0.000067155 RMS     0.000013348
 Search for a local minimum.
 Step number   5 out of a maximum of  170
 All quantities printed in internal units (Hartrees-Bohrs-Radians)
 RMS Force = .13348D-04 SwitMx=.10000D-02 MixMth= 2
 Mixed Optimization -- En-DIIS/RFO-DIIS
 Swapping is turned off.
 Update second derivatives using D2CorX and points    1    2    3    4    5
 DE= -3.47D-07 DEPred=-5.31D-07 R= 6.55D-01
 Trust test= 6.55D-01 RLast= 6.91D-03 DXMaxT set to 3.00D-01
 ITU=  0  1  1  1  0
     Eigenvalues ---    0.00388   0.01122   0.01175   0.01267   0.01304
     Eigenvalues ---    0.01423   0.01569   0.01853   0.01855   0.02018
     Eigenvalues ---    0.02085   0.02146   0.02159   0.02172   0.02192
     Eigenvalues ---    0.02213   0.02269   0.02458   0.03366   0.03609
     Eigenvalues ---    0.04973   0.05233   0.05622   0.05904   0.06926
     Eigenvalues ---    0.07508   0.08450   0.08502   0.09412   0.10138
     Eigenvalues ---    0.10157   0.10635   0.10744   0.10992   0.14325
     Eigenvalues ---    0.15933   0.15975   0.15999   0.16000   0.16000
     Eigenvalues ---    0.16000   0.16005   0.16056   0.16246   0.21501
     Eigenvalues ---    0.22422   0.22837   0.23157   0.24119   0.24790
     Eigenvalues ---    0.24961   0.24977   0.25012   0.25676   0.27854
     Eigenvalues ---    0.28611   0.31278   0.33470   0.33958   0.34004
     Eigenvalues ---    0.34239   0.34331   0.34361   0.34401   0.34461
     Eigenvalues ---    0.34550   0.34651   0.34718   0.34719   0.34770
     Eigenvalues ---    0.34915   0.35364   0.35433   0.36425   0.36855
     Eigenvalues ---    0.40660   0.40953   0.41524   0.42465   0.44932
     Eigenvalues ---    0.46158   0.46665   0.47424   0.50047   0.51359
     Eigenvalues ---    0.60072   0.63224
 En-DIIS/RFO-DIIS/Sim-DIIS IScMMF=       -3 using points:     5    4    3    2
 RFO step:  Lambda=-3.42749125D-07.
 NNeg= 0 NGDIIS= 4 SimSw=  2.50D-01 Rises=F DC= -3.47D-07 SmlDif=  1.00D-05
 NRisDI= 0 DoIntr=F SqrtH=F CThrHd= 10.0 CDAdj=  3.0
 RMS Error=  0.4868140877D-03 NUsed= 4 OKEnD=F EnDIS=F
 InvSVX:  RCond= 6.02D-07 Info=           0 Equed=N FErr=  4.75D-14 BErr=  5.02D-17
 DidBck=F Rises=F RFO-DIIS coefs:    1.74671   -0.69229   -0.05727    0.00285
 Iteration  1 RMS(Cart)=  0.00117735 RMS(Int)=  0.00000094
 Iteration  2 RMS(Cart)=  0.00000134 RMS(Int)=  0.00000005
 Iteration  3 RMS(Cart)=  0.00000000 RMS(Int)=  0.00000005
 ITry= 1 IFail=0 DXMaxC= 6.31D-03 DCOld= 1.00D+10 DXMaxT= 3.00D-01 DXLimC= 3.00D+00 Rises=F
 Variable       Old X    -DE/DX   Delta X   Delta X   Delta X     New X
                                 (Linear)    (Quad)   (Total)
    R1        2.65153   0.00004   0.00004   0.00007   0.00011   2.65164
    R2        2.68578   0.00004   0.00013  -0.00001   0.00012   2.68590
    R3        2.54412  -0.00003  -0.00014   0.00001  -0.00013   2.54399
    R4        2.62790   0.00004  -0.00012   0.00014   0.00002   2.62792
    R5        2.04796   0.00000   0.00002  -0.00001   0.00001   2.04796
    R6        2.66282  -0.00002   0.00019  -0.00018   0.00000   2.66282
    R7        2.05011   0.00001  -0.00001   0.00005   0.00004   2.05015
    R8        2.67710   0.00001   0.00001   0.00000   0.00002   2.67711
    R9        2.73401   0.00007  -0.00002   0.00014   0.00012   2.73414
   R10        2.60872   0.00003  -0.00005   0.00009   0.00004   2.60875
   R11        2.05220   0.00001   0.00002   0.00000   0.00002   2.05222
   R12        2.60406   0.00002   0.00004   0.00001   0.00005   2.60410
   R13        2.73097  -0.00001   0.00074  -0.00048   0.00026   2.73123
   R14        2.72217  -0.00001   0.00071  -0.00045   0.00026   2.72243
   R15        2.06898   0.00000  -0.00012   0.00008  -0.00004   2.06893
   R16        2.06900   0.00000  -0.00012   0.00008  -0.00004   2.06895
   R17        2.06104   0.00000  -0.00008   0.00006  -0.00002   2.06102
   R18        2.84926  -0.00001   0.00003  -0.00006  -0.00003   2.84923
   R19        2.47251  -0.00005   0.00009  -0.00014  -0.00005   2.47247
   R20        2.91805   0.00001  -0.00004   0.00007   0.00003   2.91809
   R21        2.06479   0.00001  -0.00002   0.00005   0.00003   2.06482
   R22        2.07660   0.00001  -0.00006   0.00006  -0.00000   2.07660
   R23        2.78714  -0.00003  -0.00020   0.00003  -0.00017   2.78697
   R24        1.92303   0.00001  -0.00003   0.00004   0.00002   1.92304
   R25        2.90346   0.00003  -0.00001   0.00012   0.00011   2.90357
   R26        2.07091   0.00001  -0.00004   0.00005   0.00001   2.07091
   R27        2.06414   0.00001   0.00001   0.00001   0.00002   2.06416
   R28        2.06846   0.00000  -0.00007   0.00006  -0.00001   2.06845
   R29        2.06357   0.00000  -0.00002   0.00003   0.00001   2.06358
   R30        2.07180   0.00000  -0.00013   0.00009  -0.00004   2.07176
   R31        2.06377   0.00001  -0.00008   0.00007  -0.00001   2.06376
   R32        2.06987   0.00001  -0.00011   0.00011  -0.00001   2.06986
    A1        2.08091  -0.00002  -0.00009  -0.00000  -0.00009   2.08081
    A2        2.17908   0.00002  -0.00007   0.00012   0.00006   2.17913
    A3        2.02318   0.00000   0.00016  -0.00012   0.00004   2.02322
    A4        2.09599   0.00001  -0.00002   0.00006   0.00004   2.09603
    A5        2.10335   0.00000  -0.00005   0.00006   0.00001   2.10336
    A6        2.08383  -0.00001   0.00007  -0.00012  -0.00005   2.08378
    A7        2.11516  -0.00000   0.00020  -0.00015   0.00005   2.11521
    A8        2.06634   0.00000  -0.00005   0.00007   0.00002   2.06636
    A9        2.10161  -0.00000  -0.00016   0.00008  -0.00007   2.10154
   A10        2.06540   0.00001  -0.00026   0.00019  -0.00006   2.06533
   A11        2.08571  -0.00002   0.00015  -0.00018  -0.00004   2.08567
   A12        2.13205   0.00001   0.00011  -0.00001   0.00010   2.13214
   A13        2.10974   0.00001   0.00013  -0.00007   0.00007   2.10980
   A14        2.12822   0.00001  -0.00013   0.00015   0.00003   2.12824
   A15        2.04522  -0.00002  -0.00001  -0.00009  -0.00009   2.04513
   A16        2.09902  -0.00000   0.00003  -0.00003   0.00001   2.09902
   A17        2.08761  -0.00003  -0.00006  -0.00010  -0.00016   2.08745
   A18        2.09508   0.00003   0.00003   0.00013   0.00016   2.09524
   A19        2.00603  -0.00002  -0.00023   0.00001  -0.00022   2.00582
   A20        2.08049   0.00003   0.00001   0.00009   0.00009   2.08059
   A21        1.92900   0.00000  -0.00025   0.00015  -0.00010   1.92890
   A22        1.92972   0.00000  -0.00023   0.00014  -0.00009   1.92963
   A23        1.83494  -0.00000  -0.00016   0.00003  -0.00013   1.83482
   A24        1.92928   0.00000   0.00032  -0.00014   0.00019   1.92946
   A25        1.91933  -0.00000   0.00015  -0.00009   0.00006   1.91939
   A26        1.91953  -0.00000   0.00014  -0.00010   0.00005   1.91958
   A27        2.19661  -0.00003   0.00015  -0.00024  -0.00009   2.19652
   A28        2.18083   0.00000  -0.00005   0.00005  -0.00000   2.18083
   A29        1.90538   0.00003  -0.00010   0.00019   0.00009   1.90547
   A30        1.81242  -0.00002   0.00016  -0.00014   0.00002   1.81244
   A31        1.95419   0.00000   0.00005  -0.00012  -0.00007   1.95412
   A32        1.88414   0.00000   0.00002   0.00000   0.00003   1.88416
   A33        1.97885   0.00001  -0.00019   0.00018  -0.00001   1.97884
   A34        1.95853   0.00002  -0.00003   0.00018   0.00015   1.95868
   A35        1.87465  -0.00001  -0.00000  -0.00011  -0.00011   1.87454
   A36        2.00923   0.00001   0.00015  -0.00007   0.00007   2.00931
   A37        2.15896   0.00001  -0.00019   0.00015  -0.00003   2.15893
   A38        2.11179  -0.00001  -0.00000  -0.00006  -0.00007   2.11172
   A39        1.78437  -0.00001   0.00009  -0.00002   0.00007   1.78444
   A40        1.89186   0.00000   0.00006  -0.00002   0.00004   1.89191
   A41        1.91143   0.00000   0.00009  -0.00004   0.00006   1.91148
   A42        1.97633   0.00001  -0.00001   0.00008   0.00006   1.97640
   A43        1.99457   0.00000  -0.00014   0.00006  -0.00008   1.99450
   A44        1.89950  -0.00001  -0.00006  -0.00007  -0.00013   1.89937
   A45        1.81914  -0.00001   0.00009   0.00002   0.00011   1.81925
   A46        1.91794   0.00001   0.00002   0.00003   0.00006   1.91800
   A47        1.96134   0.00000  -0.00014   0.00009  -0.00004   1.96130
   A48        1.91857   0.00000   0.00008  -0.00001   0.00006   1.91863
   A49        1.95404   0.00000  -0.00003   0.00000  -0.00003   1.95402
   A50        1.89215  -0.00001  -0.00001  -0.00013  -0.00014   1.89201
   A51        1.92209   0.00001  -0.00015   0.00016   0.00001   1.92209
   A52        1.84941  -0.00000   0.00005  -0.00009  -0.00005   1.84936
   A53        1.93585  -0.00001  -0.00016   0.00002  -0.00014   1.93570
   A54        1.91802  -0.00000   0.00006  -0.00003   0.00003   1.91805
   A55        1.92009   0.00000   0.00014  -0.00003   0.00011   1.92020
   A56        1.91728  -0.00000   0.00007  -0.00003   0.00004   1.91732
    D1        0.00660  -0.00000   0.00007  -0.00008  -0.00001   0.00659
    D2       -3.13956   0.00000   0.00003   0.00005   0.00008  -3.13948
    D3       -3.12696  -0.00000  -0.00011  -0.00009  -0.00020  -3.12716
    D4        0.01007  -0.00000  -0.00015   0.00004  -0.00011   0.00996
    D5       -0.01653   0.00000  -0.00015   0.00015   0.00000  -0.01652
    D6       -3.09985  -0.00000  -0.00030   0.00016  -0.00014  -3.09999
    D7        3.11773   0.00000   0.00002   0.00016   0.00018   3.11791
    D8        0.03441   0.00000  -0.00014   0.00017   0.00003   0.03444
    D9        0.00682   0.00000   0.00035  -0.00005   0.00030   0.00712
   D10       -3.12697   0.00000   0.00018  -0.00006   0.00012  -3.12686
   D11        0.00895  -0.00000   0.00002  -0.00004  -0.00002   0.00893
   D12        3.13756   0.00000  -0.00011   0.00022   0.00011   3.13767
   D13       -3.12813  -0.00000   0.00006  -0.00017  -0.00011  -3.12824
   D14        0.00049   0.00000  -0.00007   0.00009   0.00002   0.00050
   D15       -0.01446   0.00000  -0.00004   0.00009   0.00005  -0.01441
   D16        3.11785   0.00000  -0.00010   0.00020   0.00010   3.11796
   D17        3.14037  -0.00000   0.00010  -0.00018  -0.00008   3.14029
   D18       -0.01050  -0.00000   0.00004  -0.00007  -0.00003  -0.01053
   D19        0.00439  -0.00000  -0.00004  -0.00002  -0.00006   0.00433
   D20       -3.13286  -0.00000   0.00011  -0.00014  -0.00004  -3.13290
   D21       -3.12766  -0.00000   0.00002  -0.00013  -0.00011  -3.12777
   D22        0.01827  -0.00000   0.00017  -0.00026  -0.00009   0.01818
   D23        0.05262  -0.00000  -0.00031   0.00005  -0.00026   0.05236
   D24       -3.05717  -0.00000  -0.00033   0.00013  -0.00021  -3.05738
   D25       -3.09862  -0.00000  -0.00038   0.00017  -0.00021  -3.09883
   D26        0.07477   0.00000  -0.00040   0.00024  -0.00016   0.07462
   D27        0.01097   0.00000   0.00013  -0.00010   0.00003   0.01100
   D28        3.09404   0.00000   0.00028  -0.00012   0.00017   3.09421
   D29       -3.13476   0.00000  -0.00001   0.00002   0.00001  -3.13475
   D30       -0.05169   0.00000   0.00014   0.00000   0.00014  -0.05155
   D31       -1.49367  -0.00003  -0.00199  -0.00068  -0.00266  -1.49633
   D32        1.70606  -0.00004  -0.00214  -0.00066  -0.00280   1.70326
   D33       -1.09183  -0.00000   0.00041  -0.00007   0.00034  -1.09150
   D34        3.11785   0.00000   0.00040  -0.00007   0.00033   3.11818
   D35        1.03788   0.00001   0.00038   0.00001   0.00039   1.03827
   D36        1.06191   0.00000  -0.00010  -0.00010  -0.00020   1.06171
   D37       -1.08001  -0.00001  -0.00019  -0.00012  -0.00031  -1.08032
   D38        3.13224  -0.00000  -0.00014  -0.00010  -0.00025   3.13199
   D39        2.93012  -0.00000   0.00064  -0.00010   0.00053   2.93066
   D40        0.78878  -0.00000   0.00074  -0.00017   0.00057   0.78935
   D41       -1.27112   0.00001   0.00070   0.00003   0.00073  -1.27039
   D42       -0.23906  -0.00000   0.00066  -0.00017   0.00048  -0.23858
   D43       -2.38041  -0.00000   0.00076  -0.00024   0.00052  -2.37989
   D44        1.84288   0.00001   0.00072  -0.00004   0.00068   1.84356
   D45        3.09962  -0.00000  -0.00019   0.00013  -0.00006   3.09957
   D46        0.04343   0.00000   0.00036  -0.00008   0.00028   0.04371
   D47       -0.01468   0.00000  -0.00021   0.00020  -0.00001  -0.01469
   D48       -3.07088   0.00000   0.00034  -0.00001   0.00033  -3.07055
   D49        0.38227  -0.00000  -0.00082   0.00007  -0.00076   0.38151
   D50       -1.67288  -0.00000  -0.00098   0.00006  -0.00092  -1.67380
   D51        2.50177   0.00000  -0.00088   0.00013  -0.00075   2.50102
   D52        2.50727  -0.00001  -0.00077  -0.00007  -0.00084   2.50643
   D53        0.45212  -0.00001  -0.00092  -0.00008  -0.00100   0.45112
   D54       -1.65642  -0.00000  -0.00082  -0.00000  -0.00082  -1.65724
   D55       -1.64809  -0.00000  -0.00093   0.00006  -0.00087  -1.64897
   D56        2.57994  -0.00000  -0.00108   0.00005  -0.00103   2.57890
   D57        0.47140   0.00000  -0.00099   0.00012  -0.00086   0.47054
   D58        0.26140  -0.00000  -0.00033  -0.00014  -0.00047   0.26092
   D59       -1.83018  -0.00001  -0.00039  -0.00021  -0.00060  -1.83078
   D60        2.38290  -0.00000  -0.00040  -0.00009  -0.00050   2.38240
   D61       -2.96307  -0.00000  -0.00088   0.00008  -0.00080  -2.96387
   D62        1.22854  -0.00001  -0.00093   0.00000  -0.00093   1.22761
   D63       -0.84157  -0.00000  -0.00095   0.00012  -0.00083  -0.84239
   D64       -0.38204  -0.00000   0.00072   0.00001   0.00072  -0.38132
   D65        1.67268   0.00000   0.00083   0.00005   0.00088   1.67356
   D66       -2.50638  -0.00000   0.00084  -0.00012   0.00072  -2.50566
   D67        1.64941   0.00000   0.00083   0.00001   0.00084   1.65026
   D68       -2.57905   0.00001   0.00095   0.00005   0.00100  -2.57805
   D69       -0.47493   0.00000   0.00096  -0.00012   0.00084  -0.47408
   D70       -2.44538  -0.00000   0.00062   0.00003   0.00065  -2.44473
   D71       -0.39065   0.00000   0.00073   0.00007   0.00080  -0.38985
   D72        1.71347  -0.00000   0.00074  -0.00009   0.00065   1.71412
         Item               Value     Threshold  Converged?
 Maximum Force            0.000067     0.000450     YES
 RMS     Force            0.000013     0.000300     YES
 Maximum Displacement     0.006308     0.001800     NO 
 RMS     Displacement     0.001177     0.001200     YES
 Predicted change in Energy=-1.708243D-07
 Lowest energy point so far.  Saving SCF results.
 GradGradGradGradGradGradGradGradGradGradGradGradGradGradGradGradGradGrad

 Leave Link  103 at Tue Jul 28 03:18:31 2026, MaxMem=  4026531840 cpu:               0.2 elap:               0.0
 (Enter /opt/packages/gaussian/g16RevC.01/g16/l202.exe)
                          Input orientation:                          
 ---------------------------------------------------------------------
 Center     Atomic      Atomic             Coordinates (Angstroms)
 Number     Number       Type             X           Y           Z
 ---------------------------------------------------------------------
      1          6           0        2.065154   -0.519935   -0.102612
      2          6           0        1.237056   -1.639832    0.067736
      3          6           0       -0.144755   -1.486807    0.100116
      4          6           0       -0.742263   -0.219097   -0.046422
      5          6           0        0.101482    0.906939   -0.210991
      6          6           0        1.474626    0.766342   -0.232632
      7          8           0        2.277436    1.865158   -0.449601
      8          1           0        1.665088   -2.630094    0.170957
      9          1           0       -0.758915   -2.371720    0.229453
     10          1           0       -0.296064    1.911550   -0.320938
     11          8           0        3.409406   -0.559255   -0.163840
     12          6           0        4.081111   -1.829366   -0.058500
     13          1           0        3.775260   -2.493932   -0.873033
     14          1           0        3.877597   -2.292585    0.912423
     15          1           0        5.143296   -1.597683   -0.145627
     16          6           0       -2.184632   -0.105847   -0.036458
     17          6           0       -3.157682   -1.236343    0.183663
     18          7           0       -2.851261    0.999010   -0.252648
     19          6           0       -4.319120    0.856248   -0.245718
     20          6           0       -4.509238   -0.522866    0.404468
     21          1           0       -2.861694   -1.873136    1.020794
     22          1           0       -3.160528   -1.861629   -0.719975
     23          1           0       -4.675686    0.899028   -1.281085
     24          1           0       -4.763488    1.681966    0.314512
     25          1           0       -4.698565   -0.407121    1.476316
     26          1           0       -5.345108   -1.070267   -0.036139
     27          1           0       -2.412214    1.886658   -0.486932
     28          6           0        2.815693    2.471972    0.746629
     29          1           0        2.002105    2.850294    1.376619
     30          1           0        3.439885    3.301567    0.407765
     31          1           0        3.423218    1.754963    1.309250
 ---------------------------------------------------------------------
                    Distance matrix (angstroms):
                    1          2          3          4          5
     1  C    0.000000
     2  C    1.403187   0.000000
     3  C    2.420669   1.390636   0.000000
     4  C    2.824049   2.439104   1.409106   0.000000
     5  C    2.429758   2.802367   2.426405   1.416667   0.000000
     6  C    1.421315   2.436460   2.794602   2.433180   1.380493
     7  O    2.419531   3.692557   4.171914   3.691240   2.389538
     8  H    2.165102   1.083736   2.141881   3.414015   3.886046
     9  H    3.393337   2.132068   1.084892   2.170293   3.418169
    10  H    3.396342   3.887652   3.427684   2.194108   1.085990
    11  O    1.346220   2.437289   3.682674   4.167236   3.618606
    12  C    2.404295   2.853157   4.242693   5.085081   4.831983
    13  H    2.722990   2.838488   4.162672   5.125054   5.049838
    14  H    2.730848   2.848164   4.181918   5.153818   5.075239
    15  H    3.261648   3.912289   5.294919   6.045672   5.630034
    16  C    4.270425   3.751256   2.467145   1.446843   2.506495
    17  C    5.279508   4.414744   3.024473   2.630965   3.920658
    18  N    5.147897   4.876523   3.691735   2.444215   2.954472
    19  C    6.532482   6.099161   4.799461   3.740319   4.421029
    20  C    6.593920   5.863523   4.480014   3.806006   4.866403
    21  H    5.231351   4.214559   2.894591   2.892539   4.245765
    22  H    5.430380   4.473078   3.147686   2.999932   4.308682
    23  H    6.988647   6.574622   5.303703   4.271582   4.895560
    24  H    7.186982   6.863073   5.605335   4.462573   4.954266
    25  H    6.946484   6.223767   4.878200   4.243396   5.254923
    26  H    7.430967   6.607578   5.218787   4.680895   5.797004
    27  H    5.097668   5.104994   4.106856   2.723415   2.711948
    28  C    3.199379   4.456447   4.985395   4.530985   3.276172
    29  H    3.681106   4.739167   5.004889   4.356347   3.147936
    30  H    4.093195   5.420839   5.989392   5.485592   4.154760
    31  H    3.002142   4.224369   4.970062   4.804789   3.750228
                    6          7          8          9         10
     6  C    0.000000
     7  O    1.378033   0.000000
     8  H    3.425630   4.579012   0.000000
     9  H    3.879389   5.256583   2.438435   0.000000
    10  H    2.110603   2.577132   4.971379   4.343220   0.000000
    11  O    2.346340   2.690872   2.728206   4.562303   4.456464
    12  C    3.682633   4.129856   2.555579   4.878823   5.763938
    13  H    4.041338   4.628654   2.358237   4.667885   6.024015
    14  H    4.054930   4.658589   2.357728   4.687211   6.051064
    15  H    4.365240   4.505199   3.641982   5.964554   6.475499
    16  C    3.766878   4.895467   4.608165   2.690271   2.778041
    17  C    5.063825   6.289740   5.020140   2.654291   4.284006
    18  N    4.332187   5.205049   5.809238   3.996518   2.714116
    19  C    5.794459   6.676377   6.938223   4.829143   4.159844
    20  C    6.154233   7.245069   6.528188   4.184951   4.919698
    21  H    5.228919   6.522849   4.667651   2.301410   4.765139
    22  H    5.350550   6.597991   4.966977   2.632366   4.754079
    23  H    6.240449   7.068994   7.400578   5.321712   4.596539
    24  H    6.328649   7.084633   7.742161   5.698790   4.518227
    25  H    6.511975   7.585314   6.865978   4.575496   5.290404
    26  H    7.065445   8.178682   7.184622   4.774671   5.870706
    27  H    4.053061   4.689848   6.120316   4.623893   2.122796
    28  C    2.380459   1.445306   5.261784   6.042072   3.337185
    29  H    2.685290   2.093175   5.621553   6.017362   3.007411
    30  H    3.271042   2.037066   6.196014   7.060304   4.052218
    31  H    2.674282   2.102027   4.859574   5.973752   4.063877
                   11         12         13         14         15
    11  O    0.000000
    12  C    1.440648   0.000000
    13  H    2.092792   1.094832   0.000000
    14  H    2.093318   1.094844   1.799686   0.000000
    15  H    2.021147   1.090645   1.789946   1.790071   0.000000
    16  C    5.613829   6.498503   6.474807   6.514048   7.479039
    17  C    6.611040   7.267079   7.124873   7.151355   8.315361
    18  N    6.452289   7.489672   7.516402   7.580865   8.406379
    19  C    7.857510   8.821080   8.782722   8.856783   9.775945
    20  C    7.939095   8.701458   8.611041   8.586555   9.727757
    21  H    6.515853   7.026331   6.929728   6.753201   8.094213
    22  H    6.720825   7.271858   6.966232   7.237793   8.327847
    23  H    8.291173   9.253126   9.115765   9.389171  10.194864
    24  H    8.488115   9.523419   9.579071   9.530105  10.445678
    25  H    8.273600   9.025583   9.037695   8.799063  10.045415
    26  H    8.770345   9.456761   9.268674   9.351584  10.502227
    27  H    6.322827   7.493708   7.591013   7.680234   8.327236
    28  C    3.220216   4.555329   5.310770   4.884274   4.772415
    29  H    3.997317   5.317993   6.063478   5.493829   5.654097
    30  H    3.903026   5.191825   5.944807   5.633899   5.216369
    31  H    2.743318   3.892426   4.789510   4.092259   4.039253
                   16         17         18         19         20
    16  C    0.000000
    17  C    1.507746   0.000000
    18  N    1.308374   2.298056   0.000000
    19  C    2.350628   2.431510   1.474801   0.000000
    20  C    2.402522   1.544186   2.344524   1.536503   0.000000
    21  H    2.167834   1.092658   3.141812   3.343303   2.217541
    22  H    2.121872   1.098887   2.915012   2.992342   2.208095
    23  H    2.960443   3.001605   2.096713   1.095881   2.211465
    24  H    3.157523   3.333506   2.108248   1.092306   2.221265
    25  H    2.949425   2.175519   2.894659   2.169212   1.094577
    26  H    3.304347   2.204706   3.247776   2.192723   1.091999
    27  H    2.055431   3.280024   1.017630   2.180876   3.316310
    28  C    5.679932   7.053349   5.939911   7.382470   7.920905
    29  H    5.316420   6.689331   5.443981   6.823935   7.397356
    30  H    6.591130   8.010663   6.731748   8.161420   8.821272
    31  H    6.059829   7.315949   6.509999   7.947919   8.302470
                   21         22         23         24         25
    21  H    0.000000
    22  H    1.766270   0.000000
    23  H    4.034118   3.198716   0.000000
    24  H    4.093214   4.024514   1.779503   0.000000
    25  H    2.393908   3.050385   3.051198   2.391295   0.000000
    26  H    2.815857   2.422040   2.424075   2.834788   1.773500
    27  H    4.075699   3.829353   2.594109   2.492528   3.787237
    28  C    7.154568   7.526369   7.918746   7.632484   8.079956
    29  H    6.789252   7.297308   7.447397   6.947396   7.451152
    30  H    8.176995   8.455521   8.630579   8.362244   9.007249
    31  H    7.262674   7.780952   8.546035   8.247241   8.406300
                   26         27         28         29         30
    26  H    0.000000
    27  H    4.189091   0.000000
    28  C    8.930781   5.403265   0.000000
    29  H    8.446788   4.887497   1.096330   0.000000
    30  H    9.822733   6.086831   1.092095   1.791517   0.000000
    31  H    9.309970   6.107035   1.095322   1.795509   1.790233
                   31
    31  H    0.000000
 Stoichiometry    C12H16NO2(1+)
 Framework group  C1[X(C12H16NO2)]
 Deg. of freedom    87
 Full point group                 C1      NOp   1
 RotChk:  IX=0 Diff= 3.26D-04
 Largest Abelian subgroup         C1      NOp   1
 Largest concise Abelian subgroup C1      NOp   1
                         Standard orientation:                         
 ---------------------------------------------------------------------
 Center     Atomic      Atomic             Coordinates (Angstroms)
 Number     Number       Type             X           Y           Z
 ---------------------------------------------------------------------
      1          6           0        2.064145   -0.515216   -0.102116
      2          6           0        1.237560   -1.635994    0.069775
      3          6           0       -0.144471   -1.484840    0.101559
      4          6           0       -0.743702   -0.218192   -0.047120
      5          6           0        0.098520    0.908756   -0.213236
      6          6           0        1.471864    0.770034   -0.234304
      7          8           0        2.273202    1.869623   -0.452788
      8          1           0        1.666940   -2.625497    0.174658
      9          1           0       -0.757435   -2.370401    0.232124
     10          1           0       -0.300393    1.912640   -0.324860
     11          8           0        3.408466   -0.552763   -0.162936
     12          6           0        4.081907   -1.821773   -0.055433
     13          1           0        3.777192   -2.488038   -0.869002
     14          1           0        3.878785   -2.283752    0.916163
     15          1           0        5.143792   -1.588750   -0.142649
     16          6           0       -2.186230   -0.106932   -0.037704
     17          6           0       -3.157765   -1.238432    0.183937
     18          7           0       -2.854338    0.996658   -0.255797
     19          6           0       -4.321998    0.851866   -0.249022
     20          6           0       -4.510369   -0.526489    0.403276
     21          1           0       -2.861110   -1.873501    1.022141
     22          1           0       -3.159507   -1.865137   -0.718720
     23          1           0       -4.678355    0.892529   -1.284546
     24          1           0       -4.767658    1.677844    0.309799
     25          1           0       -4.700134   -0.409328    1.474893
     26          1           0       -5.345363   -1.075741   -0.036688
     27          1           0       -2.416463    1.884547   -0.491359
     28          6           0        2.810305    2.479059    0.742628
     29          1           0        1.996029    2.857237    1.371815
     30          1           0        3.433431    3.308989    0.402626
     31          1           0        3.418680    1.763778    1.306528
 ---------------------------------------------------------------------
 Rotational constants (GHZ):           1.2835677           0.3044952           0.2528053
 Leave Link  202 at Tue Jul 28 03:18:31 2026, MaxMem=  4026531840 cpu:               0.0 elap:               0.0
 (Enter /opt/packages/gaussian/g16RevC.01/g16/l301.exe)
 Standard basis: 6-31+G(d) (6D, 7F)
 Ernie: Thresh=  0.10000D-02 Tol=  0.10000D-05 Strict=F.
 There are   317 symmetry adapted cartesian basis functions of A   symmetry.
 There are   317 symmetry adapted basis functions of A   symmetry.
   317 basis functions,   544 primitive gaussians,   317 cartesian basis functions
    55 alpha electrons       55 beta electrons
       nuclear repulsion energy       980.2703880166 Hartrees.
 IExCor=  402 DFT=T Ex+Corr=B3LYP ExCW=0 ScaHFX=  0.200000
 ScaDFX=  0.800000  0.720000  1.000000  0.810000 ScalE2=  1.000000  1.000000
 IRadAn=      5 IRanWt=     -1 IRanGd=            0 ICorTp=0 IEmpDi=  4
 NAtoms=   31 NActive=   31 NUniq=   31 SFac= 1.00D+00 NAtFMM=   60 NAOKFM=F Big=F
 Integral buffers will be    131072 words long.
 Raffenetti 2 integral format.
 Two-electron integral symmetry is turned on.
 ------------------------------------------------------------------------------
 Polarizable Continuum Model (PCM)
 =================================
 Model                : PCM.
 Atomic radii         : SMD-Coulomb.
 Polarization charges : Total charges.
 Charge compensation  : None.
 Solution method      : On-the-fly selection.
 Cavity type          : VdW (van der Waals Surface) (Alpha=1.000).
 Cavity algorithm     : GePol (No added spheres)
                        Default sphere list used, NSphG=   31.
                        Lebedev-Laikov grids with approx.  5.0 points / Ang**2.
                        Smoothing algorithm: York/Karplus (Gamma=1.0000).
                        Polarization charges: spherical gaussians, with
                                              point-specific exponents (IZeta= 3).
                        Self-potential: point-specific (ISelfS= 7).
                        Self-field    : sphere-specific E.n sum rule (ISelfD= 2).
 1st derivatives      : Analytical E(r).r(x)/FMM algorithm (CHGder, D1EAlg=3).
                        Cavity 1st derivative terms included.
 Solvent              : Methanol, Eps=  32.613000 Eps(inf)=   1.765709
 ------------------------------------------------------------------------------
 GePol: Number of generator spheres                  =      31
 GePol: Total number of spheres                      =      31
 GePol: Number of exposed spheres                    =      31 (100.00%)
 GePol: Number of points                             =    2263
 GePol: Average weight of points                     =       0.11
 GePol: Minimum weight of points                     =   0.18D-11
 GePol: Maximum weight of points                     =    0.21991
 GePol: Number of points with low weight             =     134
 GePol: Fraction of low-weight points (<1% of avg)   =       5.92%
 GePol: Cavity surface area                          =    247.485 Ang**2
 GePol: Cavity volume                                =    218.484 Ang**3
 ------------------------------------------------------------------------------
 Atomic radii for non-electrostatic terms: SMD-CDS.
 ------------------------------------------------------------------------------
 PCM non-electrostatic energy =         0.0015831762 Hartrees.
 Nuclear repulsion after PCM non-electrostatic terms =      980.2719711928 Hartrees.
 Leave Link  301 at Tue Jul 28 03:18:31 2026, MaxMem=  4026531840 cpu:               0.4 elap:               0.1
 (Enter /opt/packages/gaussian/g16RevC.01/g16/l302.exe)
 NPDir=0 NMtPBC=     1 NCelOv=     1 NCel=       1 NClECP=     1 NCelD=      1
         NCelK=      1 NCelE2=     1 NClLst=     1 CellRange=     0.0.
 One-electron integrals computed using PRISM.
 One-electron integral symmetry used in STVInt
 NBasis=   317 RedAO= T EigKep=  1.42D-06  NBF=   317
 NBsUse=   315 1.00D-06 EigRej=  7.82D-07 NBFU=   315
 Precomputing XC quadrature grid using
 IXCGrd= 4 IRadAn=           5 IRanWt=          -1 IRanGd=           0 AccXCQ= 0.00D+00.
 Generated NRdTot=       0 NPtTot=           0 NUsed=           0 NTot=          32
 NSgBfM=   316   316   316   316   316 MxSgAt=    31 MxSgA2=    31.
 Leave Link  302 at Tue Jul 28 03:18:31 2026, MaxMem=  4026531840 cpu:               1.7 elap:               0.2
 (Enter /opt/packages/gaussian/g16RevC.01/g16/l303.exe)
 DipDrv:  MaxL=1.
 Leave Link  303 at Tue Jul 28 03:18:31 2026, MaxMem=  4026531840 cpu:               0.1 elap:               0.0
 (Enter /opt/packages/gaussian/g16RevC.01/g16/l401.exe)
 Initial guess from the checkpoint file:  "dmp_s0_opt.chk"
 B after Tr=     0.000000   -0.000000   -0.000000
         Rot=    1.000000    0.000061    0.000029   -0.000063 Ang=   0.01 deg.
 Guess basis will be translated and rotated to current coordinates.
 JPrj=2 DoOrth=T DoCkMO=T.
 Leave Link  401 at Tue Jul 28 03:18:31 2026, MaxMem=  4026531840 cpu:               0.6 elap:               0.1
 (Enter /opt/packages/gaussian/g16RevC.01/g16/l502.exe)
 Integral symmetry usage will be decided dynamically.
 Closed shell SCF:
 Using DIIS extrapolation, IDIIS=  1040.
 NGot=  4026531840 LenX=  4026324160 LenY=  4026223230
 Requested convergence on RMS density matrix=1.00D-08 within 128 cycles.
 Requested convergence on MAX density matrix=1.00D-06.
 Requested convergence on             energy=1.00D-06.
 No special actions if energy rises.
 Fock matrices will be formed incrementally for  20 cycles.

 Cycle   1  Pass 1  IDiag  1:
 FoFJK:  IHMeth= 1 ICntrl=       0 DoSepK=F KAlg= 0 I1Cent=           0 FoldK=F
 IRaf= 870000000 NMat=       1 IRICut=       1 DoRegI=T DoRafI=F ISym2E= 0 IDoP0=0 IntGTp=1.
 FoFCou: FMM=F IPFlag=           0 FMFlag=      100000 FMFlg1=           0
         NFxFlg=           0 DoJE=F BraDBF=F KetDBF=F FulRan=T
         wScrn=  0.000000 ICntrl=         0 IOpCl=  0 I1Cent=           0 NGrid=           0
         NMat0=    1 NMatS0=      1 NMatT0=    0 NMatD0=    1 NMtDS0=    0 NMtDT0=    0
 Symmetry not used in FoFCou.
 Inv3:  Mode=1 IEnd=    15363507.
 Iteration    1 A*A^-1 deviation from unit magnitude is 3.77D-15 for    937.
 Iteration    1 A*A^-1 deviation from orthogonality  is 2.37D-15 for   1784    220.
 Iteration    1 A^-1*A deviation from unit magnitude is 3.44D-15 for   1093.
 Iteration    1 A^-1*A deviation from orthogonality  is 2.89D-15 for   2001    666.
 E= -671.981180057770    
 DIIS: error= 5.22D-05 at cycle   1 NSaved=   1.
 NSaved= 1 IEnMin= 1 EnMin= -671.981180057770     IErMin= 1 ErrMin= 5.22D-05
 ErrMax= 5.22D-05  0.00D+00 EMaxC= 1.00D-01 BMatC= 2.03D-06 BMatP= 2.03D-06
 IDIUse=1 WtCom= 1.00D+00 WtEn= 0.00D+00
 Coeff-Com:  0.100D+01
 Coeff:      0.100D+01
 Gap=     0.421 Goal=   None    Shift=    0.000
 RMSDP=1.24D-04 MaxDP=1.53D-02              OVMax= 6.49D-04

 Cycle   2  Pass 1  IDiag  1:
 RMSU=  1.13D-04    CP:  9.99D-01
 E= -671.981183790119     Delta-E=       -0.000003732349 Rises=F Damp=F
 DIIS: error= 6.44D-06 at cycle   2 NSaved=   2.
 NSaved= 2 IEnMin= 2 EnMin= -671.981183790119     IErMin= 2 ErrMin= 6.44D-06
 ErrMax= 6.44D-06  0.00D+00 EMaxC= 1.00D-01 BMatC= 2.52D-08 BMatP= 2.03D-06
 IDIUse=1 WtCom= 1.00D+00 WtEn= 0.00D+00
 Coeff-Com: -0.672D-01 0.107D+01
 Coeff:     -0.672D-01 0.107D+01
 Gap=     0.156 Goal=   None    Shift=    0.000
 RMSDP=1.46D-05 MaxDP=1.90D-03 DE=-3.73D-06 OVMax= 7.35D-05

 Cycle   3  Pass 1  IDiag  1:
 RMSU=  6.94D-06    CP:  9.99D-01  1.09D+00
 E= -671.981183818209     Delta-E=       -0.000000028090 Rises=F Damp=F
 DIIS: error= 3.80D-06 at cycle   3 NSaved=   3.
 NSaved= 3 IEnMin= 3 EnMin= -671.981183818209     IErMin= 3 ErrMin= 3.80D-06
 ErrMax= 3.80D-06  0.00D+00 EMaxC= 1.00D-01 BMatC= 1.42D-08 BMatP= 2.52D-08
 IDIUse=1 WtCom= 1.00D+00 WtEn= 0.00D+00
 Coeff-Com: -0.366D-01 0.506D+00 0.531D+00
 Coeff:     -0.366D-01 0.506D+00 0.531D+00
 Gap=     0.156 Goal=   None    Shift=    0.000
 RMSDP=3.28D-06 MaxDP=2.48D-04 DE=-2.81D-08 OVMax= 7.24D-05

 Cycle   4  Pass 1  IDiag  1:
 RMSU=  2.60D-06    CP:  9.99D-01  1.07D+00  7.89D-01
 E= -671.981183830359     Delta-E=       -0.000000012150 Rises=F Damp=F
 DIIS: error= 1.93D-06 at cycle   4 NSaved=   4.
 NSaved= 4 IEnMin= 4 EnMin= -671.981183830359     IErMin= 4 ErrMin= 1.93D-06
 ErrMax= 1.93D-06  0.00D+00 EMaxC= 1.00D-01 BMatC= 2.61D-09 BMatP= 1.42D-08
 IDIUse=1 WtCom= 1.00D+00 WtEn= 0.00D+00
 Coeff-Com: -0.890D-02 0.109D+00 0.308D+00 0.591D+00
 Coeff:     -0.890D-02 0.109D+00 0.308D+00 0.591D+00
 Gap=     0.156 Goal=   None    Shift=    0.000
 RMSDP=1.22D-06 MaxDP=7.35D-05 DE=-1.21D-08 OVMax= 2.76D-05

 Cycle   5  Pass 1  IDiag  1:
 RMSU=  9.58D-07    CP:  9.99D-01  1.08D+00  8.19D-01  8.49D-01
 E= -671.981183832989     Delta-E=       -0.000000002630 Rises=F Damp=F
 DIIS: error= 3.90D-07 at cycle   5 NSaved=   5.
 NSaved= 5 IEnMin= 5 EnMin= -671.981183832989     IErMin= 5 ErrMin= 3.90D-07
 ErrMax= 3.90D-07  0.00D+00 EMaxC= 1.00D-01 BMatC= 1.56D-10 BMatP= 2.61D-09
 IDIUse=1 WtCom= 1.00D+00 WtEn= 0.00D+00
 Coeff-Com: -0.212D-02 0.220D-01 0.122D+00 0.303D+00 0.555D+00
 Coeff:     -0.212D-02 0.220D-01 0.122D+00 0.303D+00 0.555D+00
 Gap=     0.156 Goal=   None    Shift=    0.000
 RMSDP=4.21D-07 MaxDP=3.38D-05 DE=-2.63D-09 OVMax= 5.14D-06

 Cycle   6  Pass 1  IDiag  1:
 RMSU=  2.64D-07    CP:  9.99D-01  1.07D+00  8.47D-01  8.86D-01  8.35D-01
 E= -671.981183833160     Delta-E=       -0.000000000171 Rises=F Damp=F
 DIIS: error= 9.78D-08 at cycle   6 NSaved=   6.
 NSaved= 6 IEnMin= 6 EnMin= -671.981183833160     IErMin= 6 ErrMin= 9.78D-08
 ErrMax= 9.78D-08  0.00D+00 EMaxC= 1.00D-01 BMatC= 9.80D-12 BMatP= 1.56D-10
 IDIUse=1 WtCom= 1.00D+00 WtEn= 0.00D+00
 Coeff-Com: -0.111D-03-0.150D-02 0.248D-01 0.789D-01 0.249D+00 0.649D+00
 Coeff:     -0.111D-03-0.150D-02 0.248D-01 0.789D-01 0.249D+00 0.649D+00
 Gap=     0.156 Goal=   None    Shift=    0.000
 RMSDP=5.68D-08 MaxDP=2.07D-06 DE=-1.71D-10 OVMax= 1.20D-06

 Cycle   7  Pass 1  IDiag  1:
 RMSU=  4.98D-08    CP:  9.99D-01  1.07D+00  8.47D-01  8.90D-01  8.32D-01
                    CP:  9.53D-01
 E= -671.981183833175     Delta-E=       -0.000000000015 Rises=F Damp=F
 DIIS: error= 4.03D-08 at cycle   7 NSaved=   7.
 NSaved= 7 IEnMin= 7 EnMin= -671.981183833175     IErMin= 7 ErrMin= 4.03D-08
 ErrMax= 4.03D-08  0.00D+00 EMaxC= 1.00D-01 BMatC= 2.37D-12 BMatP= 9.80D-12
 IDIUse=1 WtCom= 1.00D+00 WtEn= 0.00D+00
 Coeff-Com:  0.155D-03-0.338D-02 0.198D-02 0.153D-01 0.943D-01 0.391D+00
 Coeff-Com:  0.501D+00
 Coeff:      0.155D-03-0.338D-02 0.198D-02 0.153D-01 0.943D-01 0.391D+00
 Coeff:      0.501D+00
 Gap=     0.156 Goal=   None    Shift=    0.000
 RMSDP=3.69D-08 MaxDP=3.27D-06 DE=-1.49D-11 OVMax= 4.17D-07

 Cycle   8  Pass 1  IDiag  1:
 RMSU=  1.55D-08    CP:  9.99D-01  1.07D+00  8.48D-01  8.94D-01  8.57D-01
                    CP:  9.68D-01  7.03D-01
 E= -671.981183833162     Delta-E=        0.000000000013 Rises=F Damp=F
 DIIS: error= 7.91D-09 at cycle   8 NSaved=   8.
 NSaved= 8 IEnMin= 7 EnMin= -671.981183833175     IErMin= 8 ErrMin= 7.91D-09
 ErrMax= 7.91D-09  0.00D+00 EMaxC= 1.00D-01 BMatC= 6.32D-14 BMatP= 2.37D-12
 IDIUse=1 WtCom= 1.00D+00 WtEn= 0.00D+00
 Coeff-Com:  0.728D-04-0.142D-02-0.402D-03 0.266D-02 0.298D-01 0.144D+00
 Coeff-Com:  0.228D+00 0.597D+00
 Coeff:      0.728D-04-0.142D-02-0.402D-03 0.266D-02 0.298D-01 0.144D+00
 Coeff:      0.228D+00 0.597D+00
 Gap=     0.156 Goal=   None    Shift=    0.000
 RMSDP=1.38D-08 MaxDP=1.17D-06 DE= 1.32D-11 OVMax= 8.57D-08

 Cycle   9  Pass 1  IDiag  1:
 RMSU=  5.34D-09    CP:  9.99D-01  1.07D+00  8.48D-01  8.97D-01  8.64D-01
                    CP:  9.88D-01  7.35D-01  1.03D+00
 E= -671.981183833154     Delta-E=        0.000000000008 Rises=F Damp=F
 DIIS: error= 3.07D-09 at cycle   9 NSaved=   9.
 NSaved= 9 IEnMin= 7 EnMin= -671.981183833175     IErMin= 9 ErrMin= 3.07D-09
 ErrMax= 3.07D-09  0.00D+00 EMaxC= 1.00D-01 BMatC= 7.73D-15 BMatP= 6.32D-14
 IDIUse=1 WtCom= 1.00D+00 WtEn= 0.00D+00
 Coeff-Com:  0.946D-05-0.113D-03-0.519D-03-0.125D-02-0.907D-03 0.579D-02
 Coeff-Com:  0.272D-01 0.278D+00 0.692D+00
 Coeff:      0.946D-05-0.113D-03-0.519D-03-0.125D-02-0.907D-03 0.579D-02
 Coeff:      0.272D-01 0.278D+00 0.692D+00
 Gap=     0.156 Goal=   None    Shift=    0.000
 RMSDP=2.23D-09 MaxDP=1.25D-07 DE= 7.73D-12 OVMax= 3.53D-08

 Error on total polarization charges =  0.05682
 SCF Done:  E(RB3LYP) =  -671.981183833     A.U. after    9 cycles
            NFock=  9  Conv=0.22D-08     -V/T= 2.0097
 KE= 6.654953994700D+02 PE=-3.505449670341D+03 EE= 1.187701115845D+03
 SMD-CDS (non-electrostatic) energy       (kcal/mol) =       0.99
 (included in total energy above)
 Leave Link  502 at Tue Jul 28 03:18:56 2026, MaxMem=  4026531840 cpu:             196.1 elap:              24.8
 (Enter /opt/packages/gaussian/g16RevC.01/g16/l701.exe)
 ... and contract with generalized density number  0.
 Compute integral first derivatives.
 D1PCM: PCM CHGder 1st derivatives, ID1Alg=3 FixD1E=F DoIter=F DoCFld=F I1PDM=0.
 GePol: Maximum number of non-zero 1st derivatives   =     260
 Leave Link  701 at Tue Jul 28 03:18:57 2026, MaxMem=  4026531840 cpu:               8.2 elap:               1.0
 (Enter /opt/packages/gaussian/g16RevC.01/g16/l702.exe)
 L702 exits ... SP integral derivatives will be done elsewhere.
 Leave Link  702 at Tue Jul 28 03:18:57 2026, MaxMem=  4026531840 cpu:               0.1 elap:               0.0
 (Enter /opt/packages/gaussian/g16RevC.01/g16/l703.exe)
 Integral derivatives from FoFJK, PRISM(SPDF).
 Compute integral first derivatives, UseDBF=F ICtDFT=           0.
 Calling FoFJK, ICntrl=      2127 FMM=F ISym2X=0 I1Cent= 0 IOpClX= 0 NMat=1 NMatS=1 NMatT=0.
 FoFJK:  IHMeth= 1 ICntrl=    2127 DoSepK=F KAlg= 0 I1Cent=           0 FoldK=F
 IRaf=         0 NMat=       1 IRICut=       1 DoRegI=T DoRafI=F ISym2E= 0 IDoP0=0 IntGTp=1.
 FoFCou: FMM=F IPFlag=           0 FMFlag=      100000 FMFlg1=         800
         NFxFlg=           0 DoJE=F BraDBF=F KetDBF=F FulRan=T
         wScrn=  0.000000 ICntrl=      2127 IOpCl=  0 I1Cent=           0 NGrid=           0
         NMat0=    1 NMatS0=      1 NMatT0=    0 NMatD0=    1 NMtDS0=    0 NMtDT0=    0
 Symmetry not used in FoFCou.
 Leave Link  703 at Tue Jul 28 03:19:05 2026, MaxMem=  4026531840 cpu:              59.0 elap:               7.4
 (Enter /opt/packages/gaussian/g16RevC.01/g16/l716.exe)
 Dipole        =-3.43175633D+00-5.63045044D-01 5.91686014D-01
 ***** Axes restored to original set *****
 -------------------------------------------------------------------
 Center     Atomic                   Forces (Hartrees/Bohr)
 Number     Number              X              Y              Z
 -------------------------------------------------------------------
      1        6           0.000010130   -0.000001347   -0.000009734
      2        6           0.000017910    0.000001681   -0.000002351
      3        6          -0.000051866    0.000012001    0.000000335
      4        6           0.000064916   -0.000025486    0.000002261
      5        6          -0.000029995   -0.000000519    0.000020210
      6        6          -0.000023656   -0.000000599   -0.000004221
      7        8           0.000084042   -0.000006813    0.000054105
      8        1          -0.000008853   -0.000006669    0.000006354
      9        1          -0.000000566   -0.000001589    0.000004319
     10        1           0.000005720    0.000001655   -0.000007501
     11        8           0.000029173   -0.000066862    0.000017114
     12        6          -0.000047479    0.000080319   -0.000004849
     13        1          -0.000005438   -0.000025639    0.000005158
     14        1          -0.000006496   -0.000020929    0.000015429
     15        1           0.000005629   -0.000019542    0.000007346
     16        6          -0.000055736    0.000042526   -0.000004850
     17        6           0.000000418    0.000015223   -0.000007461
     18        7           0.000038396   -0.000028814    0.000002854
     19        6          -0.000000748    0.000009982   -0.000010488
     20        6           0.000003575    0.000005720   -0.000000801
     21        1           0.000000560    0.000007161    0.000003257
     22        1           0.000000929   -0.000002296    0.000001264
     23        1          -0.000000758    0.000015893   -0.000009612
     24        1           0.000004831    0.000014351   -0.000004822
     25        1          -0.000008559    0.000013807    0.000000275
     26        1          -0.000007871    0.000014755   -0.000004030
     27        1           0.000006385    0.000012203   -0.000008292
     28        6          -0.000055746   -0.000021508   -0.000079713
     29        1           0.000005077    0.000000801    0.000010109
     30        1           0.000014050   -0.000000780   -0.000002563
     31        1           0.000012026   -0.000018685    0.000010895
 -------------------------------------------------------------------
 Cartesian Forces:  Max     0.000084042 RMS     0.000024719
 Leave Link  716 at Tue Jul 28 03:19:05 2026, MaxMem=  4026531840 cpu:               0.1 elap:               0.0
 (Enter /opt/packages/gaussian/g16RevC.01/g16/l103.exe)

 GradGradGradGradGradGradGradGradGradGradGradGradGradGradGradGradGradGrad
 Berny optimization.
 Using GEDIIS/GDIIS optimizer.
 FormGI is forming the generalized inverse of G from B-inverse, IUseBI=4.
 Internal  Forces:  Max     0.000070344 RMS     0.000011103
 Search for a local minimum.
 Step number   6 out of a maximum of  170
 All quantities printed in internal units (Hartrees-Bohrs-Radians)
 RMS Force = .11103D-04 SwitMx=.10000D-02 MixMth= 2
 Mixed Optimization -- En-DIIS/RFO-DIIS
 Swapping is turned off.
 Update second derivatives using D2CorX and points    1    2    3    4    5
                                                      6
 DE=  2.86D-08 DEPred=-1.71D-07 R=-1.67D-01
 Trust test=-1.67D-01 RLast= 5.89D-03 DXMaxT set to 1.50D-01
 ITU= -1  0  1  1  1  0
     Eigenvalues ---    0.00271   0.00919   0.01123   0.01237   0.01287
     Eigenvalues ---    0.01394   0.01467   0.01848   0.01858   0.02027
     Eigenvalues ---    0.02086   0.02146   0.02162   0.02177   0.02192
     Eigenvalues ---    0.02214   0.02271   0.02459   0.03366   0.03606
     Eigenvalues ---    0.04977   0.05226   0.05626   0.05895   0.06932
     Eigenvalues ---    0.07512   0.08444   0.08450   0.09432   0.10139
     Eigenvalues ---    0.10198   0.10636   0.10745   0.10994   0.14887
     Eigenvalues ---    0.15919   0.15944   0.15999   0.16000   0.16000
     Eigenvalues ---    0.16003   0.16056   0.16202   0.16318   0.21510
     Eigenvalues ---    0.22425   0.22779   0.23637   0.24042   0.24679
     Eigenvalues ---    0.24860   0.24997   0.25574   0.26279   0.27864
     Eigenvalues ---    0.28896   0.31287   0.32381   0.33987   0.34209
     Eigenvalues ---    0.34292   0.34346   0.34353   0.34429   0.34497
     Eigenvalues ---    0.34552   0.34700   0.34717   0.34721   0.34765
     Eigenvalues ---    0.34917   0.35375   0.35505   0.35787   0.36683
     Eigenvalues ---    0.40817   0.40890   0.42463   0.44654   0.45321
     Eigenvalues ---    0.46461   0.47089   0.49601   0.50620   0.55564
     Eigenvalues ---    0.60058   0.62156
 En-DIIS/RFO-DIIS/Sim-DIIS IScMMF=       -3 using points:     6    5    4    3    2
 RFO step:  Lambda=-2.98529622D-07.
 NNeg= 0 NGDIIS= 5 SimSw=  2.50D-03 Rises=F DC=  2.86D-08 SmlDif=  1.00D-05
 NRisDI= 0 DoIntr=F SqrtH=F CThrHd= 10.0 CDAdj=  3.0
 RMS Error=  0.6456971229D-03 NUsed= 5 OKEnD=F EnDIS=F
 InvSVX:  RCond= 4.29D-08 Info=           0 Equed=N FErr=  9.29D-13 BErr=  6.72D-17
 DIIS inversion failure, remove point   5.
 InvSVX:  RCond= 5.41D-08 Info=           0 Equed=N FErr=  8.22D-13 BErr=  4.94D-17
 DIIS inversion failure, remove point   4.
 InvSVX:  RCond= 7.24D-08 Info=           0 Equed=N FErr=  6.19D-13 BErr=  8.75D-17
 DIIS inversion failure, remove point   3.
 InvSVX:  RCond= 8.67D-06 Info=           0 Equed=N FErr=  6.89D-15 BErr=  2.95D-17
 RFO-DIIS uses    2 points instead of    5
 DidBck=F Rises=F RFO-DIIS coefs:    2.36745   -1.36745    0.00000    0.00000    0.00000
 Iteration  1 RMS(Cart)=  0.00181768 RMS(Int)=  0.00000222
 Iteration  2 RMS(Cart)=  0.00000311 RMS(Int)=  0.00000005
 Iteration  3 RMS(Cart)=  0.00000000 RMS(Int)=  0.00000005
 ITry= 1 IFail=0 DXMaxC= 9.91D-03 DCOld= 1.00D+10 DXMaxT= 1.50D-01 DXLimC= 3.00D+00 Rises=F
 Variable       Old X    -DE/DX   Delta X   Delta X   Delta X     New X
                                 (Linear)    (Quad)   (Total)
    R1        2.65164   0.00000   0.00015  -0.00010   0.00006   2.65170
    R2        2.68590  -0.00001   0.00016  -0.00009   0.00007   2.68596
    R3        2.54399  -0.00000  -0.00018   0.00006  -0.00013   2.54386
    R4        2.62792   0.00002   0.00003   0.00002   0.00004   2.62796
    R5        2.04796   0.00000   0.00001   0.00000   0.00001   2.04797
    R6        2.66282  -0.00002   0.00001  -0.00004  -0.00003   2.66279
    R7        2.05015  -0.00000   0.00005  -0.00004   0.00001   2.05016
    R8        2.67711  -0.00001   0.00002  -0.00007  -0.00005   2.67707
    R9        2.73414   0.00002   0.00017   0.00001   0.00018   2.73431
   R10        2.60875   0.00001   0.00005  -0.00003   0.00003   2.60878
   R11        2.05222   0.00000   0.00003  -0.00001   0.00003   2.05225
   R12        2.60410   0.00001   0.00006  -0.00001   0.00005   2.60415
   R13        2.73123  -0.00007   0.00036  -0.00030   0.00006   2.73129
   R14        2.72243  -0.00007   0.00035  -0.00030   0.00005   2.72248
   R15        2.06893   0.00001  -0.00006   0.00005  -0.00001   2.06892
   R16        2.06895   0.00001  -0.00006   0.00005  -0.00001   2.06895
   R17        2.06102   0.00001  -0.00002   0.00003   0.00000   2.06102
   R18        2.84923  -0.00001  -0.00004  -0.00001  -0.00005   2.84918
   R19        2.47247  -0.00004  -0.00006  -0.00006  -0.00012   2.47235
   R20        2.91809   0.00001   0.00005  -0.00001   0.00004   2.91812
   R21        2.06482   0.00000   0.00004  -0.00002   0.00003   2.06485
   R22        2.07660   0.00000  -0.00000  -0.00000  -0.00001   2.07659
   R23        2.78697   0.00001  -0.00024   0.00011  -0.00013   2.78684
   R24        1.92304   0.00001   0.00002   0.00000   0.00002   1.92307
   R25        2.90357   0.00001   0.00015  -0.00005   0.00010   2.90367
   R26        2.07091   0.00001   0.00001   0.00000   0.00001   2.07092
   R27        2.06416   0.00000   0.00003  -0.00001   0.00002   2.06418
   R28        2.06845   0.00001  -0.00002   0.00001  -0.00001   2.06844
   R29        2.06358   0.00000   0.00001   0.00000   0.00001   2.06359
   R30        2.07176   0.00001  -0.00005   0.00004  -0.00002   2.07175
   R31        2.06376   0.00001  -0.00002   0.00003   0.00001   2.06377
   R32        2.06986   0.00002  -0.00001   0.00005   0.00004   2.06990
    A1        2.08081  -0.00000  -0.00013   0.00005  -0.00008   2.08073
    A2        2.17913   0.00000   0.00008  -0.00005   0.00003   2.17916
    A3        2.02322  -0.00000   0.00005  -0.00000   0.00005   2.02327
    A4        2.09603   0.00000   0.00005  -0.00002   0.00003   2.09605
    A5        2.10336   0.00000   0.00002   0.00000   0.00002   2.10338
    A6        2.08378  -0.00000  -0.00007   0.00002  -0.00005   2.08374
    A7        2.11521  -0.00001   0.00007  -0.00006   0.00001   2.11522
    A8        2.06636  -0.00000   0.00003  -0.00007  -0.00004   2.06633
    A9        2.10154   0.00001  -0.00010   0.00012   0.00002   2.10156
   A10        2.06533   0.00002  -0.00009   0.00009   0.00000   2.06533
   A11        2.08567   0.00000  -0.00005   0.00012   0.00007   2.08574
   A12        2.13214  -0.00002   0.00014  -0.00021  -0.00007   2.13207
   A13        2.10980  -0.00001   0.00009  -0.00008   0.00001   2.10981
   A14        2.12824   0.00001   0.00004  -0.00001   0.00002   2.12827
   A15        2.04513   0.00000  -0.00013   0.00009  -0.00003   2.04510
   A16        2.09902   0.00000   0.00001   0.00003   0.00004   2.09906
   A17        2.08745  -0.00003  -0.00022  -0.00006  -0.00028   2.08717
   A18        2.09524   0.00003   0.00022   0.00004   0.00026   2.09550
   A19        2.00582  -0.00000  -0.00029   0.00012  -0.00018   2.00564
   A20        2.08059  -0.00000   0.00013  -0.00007   0.00006   2.08065
   A21        1.92890   0.00001  -0.00013   0.00011  -0.00002   1.92888
   A22        1.92963   0.00001  -0.00012   0.00008  -0.00004   1.92959
   A23        1.83482   0.00001  -0.00017   0.00018   0.00000   1.83482
   A24        1.92946  -0.00001   0.00025  -0.00020   0.00006   1.92952
   A25        1.91939  -0.00001   0.00009  -0.00008   0.00000   1.91940
   A26        1.91958  -0.00001   0.00006  -0.00007  -0.00001   1.91957
   A27        2.19652  -0.00000  -0.00012   0.00009  -0.00003   2.19649
   A28        2.18083  -0.00001  -0.00000  -0.00007  -0.00007   2.18076
   A29        1.90547   0.00001   0.00012  -0.00002   0.00010   1.90557
   A30        1.81244  -0.00001   0.00003   0.00005   0.00008   1.81252
   A31        1.95412  -0.00000  -0.00010  -0.00001  -0.00011   1.95401
   A32        1.88416   0.00000   0.00003   0.00001   0.00005   1.88421
   A33        1.97884   0.00000  -0.00001  -0.00003  -0.00004   1.97880
   A34        1.95868   0.00001   0.00020  -0.00004   0.00016   1.95884
   A35        1.87454  -0.00000  -0.00015   0.00002  -0.00013   1.87442
   A36        2.00931   0.00000   0.00010  -0.00001   0.00010   2.00940
   A37        2.15893   0.00000  -0.00004  -0.00000  -0.00004   2.15888
   A38        2.11172  -0.00000  -0.00009   0.00002  -0.00007   2.11165
   A39        1.78444  -0.00000   0.00010  -0.00001   0.00009   1.78453
   A40        1.89191   0.00000   0.00006   0.00001   0.00007   1.89198
   A41        1.91148   0.00000   0.00008  -0.00005   0.00003   1.91151
   A42        1.97640   0.00000   0.00009  -0.00000   0.00009   1.97649
   A43        1.99450  -0.00000  -0.00010  -0.00001  -0.00012   1.99438
   A44        1.89937  -0.00000  -0.00018   0.00005  -0.00014   1.89923
   A45        1.81925  -0.00001   0.00015  -0.00002   0.00012   1.81937
   A46        1.91800   0.00000   0.00008  -0.00002   0.00006   1.91806
   A47        1.96130   0.00000  -0.00006   0.00007   0.00001   1.96131
   A48        1.91863   0.00000   0.00009  -0.00006   0.00003   1.91866
   A49        1.95402   0.00000  -0.00004  -0.00002  -0.00005   1.95396
   A50        1.89201  -0.00000  -0.00019   0.00005  -0.00015   1.89186
   A51        1.92209   0.00001   0.00001   0.00009   0.00010   1.92220
   A52        1.84936   0.00000  -0.00007   0.00011   0.00005   1.84941
   A53        1.93570  -0.00000  -0.00020   0.00006  -0.00014   1.93556
   A54        1.91805  -0.00000   0.00004  -0.00006  -0.00002   1.91803
   A55        1.92020  -0.00001   0.00015  -0.00014   0.00001   1.92021
   A56        1.91732  -0.00000   0.00006  -0.00006  -0.00000   1.91732
    D1        0.00659  -0.00000  -0.00001  -0.00017  -0.00018   0.00640
    D2       -3.13948  -0.00000   0.00011  -0.00013  -0.00002  -3.13950
    D3       -3.12716  -0.00000  -0.00027  -0.00004  -0.00032  -3.12747
    D4        0.00996  -0.00000  -0.00015  -0.00000  -0.00015   0.00981
    D5       -0.01652   0.00000   0.00001   0.00014   0.00015  -0.01637
    D6       -3.09999   0.00000  -0.00019   0.00012  -0.00007  -3.10006
    D7        3.11791   0.00000   0.00024   0.00003   0.00027   3.11818
    D8        0.03444   0.00000   0.00004   0.00000   0.00005   0.03449
    D9        0.00712   0.00000   0.00041  -0.00007   0.00034   0.00746
   D10       -3.12686   0.00000   0.00016   0.00006   0.00021  -3.12665
   D11        0.00893   0.00000  -0.00003   0.00009   0.00007   0.00899
   D12        3.13767   0.00000   0.00015  -0.00001   0.00014   3.13781
   D13       -3.12824  -0.00000  -0.00015   0.00005  -0.00010  -3.12834
   D14        0.00050  -0.00000   0.00002  -0.00005  -0.00003   0.00047
   D15       -0.01441   0.00000   0.00007   0.00002   0.00009  -0.01432
   D16        3.11796   0.00000   0.00014  -0.00008   0.00007   3.11802
   D17        3.14029   0.00000  -0.00011   0.00012   0.00002   3.14031
   D18       -0.01053  -0.00000  -0.00004   0.00003  -0.00001  -0.01054
   D19        0.00433  -0.00000  -0.00008  -0.00004  -0.00013   0.00421
   D20       -3.13290  -0.00000  -0.00005  -0.00012  -0.00016  -3.13306
   D21       -3.12777  -0.00000  -0.00015   0.00005  -0.00010  -3.12788
   D22        0.01818  -0.00000  -0.00012  -0.00002  -0.00014   0.01804
   D23        0.05236   0.00000  -0.00036   0.00037   0.00002   0.05237
   D24       -3.05738   0.00000  -0.00028   0.00021  -0.00007  -3.05745
   D25       -3.09883   0.00000  -0.00029   0.00028  -0.00001  -3.09884
   D26        0.07462   0.00000  -0.00021   0.00012  -0.00009   0.07453
   D27        0.01100  -0.00000   0.00004  -0.00003   0.00001   0.01101
   D28        3.09421  -0.00000   0.00023  -0.00002   0.00021   3.09442
   D29       -3.13475   0.00000   0.00001   0.00003   0.00005  -3.13471
   D30       -0.05155   0.00000   0.00020   0.00005   0.00025  -0.05130
   D31       -1.49633  -0.00003  -0.00364  -0.00046  -0.00410  -1.50044
   D32        1.70326  -0.00003  -0.00383  -0.00048  -0.00431   1.69894
   D33       -1.09150   0.00000   0.00046  -0.00004   0.00042  -1.09108
   D34        3.11818  -0.00000   0.00045  -0.00009   0.00036   3.11854
   D35        1.03827   0.00000   0.00053  -0.00012   0.00041   1.03868
   D36        1.06171  -0.00000  -0.00027  -0.00001  -0.00029   1.06142
   D37       -1.08032   0.00000  -0.00042   0.00010  -0.00032  -1.08064
   D38        3.13199  -0.00000  -0.00034   0.00005  -0.00029   3.13170
   D39        2.93066  -0.00000   0.00073  -0.00011   0.00062   2.93127
   D40        0.78935  -0.00000   0.00077  -0.00010   0.00068   0.79002
   D41       -1.27039   0.00000   0.00100  -0.00013   0.00087  -1.26952
   D42       -0.23858  -0.00000   0.00066   0.00003   0.00069  -0.23789
   D43       -2.37989  -0.00000   0.00071   0.00004   0.00075  -2.37914
   D44        1.84356   0.00000   0.00093   0.00001   0.00094   1.84450
   D45        3.09957   0.00000  -0.00008   0.00008  -0.00000   3.09957
   D46        0.04371   0.00000   0.00038  -0.00013   0.00026   0.04397
   D47       -0.01469   0.00000  -0.00001  -0.00006  -0.00007  -0.01476
   D48       -3.07055  -0.00000   0.00045  -0.00027   0.00019  -3.07036
   D49        0.38151  -0.00000  -0.00104   0.00002  -0.00102   0.38049
   D50       -1.67380   0.00000  -0.00126   0.00010  -0.00115  -1.67495
   D51        2.50102  -0.00000  -0.00102   0.00002  -0.00100   2.50002
   D52        2.50643  -0.00000  -0.00114   0.00002  -0.00113   2.50531
   D53        0.45112  -0.00000  -0.00136   0.00011  -0.00126   0.44986
   D54       -1.65724  -0.00000  -0.00113   0.00002  -0.00111  -1.65835
   D55       -1.64897  -0.00000  -0.00119  -0.00001  -0.00120  -1.65017
   D56        2.57890  -0.00000  -0.00141   0.00008  -0.00133   2.57757
   D57        0.47054  -0.00000  -0.00118  -0.00001  -0.00118   0.46936
   D58        0.26092   0.00000  -0.00065   0.00007  -0.00058   0.26034
   D59       -1.83078  -0.00000  -0.00082   0.00007  -0.00076  -1.83154
   D60        2.38240  -0.00000  -0.00068   0.00003  -0.00065   2.38175
   D61       -2.96387   0.00000  -0.00110   0.00026  -0.00083  -2.96471
   D62        1.22761  -0.00000  -0.00127   0.00026  -0.00101   1.22660
   D63       -0.84239  -0.00000  -0.00113   0.00023  -0.00090  -0.84330
   D64       -0.38132   0.00000   0.00099  -0.00003   0.00096  -0.38036
   D65        1.67356   0.00000   0.00120  -0.00010   0.00110   1.67466
   D66       -2.50566  -0.00000   0.00099  -0.00009   0.00090  -2.50475
   D67        1.65026   0.00000   0.00115  -0.00002   0.00113   1.65139
   D68       -2.57805   0.00000   0.00137  -0.00009   0.00128  -2.57677
   D69       -0.47408  -0.00000   0.00115  -0.00008   0.00108  -0.47301
   D70       -2.44473   0.00000   0.00089   0.00003   0.00092  -2.44381
   D71       -0.38985   0.00000   0.00110  -0.00003   0.00107  -0.38878
   D72        1.71412  -0.00000   0.00089  -0.00002   0.00087   1.71499
         Item               Value     Threshold  Converged?
 Maximum Force            0.000070     0.000450     YES
 RMS     Force            0.000011     0.000300     YES
 Maximum Displacement     0.009906     0.001800     NO 
 RMS     Displacement     0.001818     0.001200     NO 
 Predicted change in Energy=-1.492717D-07
 GradGradGradGradGradGradGradGradGradGradGradGradGradGradGradGradGradGrad

 Leave Link  103 at Tue Jul 28 03:19:06 2026, MaxMem=  4026531840 cpu:               0.2 elap:               0.0
 (Enter /opt/packages/gaussian/g16RevC.01/g16/l202.exe)
                          Input orientation:                          
 ---------------------------------------------------------------------
 Center     Atomic      Atomic             Coordinates (Angstroms)
 Number     Number       Type             X           Y           Z
 ---------------------------------------------------------------------
      1          6           0        2.065774   -0.520905   -0.103038
      2          6           0        1.237414   -1.640648    0.067295
      3          6           0       -0.144383   -1.487328    0.099889
      4          6           0       -0.741651   -0.219506   -0.046487
      5          6           0        0.102275    0.906337   -0.211228
      6          6           0        1.475404    0.765485   -0.233042
      7          8           0        2.278696    1.864000   -0.449911
      8          1           0        1.665210   -2.631018    0.170495
      9          1           0       -0.758681   -2.372135    0.229337
     10          1           0       -0.295074    1.911038   -0.321219
     11          8           0        3.409959   -0.560457   -0.164113
     12          6           0        4.081506   -1.830703   -0.059048
     13          1           0        3.775432   -2.495085   -0.873637
     14          1           0        3.878063   -2.293980    0.911858
     15          1           0        5.143714   -1.599165   -0.146295
     16          6           0       -2.184081   -0.105852   -0.036228
     17          6           0       -3.157346   -1.236090    0.184078
     18          7           0       -2.850338    0.999200   -0.252183
     19          6           0       -4.318192    0.857085   -0.245026
     20          6           0       -4.508918   -0.522416    0.404280
     21          1           0       -2.861603   -1.872509    1.021598
     22          1           0       -3.159904   -1.861903   -0.719193
     23          1           0       -4.675057    0.900895   -1.280252
     24          1           0       -4.762104    1.682578    0.315920
     25          1           0       -4.699109   -0.407277    1.476036
     26          1           0       -5.344602   -1.069407   -0.037203
     27          1           0       -2.410996    1.886662   -0.486676
     28          6           0        2.812662    2.473618    0.746853
     29          1           0        1.996863    2.852805    1.373438
     30          1           0        3.437554    3.302851    0.408377
     31          1           0        3.418714    1.758009    1.312874
 ---------------------------------------------------------------------
                    Distance matrix (angstroms):
                    1          2          3          4          5
     1  C    0.000000
     2  C    1.403217   0.000000
     3  C    2.420733   1.390658   0.000000
     4  C    2.824124   2.439116   1.409088   0.000000
     5  C    2.429826   2.802364   2.426370   1.416642   0.000000
     6  C    1.421351   2.436456   2.794588   2.433176   1.380506
     7  O    2.419386   3.692469   4.171929   3.691375   2.389748
     8  H    2.165144   1.083741   2.141877   3.414008   3.886047
     9  H    3.393386   2.132071   1.084897   2.170295   3.418147
    10  H    3.396403   3.887664   3.427672   2.194112   1.086006
    11  O    1.346154   2.437276   3.682681   4.167248   3.618630
    12  C    2.404305   2.853234   4.242794   5.085170   4.832062
    13  H    2.722892   2.838477   4.162725   5.125083   5.049806
    14  H    2.730971   2.848361   4.182111   5.153992   5.075424
    15  H    3.261630   3.912355   5.295006   6.045738   5.630085
    16  C    4.270597   3.751392   2.467260   1.446937   2.506507
    17  C    5.279669   4.414886   3.024591   2.631004   3.920637
    18  N    5.147924   4.876533   3.691744   2.444201   2.954357
    19  C    6.532536   6.099259   4.799575   3.740335   4.420870
    20  C    6.594236   5.863815   4.480276   3.806211   4.866548
    21  H    5.231700   4.215020   2.895030   2.892649   4.245753
    22  H    5.430067   4.472574   3.147152   2.999658   4.308479
    23  H    6.989002   6.575153   5.304282   4.271904   4.895482
    24  H    7.186848   6.862934   5.605205   4.462433   4.954051
    25  H    6.947663   6.224793   4.879120   4.244385   5.256018
    26  H    7.430939   6.607583   5.218786   4.680766   5.796751
    27  H    5.097551   5.104869   4.106751   2.723311   2.711723
    28  C    3.201145   4.457622   4.985156   4.529399   3.274215
    29  H    3.683293   4.740663   5.004360   4.353704   3.144736
    30  H    4.094440   5.421728   5.989262   5.484493   4.153465
    31  H    3.004780   4.226158   4.969830   4.802819   3.747933
                    6          7          8          9         10
     6  C    0.000000
     7  O    1.378059   0.000000
     8  H    3.425654   4.578915   0.000000
     9  H    3.879381   5.256604   2.438387   0.000000
    10  H    2.110606   2.577414   4.971395   4.343227   0.000000
    11  O    2.346354   2.690619   2.728248   4.562296   4.456483
    12  C    3.682694   4.129616   2.555715   4.878906   5.764010
    13  H    4.041263   4.628325   2.358331   4.667960   6.023961
    14  H    4.055108   4.658454   2.357951   4.687360   6.051259
    15  H    4.365271   4.504889   3.642124   5.964633   6.475533
    16  C    3.766934   4.895695   4.608280   2.690415   2.778023
    17  C    5.063859   6.289917   5.020264   2.654475   4.283964
    18  N    4.332093   5.205186   5.809244   3.996598   2.713962
    19  C    5.794332   6.676435   6.938344   4.829389   4.159579
    20  C    6.154427   7.245435   6.528454   4.185253   4.919810
    21  H    5.229031   6.522999   4.668163   2.302083   4.765025
    22  H    5.350289   6.597972   4.966368   2.631714   4.754021
    23  H    6.240445   7.069068   7.401221   5.322555   4.596128
    24  H    6.328422   7.084651   7.742004   5.698737   4.518020
    25  H    6.513135   7.586681   6.866878   4.576232   5.291525
    26  H    7.065243   8.178623   7.184652   4.774810   5.870388
    27  H    4.052835   4.689891   6.120193   4.623870   2.122521
    28  C    2.380373   1.445337   5.263663   6.041825   3.333961
    29  H    2.685070   2.093267   5.624000   6.016809   3.001959
    30  H    3.271037   2.037131   6.197467   7.060164   4.049934
    31  H    2.674214   2.101972   4.862444   5.973506   4.060283
                   11         12         13         14         15
    11  O    0.000000
    12  C    1.440672   0.000000
    13  H    2.092792   1.094824   0.000000
    14  H    2.093308   1.094839   1.799713   0.000000
    15  H    2.021172   1.090646   1.789942   1.790064   0.000000
    16  C    5.613939   6.498708   6.474989   6.514320   7.479216
    17  C    6.611143   7.267300   7.125113   7.151627   8.315562
    18  N    6.452256   7.489734   7.516453   7.580990   8.406401
    19  C    7.857499   8.821208   8.782878   8.856985   9.776020
    20  C    7.939341   8.701820   8.611327   8.587056   9.728095
    21  H    6.516125   7.026827   6.930350   6.753724   8.094677
    22  H    6.720489   7.271505   6.965893   7.237403   8.327503
    23  H    8.291490   9.253668   9.116402   9.389806  10.195314
    24  H    8.487889   9.523297   9.579011   9.529987  10.445512
    25  H    8.274692   9.026727   9.038680   8.800331  10.046577
    26  H    8.770261   9.456825   9.268613   9.351890  10.502253
    27  H    6.322655   7.493614   7.590872   7.680230   8.327094
    28  C    3.223699   4.559234   5.314219   4.887975   4.776932
    29  H    4.001408   5.322875   6.067337   5.499215   5.659708
    30  H    3.905594   5.194857   5.947587   5.636672   5.220000
    31  H    2.748973   3.898758   4.795507   4.097613   4.046655
                   16         17         18         19         20
    16  C    0.000000
    17  C    1.507720   0.000000
    18  N    1.308310   2.298065   0.000000
    19  C    2.350590   2.431682   1.474735   0.000000
    20  C    2.402590   1.544204   2.344599   1.536554   0.000000
    21  H    2.167743   1.092672   3.141553   3.343152   2.217539
    22  H    2.121883   1.098884   2.915448   2.993219   2.208224
    23  H    2.960760   3.002402   2.096710   1.095886   2.211575
    24  H    3.157324   3.333356   2.108221   1.092318   2.221241
    25  H    2.950113   2.175573   2.895319   2.169277   1.094574
    26  H    3.304138   2.204731   3.247569   2.192733   1.092005
    27  H    2.055360   3.280020   1.017643   2.180784   3.316434
    28  C    5.677528   7.051216   5.936460   7.378759   7.918277
    29  H    5.312353   6.685769   5.438184   6.817788   7.393008
    30  H    6.589364   8.009058   6.729096   8.158450   8.819246
    31  H    6.056845   7.313233   6.505860   7.943452   8.298990
                   21         22         23         24         25
    21  H    0.000000
    22  H    1.766196   0.000000
    23  H    4.034712   3.200552   0.000000
    24  H    4.092497   4.025152   1.779430   0.000000
    25  H    2.393709   3.050265   3.051069   2.391095   0.000000
    26  H    2.816259   2.421996   2.423954   2.835035   1.773407
    27  H    4.075451   3.829708   2.593737   2.492693   3.788120
    28  C    7.152733   7.524465   7.915084   7.628141   8.078240
    29  H    6.786536   7.293820   7.440870   6.940563   7.448133
    30  H    8.175560   8.454144   8.627591   8.358722   9.006122
    31  H    7.260020   7.778899   8.542136   8.241687   8.403222
                   26         27         28         29         30
    26  H    0.000000
    27  H    4.188844   0.000000
    28  C    8.927974   5.399326   0.000000
    29  H    8.442201   4.880848   1.096321   0.000000
    30  H    9.820461   6.083769   1.092101   1.791501   0.000000
    31  H    9.306594   6.102496   1.095343   1.795524   1.790254
                   31
    31  H    0.000000
 Stoichiometry    C12H16NO2(1+)
 Framework group  C1[X(C12H16NO2)]
 Deg. of freedom    87
 Full point group                 C1      NOp   1
 RotChk:  IX=0 Diff= 5.29D-04
 Largest Abelian subgroup         C1      NOp   1
 Largest concise Abelian subgroup C1      NOp   1
                         Standard orientation:                         
 ---------------------------------------------------------------------
 Center     Atomic      Atomic             Coordinates (Angstroms)
 Number     Number       Type             X           Y           Z
 ---------------------------------------------------------------------
      1          6           0        2.064622   -0.515387   -0.102108
      2          6           0        1.238065   -1.636206    0.069896
      3          6           0       -0.143998   -1.485136    0.101685
      4          6           0       -0.743324   -0.218575   -0.047178
      5          6           0        0.098787    0.908381   -0.213596
      6          6           0        1.472157    0.769783   -0.234630
      7          8           0        2.273699    1.869250   -0.453143
      8          1           0        1.667474   -2.625676    0.175025
      9          1           0       -0.756869   -2.370736    0.232469
     10          1           0       -0.300195    1.912220   -0.325529
     11          8           0        3.408895   -0.552803   -0.162594
     12          6           0        4.082519   -1.821737   -0.055009
     13          1           0        3.777872   -2.488078   -0.868532
     14          1           0        3.879472   -2.283626    0.916641
     15          1           0        5.144374   -1.588582   -0.142258
     16          6           0       -2.185945   -0.107311   -0.037679
     17          6           0       -3.157408   -1.238779    0.184263
     18          7           0       -2.853961    0.996241   -0.255857
     19          6           0       -4.321578    0.851689   -0.249015
     20          6           0       -4.510255   -0.526971    0.402672
     21          1           0       -2.860930   -1.873212    1.023028
     22          1           0       -3.158571   -1.866201   -0.717895
     23          1           0       -4.678114    0.893062   -1.284455
     24          1           0       -4.767086    1.677437    0.310290
     25          1           0       -4.701055   -0.410244    1.474148
     26          1           0       -5.344853   -1.076141   -0.038160
     27          1           0       -2.416010    1.884017   -0.491759
     28          6           0        2.806181    2.481886    0.742741
     29          1           0        1.989506    2.860824    1.368335
     30          1           0        3.429820    3.311558    0.403031
     31          1           0        3.413206    1.768298    1.310269
 ---------------------------------------------------------------------
 Rotational constants (GHZ):           1.2828548           0.3045506           0.2528172
 Leave Link  202 at Tue Jul 28 03:19:07 2026, MaxMem=  4026531840 cpu:               0.0 elap:               0.4
 (Enter /opt/packages/gaussian/g16RevC.01/g16/l301.exe)
 Standard basis: 6-31+G(d) (6D, 7F)
 Ernie: Thresh=  0.10000D-02 Tol=  0.10000D-05 Strict=F.
 There are   317 symmetry adapted cartesian basis functions of A   symmetry.
 There are   317 symmetry adapted basis functions of A   symmetry.
   317 basis functions,   544 primitive gaussians,   317 cartesian basis functions
    55 alpha electrons       55 beta electrons
       nuclear repulsion energy       980.2562121166 Hartrees.
 IExCor=  402 DFT=T Ex+Corr=B3LYP ExCW=0 ScaHFX=  0.200000
 ScaDFX=  0.800000  0.720000  1.000000  0.810000 ScalE2=  1.000000  1.000000
 IRadAn=      5 IRanWt=     -1 IRanGd=            0 ICorTp=0 IEmpDi=  4
 NAtoms=   31 NActive=   31 NUniq=   31 SFac= 1.00D+00 NAtFMM=   60 NAOKFM=F Big=F
 Integral buffers will be    131072 words long.
 Raffenetti 2 integral format.
 Two-electron integral symmetry is turned on.
 ------------------------------------------------------------------------------
 Polarizable Continuum Model (PCM)
 =================================
 Model                : PCM.
 Atomic radii         : SMD-Coulomb.
 Polarization charges : Total charges.
 Charge compensation  : None.
 Solution method      : On-the-fly selection.
 Cavity type          : VdW (van der Waals Surface) (Alpha=1.000).
 Cavity algorithm     : GePol (No added spheres)
                        Default sphere list used, NSphG=   31.
                        Lebedev-Laikov grids with approx.  5.0 points / Ang**2.
                        Smoothing algorithm: York/Karplus (Gamma=1.0000).
                        Polarization charges: spherical gaussians, with
                                              point-specific exponents (IZeta= 3).
                        Self-potential: point-specific (ISelfS= 7).
                        Self-field    : sphere-specific E.n sum rule (ISelfD= 2).
 1st derivatives      : Analytical E(r).r(x)/FMM algorithm (CHGder, D1EAlg=3).
                        Cavity 1st derivative terms included.
 Solvent              : Methanol, Eps=  32.613000 Eps(inf)=   1.765709
 ------------------------------------------------------------------------------
 GePol: Number of generator spheres                  =      31
 GePol: Total number of spheres                      =      31
 GePol: Number of exposed spheres                    =      31 (100.00%)
 GePol: Number of points                             =    2261
 GePol: Average weight of points                     =       0.11
 GePol: Minimum weight of points                     =   0.37D-09
 GePol: Maximum weight of points                     =    0.21991
 GePol: Number of points with low weight             =     132
 GePol: Fraction of low-weight points (<1% of avg)   =       5.84%
 GePol: Cavity surface area                          =    247.524 Ang**2
 GePol: Cavity volume                                =    218.495 Ang**3
 ------------------------------------------------------------------------------
 Atomic radii for non-electrostatic terms: SMD-CDS.
 ------------------------------------------------------------------------------
 PCM non-electrostatic energy =         0.0015843874 Hartrees.
 Nuclear repulsion after PCM non-electrostatic terms =      980.2577965041 Hartrees.
 Leave Link  301 at Tue Jul 28 03:19:07 2026, MaxMem=  4026531840 cpu:               0.4 elap:               0.1
 (Enter /opt/packages/gaussian/g16RevC.01/g16/l302.exe)
 NPDir=0 NMtPBC=     1 NCelOv=     1 NCel=       1 NClECP=     1 NCelD=      1
         NCelK=      1 NCelE2=     1 NClLst=     1 CellRange=     0.0.
 One-electron integrals computed using PRISM.
 One-electron integral symmetry used in STVInt
 NBasis=   317 RedAO= T EigKep=  1.42D-06  NBF=   317
 NBsUse=   315 1.00D-06 EigRej=  7.82D-07 NBFU=   315
 Precomputing XC quadrature grid using
 IXCGrd= 4 IRadAn=           5 IRanWt=          -1 IRanGd=           0 AccXCQ= 0.00D+00.
 Generated NRdTot=       0 NPtTot=           0 NUsed=           0 NTot=          32
 NSgBfM=   316   316   316   316   316 MxSgAt=    31 MxSgA2=    31.
 Leave Link  302 at Tue Jul 28 03:19:08 2026, MaxMem=  4026531840 cpu:               1.7 elap:               0.2
 (Enter /opt/packages/gaussian/g16RevC.01/g16/l303.exe)
 DipDrv:  MaxL=1.
 Leave Link  303 at Tue Jul 28 03:19:08 2026, MaxMem=  4026531840 cpu:               0.2 elap:               0.0
 (Enter /opt/packages/gaussian/g16RevC.01/g16/l401.exe)
 Initial guess from the checkpoint file:  "dmp_s0_opt.chk"
 B after Tr=     0.000000    0.000000    0.000000
         Rot=    1.000000    0.000108    0.000045   -0.000102 Ang=   0.02 deg.
 Guess basis will be translated and rotated to current coordinates.
 JPrj=2 DoOrth=T DoCkMO=T.
 Leave Link  401 at Tue Jul 28 03:19:08 2026, MaxMem=  4026531840 cpu:               0.6 elap:               0.1
 (Enter /opt/packages/gaussian/g16RevC.01/g16/l502.exe)
 Integral symmetry usage will be decided dynamically.
 Closed shell SCF:
 Using DIIS extrapolation, IDIIS=  1040.
 NGot=  4026531840 LenX=  4026324160 LenY=  4026223230
 Requested convergence on RMS density matrix=1.00D-08 within 128 cycles.
 Requested convergence on MAX density matrix=1.00D-06.
 Requested convergence on             energy=1.00D-06.
 No special actions if energy rises.
 Fock matrices will be formed incrementally for  20 cycles.

 Cycle   1  Pass 1  IDiag  1:
 FoFJK:  IHMeth= 1 ICntrl=       0 DoSepK=F KAlg= 0 I1Cent=           0 FoldK=F
 IRaf= 870000000 NMat=       1 IRICut=       1 DoRegI=T DoRafI=F ISym2E= 0 IDoP0=0 IntGTp=1.
 FoFCou: FMM=F IPFlag=           0 FMFlag=      100000 FMFlg1=           0
         NFxFlg=           0 DoJE=F BraDBF=F KetDBF=F FulRan=T
         wScrn=  0.000000 ICntrl=         0 IOpCl=  0 I1Cent=           0 NGrid=           0
         NMat0=    1 NMatS0=      1 NMatT0=    0 NMatD0=    1 NMtDS0=    0 NMtDT0=    0
 Symmetry not used in FoFCou.
 Inv3:  Mode=1 IEnd=    15336363.
 Iteration    1 A*A^-1 deviation from unit magnitude is 3.44D-15 for    372.
 Iteration    1 A*A^-1 deviation from orthogonality  is 2.00D-15 for   2040    658.
 Iteration    1 A^-1*A deviation from unit magnitude is 3.66D-15 for    372.
 Iteration    1 A^-1*A deviation from orthogonality  is 1.99D-15 for    915     27.
 E= -671.981175402596    
 DIIS: error= 8.29D-05 at cycle   1 NSaved=   1.
 NSaved= 1 IEnMin= 1 EnMin= -671.981175402596     IErMin= 1 ErrMin= 8.29D-05
 ErrMax= 8.29D-05  0.00D+00 EMaxC= 1.00D-01 BMatC= 4.33D-06 BMatP= 4.33D-06
 IDIUse=1 WtCom= 1.00D+00 WtEn= 0.00D+00
 Coeff-Com:  0.100D+01
 Coeff:      0.100D+01
 Gap=     0.421 Goal=   None    Shift=    0.000
 RMSDP=1.96D-04 MaxDP=2.48D-02              OVMax= 1.00D-03

 Cycle   2  Pass 1  IDiag  1:
 RMSU=  1.77D-04    CP:  9.99D-01
 E= -671.981183540002     Delta-E=       -0.000008137407 Rises=F Damp=F
 DIIS: error= 9.76D-06 at cycle   2 NSaved=   2.
 NSaved= 2 IEnMin= 2 EnMin= -671.981183540002     IErMin= 2 ErrMin= 9.76D-06
 ErrMax= 9.76D-06  0.00D+00 EMaxC= 1.00D-01 BMatC= 5.02D-08 BMatP= 4.33D-06
 IDIUse=1 WtCom= 1.00D+00 WtEn= 0.00D+00
 Coeff-Com: -0.739D-01 0.107D+01
 Coeff:     -0.739D-01 0.107D+01
 Gap=     0.156 Goal=   None    Shift=    0.000
 RMSDP=2.05D-05 MaxDP=2.90D-03 DE=-8.14D-06 OVMax= 1.05D-04

 Cycle   3  Pass 1  IDiag  1:
 RMSU=  9.68D-06    CP:  9.99D-01  1.08D+00
 E= -671.981183612014     Delta-E=       -0.000000072011 Rises=F Damp=F
 DIIS: error= 4.52D-06 at cycle   3 NSaved=   3.
 NSaved= 3 IEnMin= 3 EnMin= -671.981183612014     IErMin= 3 ErrMin= 4.52D-06
 ErrMax= 4.52D-06  0.00D+00 EMaxC= 1.00D-01 BMatC= 1.90D-08 BMatP= 5.02D-08
 IDIUse=1 WtCom= 1.00D+00 WtEn= 0.00D+00
 Coeff-Com: -0.353D-01 0.463D+00 0.572D+00
 Coeff:     -0.353D-01 0.463D+00 0.572D+00
 Gap=     0.156 Goal=   None    Shift=    0.000
 RMSDP=4.69D-06 MaxDP=5.65D-04 DE=-7.20D-08 OVMax= 7.12D-05

 Cycle   4  Pass 1  IDiag  1:
 RMSU=  3.54D-06    CP:  9.99D-01  1.07D+00  8.24D-01
 E= -671.981183625268     Delta-E=       -0.000000013254 Rises=F Damp=F
 DIIS: error= 2.06D-06 at cycle   4 NSaved=   4.
 NSaved= 4 IEnMin= 4 EnMin= -671.981183625268     IErMin= 4 ErrMin= 2.06D-06
 ErrMax= 2.06D-06  0.00D+00 EMaxC= 1.00D-01 BMatC= 5.38D-09 BMatP= 1.90D-08
 IDIUse=1 WtCom= 1.00D+00 WtEn= 0.00D+00
 Coeff-Com: -0.797D-02 0.953D-01 0.349D+00 0.563D+00
 Coeff:     -0.797D-02 0.953D-01 0.349D+00 0.563D+00
 Gap=     0.156 Goal=   None    Shift=    0.000
 RMSDP=1.43D-06 MaxDP=6.65D-05 DE=-1.33D-08 OVMax= 2.85D-05

 Cycle   5  Pass 1  IDiag  1:
 RMSU=  1.13D-06    CP:  9.99D-01  1.07D+00  8.55D-01  9.59D-01
 E= -671.981183630232     Delta-E=       -0.000000004964 Rises=F Damp=F
 DIIS: error= 4.39D-07 at cycle   5 NSaved=   5.
 NSaved= 5 IEnMin= 5 EnMin= -671.981183630232     IErMin= 5 ErrMin= 4.39D-07
 ErrMax= 4.39D-07  0.00D+00 EMaxC= 1.00D-01 BMatC= 2.19D-10 BMatP= 5.38D-09
 IDIUse=1 WtCom= 1.00D+00 WtEn= 0.00D+00
 Coeff-Com: -0.195D-02 0.201D-01 0.137D+00 0.277D+00 0.568D+00
 Coeff:     -0.195D-02 0.201D-01 0.137D+00 0.277D+00 0.568D+00
 Gap=     0.156 Goal=   None    Shift=    0.000
 RMSDP=5.41D-07 MaxDP=4.56D-05 DE=-4.96D-09 OVMax= 4.64D-06

 Cycle   6  Pass 1  IDiag  1:
 RMSU=  3.12D-07    CP:  9.99D-01  1.07D+00  8.80D-01  9.41D-01  8.07D-01
 E= -671.981183630443     Delta-E=       -0.000000000211 Rises=F Damp=F
 DIIS: error= 1.74D-07 at cycle   6 NSaved=   6.
 NSaved= 6 IEnMin= 6 EnMin= -671.981183630443     IErMin= 6 ErrMin= 1.74D-07
 ErrMax= 1.74D-07  0.00D+00 EMaxC= 1.00D-01 BMatC= 2.16D-11 BMatP= 2.19D-10
 IDIUse=1 WtCom= 1.00D+00 WtEn= 0.00D+00
 Coeff-Com: -0.212D-04-0.232D-02 0.252D-01 0.688D-01 0.278D+00 0.630D+00
 Coeff:     -0.212D-04-0.232D-02 0.252D-01 0.688D-01 0.278D+00 0.630D+00
 Gap=     0.156 Goal=   None    Shift=    0.000
 RMSDP=1.44D-07 MaxDP=1.48D-05 DE=-2.11D-10 OVMax= 1.46D-06

 Cycle   7  Pass 1  IDiag  1:
 RMSU=  6.78D-08    CP:  9.99D-01  1.07D+00  8.80D-01  9.56D-01  8.70D-01
                    CP:  9.60D-01
 E= -671.981183630475     Delta-E=       -0.000000000031 Rises=F Damp=F
 DIIS: error= 7.16D-08 at cycle   7 NSaved=   7.
 NSaved= 7 IEnMin= 7 EnMin= -671.981183630475     IErMin= 7 ErrMin= 7.16D-08
 ErrMax= 7.16D-08  0.00D+00 EMaxC= 1.00D-01 BMatC= 4.20D-12 BMatP= 2.16D-11
 IDIUse=1 WtCom= 1.00D+00 WtEn= 0.00D+00
 Coeff-Com:  0.180D-03-0.349D-02 0.156D-02 0.143D-01 0.114D+00 0.378D+00
 Coeff-Com:  0.495D+00
 Coeff:      0.180D-03-0.349D-02 0.156D-02 0.143D-01 0.114D+00 0.378D+00
 Coeff:      0.495D+00
 Gap=     0.156 Goal=   None    Shift=    0.000
 RMSDP=3.87D-08 MaxDP=2.20D-06 DE=-3.13D-11 OVMax= 4.73D-07

 Cycle   8  Pass 1  IDiag  1:
 RMSU=  2.27D-08    CP:  9.99D-01  1.07D+00  8.80D-01  9.62D-01  8.76D-01
                    CP:  9.56D-01  7.63D-01
 E= -671.981183630463     Delta-E=        0.000000000011 Rises=F Damp=F
 DIIS: error= 9.85D-09 at cycle   8 NSaved=   8.
 NSaved= 8 IEnMin= 7 EnMin= -671.981183630475     IErMin= 8 ErrMin= 9.85D-09
 ErrMax= 9.85D-09  0.00D+00 EMaxC= 1.00D-01 BMatC= 9.19D-14 BMatP= 4.20D-12
 IDIUse=1 WtCom= 1.00D+00 WtEn= 0.00D+00
 Coeff-Com:  0.710D-04-0.126D-02-0.732D-03 0.232D-02 0.327D-01 0.123D+00
 Coeff-Com:  0.208D+00 0.636D+00
 Coeff:      0.710D-04-0.126D-02-0.732D-03 0.232D-02 0.327D-01 0.123D+00
 Coeff:      0.208D+00 0.636D+00
 Gap=     0.156 Goal=   None    Shift=    0.000
 RMSDP=1.84D-08 MaxDP=1.96D-06 DE= 1.14D-11 OVMax= 9.29D-08

 Cycle   9  Pass 1  IDiag  1:
 RMSU=  6.52D-09    CP:  9.99D-01  1.07D+00  8.80D-01  9.65D-01  8.81D-01
                    CP:  9.71D-01  8.29D-01  9.98D-01
 E= -671.981183630473     Delta-E=       -0.000000000010 Rises=F Damp=F
 DIIS: error= 3.36D-09 at cycle   9 NSaved=   9.
 NSaved= 9 IEnMin= 7 EnMin= -671.981183630475     IErMin= 9 ErrMin= 3.36D-09
 ErrMax= 3.36D-09  0.00D+00 EMaxC= 1.00D-01 BMatC= 1.47D-14 BMatP= 9.19D-14
 IDIUse=1 WtCom= 1.00D+00 WtEn= 0.00D+00
 Coeff-Com:  0.506D-05-0.283D-04-0.660D-03-0.124D-02-0.285D-02-0.257D-02
 Coeff-Com:  0.215D-01 0.310D+00 0.675D+00
 Coeff:      0.506D-05-0.283D-04-0.660D-03-0.124D-02-0.285D-02-0.257D-02
 Coeff:      0.215D-01 0.310D+00 0.675D+00
 Gap=     0.156 Goal=   None    Shift=    0.000
 RMSDP=4.11D-09 MaxDP=3.57D-07 DE=-1.01D-11 OVMax= 4.39D-08

 Error on total polarization charges =  0.05682
 SCF Done:  E(RB3LYP) =  -671.981183630     A.U. after    9 cycles
            NFock=  9  Conv=0.41D-08     -V/T= 2.0097
 KE= 6.654951219257D+02 PE=-3.505421291449D+03 EE= 1.187687189389D+03
 SMD-CDS (non-electrostatic) energy       (kcal/mol) =       0.99
 (included in total energy above)
 Leave Link  502 at Tue Jul 28 03:19:37 2026, MaxMem=  4026531840 cpu:             226.5 elap:              29.1
 (Enter /opt/packages/gaussian/g16RevC.01/g16/l701.exe)
 ... and contract with generalized density number  0.
 Compute integral first derivatives.
 D1PCM: PCM CHGder 1st derivatives, ID1Alg=3 FixD1E=F DoIter=F DoCFld=F I1PDM=0.
 GePol: Maximum number of non-zero 1st derivatives   =     259
 Leave Link  701 at Tue Jul 28 03:19:38 2026, MaxMem=  4026531840 cpu:               8.2 elap:               1.0
 (Enter /opt/packages/gaussian/g16RevC.01/g16/l702.exe)
 L702 exits ... SP integral derivatives will be done elsewhere.
 Leave Link  702 at Tue Jul 28 03:19:39 2026, MaxMem=  4026531840 cpu:               0.1 elap:               0.0
 (Enter /opt/packages/gaussian/g16RevC.01/g16/l703.exe)
 Integral derivatives from FoFJK, PRISM(SPDF).
 Compute integral first derivatives, UseDBF=F ICtDFT=           0.
 Calling FoFJK, ICntrl=      2127 FMM=F ISym2X=0 I1Cent= 0 IOpClX= 0 NMat=1 NMatS=1 NMatT=0.
 FoFJK:  IHMeth= 1 ICntrl=    2127 DoSepK=F KAlg= 0 I1Cent=           0 FoldK=F
 IRaf=         0 NMat=       1 IRICut=       1 DoRegI=T DoRafI=F ISym2E= 0 IDoP0=0 IntGTp=1.
 FoFCou: FMM=F IPFlag=           0 FMFlag=      100000 FMFlg1=         800
         NFxFlg=           0 DoJE=F BraDBF=F KetDBF=F FulRan=T
         wScrn=  0.000000 ICntrl=      2127 IOpCl=  0 I1Cent=           0 NGrid=           0
         NMat0=    1 NMatS0=      1 NMatT0=    0 NMatD0=    1 NMtDS0=    0 NMtDT0=    0
 Symmetry not used in FoFCou.
 Leave Link  703 at Tue Jul 28 03:19:47 2026, MaxMem=  4026531840 cpu:              58.9 elap:               7.4
 (Enter /opt/packages/gaussian/g16RevC.01/g16/l716.exe)
 Dipole        =-3.43444367D+00-5.61519722D-01 5.92093532D-01
 ***** Axes restored to original set *****
 -------------------------------------------------------------------
 Center     Atomic                   Forces (Hartrees/Bohr)
 Number     Number              X              Y              Z
 -------------------------------------------------------------------
      1        6          -0.000068801    0.000007401   -0.000001741
      2        6           0.000011934    0.000008329   -0.000003087
      3        6          -0.000034074   -0.000001132    0.000002187
      4        6           0.000007388   -0.000014768    0.000001115
      5        6          -0.000004741    0.000020931    0.000012096
      6        6          -0.000006397   -0.000033396   -0.000004211
      7        8           0.000068441    0.000008101    0.000073749
      8        1          -0.000006662   -0.000003775    0.000005552
      9        1          -0.000002896    0.000002256    0.000003020
     10        1           0.000007779   -0.000008110   -0.000003815
     11        8           0.000085430   -0.000066843    0.000010051
     12        6          -0.000055526    0.000095695   -0.000001423
     13        1          -0.000006817   -0.000029952    0.000005018
     14        1          -0.000008919   -0.000026550    0.000014887
     15        1           0.000003772   -0.000017795    0.000007418
     16        6           0.000029536   -0.000007718    0.000009998
     17        6           0.000004766    0.000003578   -0.000008312
     18        7           0.000031533    0.000026261   -0.000021961
     19        6          -0.000044824    0.000004090   -0.000007083
     20        6          -0.000008166    0.000008420    0.000002056
     21        1           0.000001128    0.000010423    0.000003804
     22        1          -0.000007307    0.000005614   -0.000001320
     23        1           0.000009274    0.000007076   -0.000008150
     24        1           0.000013614    0.000013902   -0.000004396
     25        1           0.000001582    0.000017747   -0.000000071
     26        1          -0.000000224    0.000014869   -0.000009354
     27        1           0.000000327    0.000007470    0.000001215
     28        6          -0.000045298   -0.000027217   -0.000099240
     29        1           0.000003415   -0.000001525    0.000012865
     30        1           0.000012157   -0.000004575   -0.000005261
     31        1           0.000008578   -0.000018809    0.000014394
 -------------------------------------------------------------------
 Cartesian Forces:  Max     0.000099240 RMS     0.000026602
 Leave Link  716 at Tue Jul 28 03:19:47 2026, MaxMem=  4026531840 cpu:               0.1 elap:               0.0
 (Enter /opt/packages/gaussian/g16RevC.01/g16/l103.exe)

 GradGradGradGradGradGradGradGradGradGradGradGradGradGradGradGradGradGrad
 Berny optimization.
 Using GEDIIS/GDIIS optimizer.
 FormGI is forming the generalized inverse of G from B-inverse, IUseBI=4.
 Internal  Forces:  Max     0.000087412 RMS     0.000012839
 Search for a local minimum.
 Step number   7 out of a maximum of  170
 All quantities printed in internal units (Hartrees-Bohrs-Radians)
 RMS Force = .12839D-04 SwitMx=.10000D-02 MixMth= 2
 Mixed Optimization -- En-DIIS/RFO-DIIS
 Swapping is turned off.
 Update second derivatives using D2CorX and points    1    2    3    4    5
                                                      6    7
 DE=  2.03D-07 DEPred=-1.49D-07 R=-1.36D+00
 Trust test=-1.36D+00 RLast= 8.17D-03 DXMaxT set to 7.50D-02
 ITU= -1 -1  0  1  1  1  0
     Eigenvalues ---    0.00221   0.00767   0.01124   0.01231   0.01285
     Eigenvalues ---    0.01388   0.01451   0.01849   0.01859   0.02031
     Eigenvalues ---    0.02091   0.02147   0.02161   0.02181   0.02192
     Eigenvalues ---    0.02214   0.02275   0.02461   0.03368   0.03602
     Eigenvalues ---    0.05002   0.05233   0.05659   0.05939   0.06929
     Eigenvalues ---    0.07508   0.08446   0.08458   0.09457   0.10144
     Eigenvalues ---    0.10232   0.10636   0.10745   0.10995   0.14147
     Eigenvalues ---    0.15923   0.15952   0.16000   0.16000   0.16003
     Eigenvalues ---    0.16024   0.16063   0.16209   0.16326   0.21525
     Eigenvalues ---    0.22457   0.22756   0.23529   0.24119   0.24463
     Eigenvalues ---    0.24912   0.25087   0.25650   0.26430   0.27898
     Eigenvalues ---    0.28944   0.31219   0.31623   0.33987   0.34037
     Eigenvalues ---    0.34243   0.34327   0.34360   0.34383   0.34443
     Eigenvalues ---    0.34563   0.34703   0.34719   0.34727   0.34779
     Eigenvalues ---    0.34907   0.35367   0.35475   0.35650   0.36676
     Eigenvalues ---    0.40830   0.40916   0.42542   0.44827   0.45414
     Eigenvalues ---    0.46413   0.47170   0.49179   0.50579   0.54551
     Eigenvalues ---    0.60373   0.69727
 En-DIIS/RFO-DIIS/Sim-DIIS IScMMF=       -3 using points:     7    6    5    4    3    2
 RFO step:  Lambda=-1.61684427D-07.
 NNeg= 0 NGDIIS= 6 SimSw=  2.50D-03 Rises=T DC=  2.03D-07 SmlDif=  1.00D-05
 NRisDI= 1 DoIntr=F SqrtH=F CThrHd= 10.0 CDAdj=  3.0
 RMS Error=  0.4453674488D-03 NUsed= 6 OKEnD=T EnDIS=T
 InvSVX:  RCond= 1.24D-08 Info=           0 Equed=N FErr=  2.93D-12 BErr=  6.62D-17
 DIIS inversion failure, remove point   6.
 InvSVX:  RCond= 1.64D-08 Info=           0 Equed=N FErr=  2.33D-12 BErr=  4.26D-17
 DIIS inversion failure, remove point   5.
 InvSVX:  RCond= 2.20D-08 Info=           0 Equed=N FErr=  2.24D-12 BErr=  2.75D-17
 DIIS inversion failure, remove point   4.
 InvSVX:  RCond= 3.06D-08 Info=           0 Equed=N FErr=  9.86D-13 BErr=  6.81D-17
 DIIS inversion failure, remove point   3.
 InvSVX:  RCond= 1.67D-05 Info=           0 Equed=N FErr=  3.01D-15 BErr=  2.74D-17
 RFO-DIIS uses    2 points instead of    6
 EnCoef did   100 forward-backward iterations
 IWarn =    2
 Energies =   -671.981143565      -671.981178788      -671.981183514      -671.981183862      -671.981183833    
 Energies =   -671.981183630    
 Point number   1 has energy  -0.6719811436D+03 and has been removed
 EnCoef did   100 forward-backward iterations
 IWarn =    2
 Energies =   -671.981178788      -671.981183514      -671.981183862      -671.981183833      -671.981183630    
 Point number   1 has energy  -0.6719811788D+03 and has been removed
 EnCoef did   100 forward-backward iterations
 IWarn =    2
 Energies =   -671.981183514      -671.981183862      -671.981183833      -671.981183630    
 Point number   1 has energy  -0.6719811835D+03 and has been removed
 IWarn =    0
 DidBck=T Rises=T En-DIIS coefs:    0.32692    0.00000    0.67308    0.00000    0.00000
                  En-DIIS coefs:    0.00000
 Iteration  1 RMS(Cart)=  0.00158384 RMS(Int)=  0.00000189
 Iteration  2 RMS(Cart)=  0.00000263 RMS(Int)=  0.00000005
 Iteration  3 RMS(Cart)=  0.00000000 RMS(Int)=  0.00000005
 ITry= 1 IFail=0 DXMaxC= 8.45D-03 DCOld= 1.00D+10 DXMaxT= 7.50D-02 DXLimC= 3.00D+00 Rises=F
 Variable       Old X    -DE/DX   Delta X   Delta X   Delta X     New X
                                 (Linear)    (Quad)   (Total)
    R1        2.65170  -0.00002  -0.00011   0.00009  -0.00002   2.65168
    R2        2.68596  -0.00004  -0.00012   0.00008  -0.00004   2.68592
    R3        2.54386   0.00004   0.00017  -0.00016   0.00002   2.54388
    R4        2.62796   0.00000  -0.00004   0.00007   0.00003   2.62799
    R5        2.04797  -0.00000  -0.00001   0.00001   0.00000   2.04798
    R6        2.66279  -0.00002   0.00002  -0.00008  -0.00006   2.66273
    R7        2.05016  -0.00000  -0.00003   0.00004   0.00000   2.05016
    R8        2.67707  -0.00000   0.00002  -0.00004  -0.00002   2.67705
    R9        2.73431  -0.00003  -0.00020   0.00028   0.00007   2.73439
   R10        2.60878  -0.00001  -0.00004   0.00004   0.00000   2.60878
   R11        2.05225  -0.00001  -0.00004   0.00002  -0.00002   2.05223
   R12        2.60415   0.00000  -0.00006   0.00010   0.00004   2.60419
   R13        2.73129  -0.00009  -0.00021   0.00002  -0.00019   2.73110
   R14        2.72248  -0.00008  -0.00020   0.00001  -0.00020   2.72228
   R15        2.06892   0.00001   0.00004  -0.00001   0.00003   2.06895
   R16        2.06895   0.00001   0.00003  -0.00000   0.00003   2.06898
   R17        2.06102   0.00001   0.00001   0.00000   0.00001   2.06103
   R18        2.84918  -0.00000   0.00005  -0.00011  -0.00005   2.84912
   R19        2.47235   0.00002   0.00011  -0.00015  -0.00004   2.47231
   R20        2.91812   0.00001  -0.00005   0.00006   0.00001   2.91814
   R21        2.06485   0.00000  -0.00004   0.00006   0.00002   2.06488
   R22        2.07659   0.00000   0.00000  -0.00001  -0.00001   2.07658
   R23        2.78684   0.00003   0.00020  -0.00020   0.00000   2.78685
   R24        1.92307  -0.00000  -0.00003   0.00003  -0.00000   1.92307
   R25        2.90367   0.00000  -0.00014   0.00019   0.00005   2.90372
   R26        2.07092   0.00000  -0.00001   0.00000  -0.00001   2.07092
   R27        2.06418  -0.00000  -0.00003   0.00004   0.00001   2.06419
   R28        2.06844   0.00000   0.00001  -0.00002  -0.00000   2.06844
   R29        2.06359  -0.00000  -0.00001   0.00001  -0.00000   2.06359
   R30        2.07175   0.00001   0.00004  -0.00002   0.00002   2.07177
   R31        2.06377   0.00001   0.00000   0.00001   0.00001   2.06379
   R32        2.06990   0.00002  -0.00002   0.00009   0.00007   2.06997
    A1        2.08073   0.00001   0.00012  -0.00013  -0.00001   2.08072
    A2        2.17916  -0.00000  -0.00006   0.00004  -0.00002   2.17914
    A3        2.02327  -0.00001  -0.00006   0.00009   0.00003   2.02330
    A4        2.09605  -0.00000  -0.00004   0.00003  -0.00001   2.09605
    A5        2.10338   0.00000  -0.00002   0.00005   0.00002   2.10341
    A6        2.08374   0.00000   0.00006  -0.00008  -0.00001   2.08373
    A7        2.11522  -0.00001  -0.00004   0.00002  -0.00002   2.11521
    A8        2.06633   0.00000   0.00001  -0.00001  -0.00001   2.06632
    A9        2.10156   0.00001   0.00003  -0.00001   0.00003   2.10159
   A10        2.06533   0.00002   0.00004   0.00001   0.00005   2.06539
   A11        2.08574  -0.00002  -0.00002  -0.00005  -0.00008   2.08566
   A12        2.13207   0.00000  -0.00002   0.00004   0.00003   2.13210
   A13        2.10981  -0.00002  -0.00005  -0.00001  -0.00006   2.10975
   A14        2.12827   0.00001  -0.00003   0.00009   0.00006   2.12833
   A15        2.04510   0.00001   0.00009  -0.00009  -0.00000   2.04509
   A16        2.09906   0.00000  -0.00003   0.00007   0.00004   2.09910
   A17        2.08717  -0.00002   0.00030  -0.00056  -0.00026   2.08691
   A18        2.09550   0.00002  -0.00028   0.00051   0.00023   2.09573
   A19        2.00564   0.00001   0.00026  -0.00030  -0.00003   2.00561
   A20        2.08065  -0.00003  -0.00011   0.00006  -0.00004   2.08061
   A21        1.92888   0.00001   0.00008  -0.00000   0.00008   1.92895
   A22        1.92959   0.00001   0.00009  -0.00001   0.00007   1.92967
   A23        1.83482   0.00001   0.00008  -0.00002   0.00006   1.83488
   A24        1.92952  -0.00002  -0.00017   0.00006  -0.00010   1.92942
   A25        1.91940  -0.00001  -0.00004  -0.00001  -0.00005   1.91935
   A26        1.91957  -0.00000  -0.00003  -0.00002  -0.00005   1.91952
   A27        2.19649  -0.00002   0.00008  -0.00022  -0.00014   2.19635
   A28        2.18076   0.00001   0.00005   0.00003   0.00008   2.18084
   A29        1.90557   0.00000  -0.00013   0.00019   0.00006   1.90564
   A30        1.81252   0.00000  -0.00007   0.00011   0.00004   1.81256
   A31        1.95401  -0.00001   0.00012  -0.00027  -0.00015   1.95386
   A32        1.88421   0.00000  -0.00005   0.00014   0.00009   1.88430
   A33        1.97880   0.00000   0.00003  -0.00005  -0.00001   1.97879
   A34        1.95884  -0.00000  -0.00021   0.00030   0.00009   1.95893
   A35        1.87442   0.00000   0.00016  -0.00021  -0.00005   1.87436
   A36        2.00940  -0.00001  -0.00011   0.00014   0.00003   2.00943
   A37        2.15888   0.00001   0.00005   0.00001   0.00006   2.15895
   A38        2.11165  -0.00000   0.00009  -0.00018  -0.00009   2.11156
   A39        1.78453  -0.00000  -0.00011   0.00015   0.00004   1.78457
   A40        1.89198  -0.00000  -0.00007   0.00006  -0.00002   1.89196
   A41        1.91151  -0.00000  -0.00006  -0.00000  -0.00006   1.91145
   A42        1.97649   0.00000  -0.00010   0.00018   0.00008   1.97657
   A43        1.99438   0.00000   0.00013  -0.00016  -0.00004   1.99435
   A44        1.89923   0.00000   0.00018  -0.00019  -0.00001   1.89922
   A45        1.81937   0.00000  -0.00016   0.00023   0.00007   1.81945
   A46        1.91806  -0.00000  -0.00008   0.00011   0.00003   1.91809
   A47        1.96131  -0.00000   0.00003  -0.00006  -0.00004   1.96127
   A48        1.91866  -0.00000  -0.00006   0.00009   0.00003   1.91869
   A49        1.95396  -0.00000   0.00006  -0.00012  -0.00007   1.95389
   A50        1.89186   0.00000   0.00020  -0.00022  -0.00002   1.89184
   A51        1.92220   0.00001  -0.00007   0.00026   0.00018   1.92238
   A52        1.84941  -0.00000   0.00000   0.00007   0.00007   1.84948
   A53        1.93556  -0.00000   0.00019  -0.00024  -0.00005   1.93551
   A54        1.91803  -0.00000  -0.00000  -0.00004  -0.00005   1.91798
   A55        1.92021  -0.00001  -0.00008  -0.00004  -0.00012   1.92009
   A56        1.91732   0.00000  -0.00003  -0.00000  -0.00003   1.91729
    D1        0.00640  -0.00000   0.00013  -0.00034  -0.00021   0.00620
    D2       -3.13950  -0.00000  -0.00004   0.00002  -0.00002  -3.13952
    D3       -3.12747  -0.00000   0.00035  -0.00078  -0.00043  -3.12791
    D4        0.00981  -0.00000   0.00017  -0.00042  -0.00025   0.00957
    D5       -0.01637   0.00000  -0.00010   0.00032   0.00021  -0.01616
    D6       -3.10006   0.00000   0.00014  -0.00015  -0.00001  -3.10007
    D7        3.11818   0.00000  -0.00030   0.00072   0.00042   3.11860
    D8        0.03449   0.00000  -0.00005   0.00025   0.00019   0.03469
    D9        0.00746  -0.00000  -0.00043   0.00068   0.00025   0.00771
   D10       -3.12665  -0.00000  -0.00022   0.00025   0.00003  -3.12661
   D11        0.00899   0.00000  -0.00003   0.00009   0.00005   0.00905
   D12        3.13781   0.00000  -0.00016   0.00030   0.00013   3.13794
   D13       -3.12834  -0.00000   0.00014  -0.00027  -0.00013  -3.12847
   D14        0.00047  -0.00000   0.00001  -0.00006  -0.00005   0.00042
   D15       -0.01432   0.00000  -0.00010   0.00019   0.00009  -0.01422
   D16        3.11802   0.00000  -0.00011   0.00023   0.00012   3.11814
   D17        3.14031   0.00000   0.00004  -0.00002   0.00002   3.14032
   D18       -0.01054   0.00000   0.00002   0.00002   0.00004  -0.01050
   D19        0.00421  -0.00000   0.00012  -0.00021  -0.00009   0.00412
   D20       -3.13306  -0.00000   0.00013  -0.00026  -0.00013  -3.13319
   D21       -3.12788  -0.00000   0.00014  -0.00025  -0.00011  -3.12799
   D22        0.01804  -0.00000   0.00015  -0.00030  -0.00015   0.01789
   D23        0.05237   0.00000   0.00016  -0.00001   0.00016   0.05253
   D24       -3.05745   0.00000   0.00019  -0.00002   0.00016  -3.05729
   D25       -3.09884   0.00000   0.00015   0.00004   0.00018  -3.09865
   D26        0.07453   0.00000   0.00017   0.00002   0.00019   0.07471
   D27        0.01101  -0.00000  -0.00003  -0.00004  -0.00006   0.01095
   D28        3.09442  -0.00000  -0.00025   0.00040   0.00015   3.09456
   D29       -3.13471  -0.00000  -0.00004   0.00001  -0.00003  -3.13473
   D30       -0.05130  -0.00000  -0.00026   0.00045   0.00018  -0.05111
   D31       -1.50044  -0.00002   0.00456  -0.00832  -0.00376  -1.50420
   D32        1.69894  -0.00002   0.00479  -0.00877  -0.00398   1.69496
   D33       -1.09108   0.00000  -0.00051   0.00074   0.00023  -1.09084
   D34        3.11854  -0.00000  -0.00047   0.00062   0.00015   3.11869
   D35        1.03868  -0.00000  -0.00054   0.00071   0.00017   1.03885
   D36        1.06142  -0.00000   0.00033  -0.00045  -0.00013   1.06129
   D37       -1.08064   0.00000   0.00042  -0.00052  -0.00010  -1.08074
   D38        3.13170   0.00000   0.00036  -0.00048  -0.00012   3.13158
   D39        2.93127  -0.00000  -0.00077   0.00103   0.00026   2.93153
   D40        0.79002  -0.00000  -0.00084   0.00117   0.00033   0.79035
   D41       -1.26952  -0.00000  -0.00107   0.00150   0.00042  -1.26910
   D42       -0.23789  -0.00000  -0.00079   0.00104   0.00025  -0.23764
   D43       -2.37914  -0.00000  -0.00085   0.00118   0.00033  -2.37881
   D44        1.84450  -0.00000  -0.00109   0.00151   0.00042   1.84492
   D45        3.09957   0.00000   0.00004   0.00004   0.00008   3.09965
   D46        0.04397  -0.00000  -0.00036   0.00037   0.00001   0.04397
   D47       -0.01476   0.00000   0.00005   0.00003   0.00009  -0.01468
   D48       -3.07036  -0.00000  -0.00035   0.00036   0.00001  -3.07035
   D49        0.38049   0.00000   0.00120  -0.00167  -0.00048   0.38002
   D50       -1.67495   0.00000   0.00139  -0.00196  -0.00056  -1.67551
   D51        2.50002   0.00000   0.00118  -0.00171  -0.00053   2.49949
   D52        2.50531  -0.00000   0.00132  -0.00196  -0.00064   2.50467
   D53        0.44986  -0.00000   0.00152  -0.00225  -0.00073   0.44913
   D54       -1.65835  -0.00000   0.00130  -0.00200  -0.00070  -1.65905
   D55       -1.65017  -0.00000   0.00139  -0.00205  -0.00065  -1.65082
   D56        2.57757   0.00000   0.00159  -0.00233  -0.00074   2.57683
   D57        0.46936  -0.00000   0.00138  -0.00208  -0.00071   0.46865
   D58        0.26034  -0.00000   0.00071  -0.00110  -0.00039   0.25995
   D59       -1.83154  -0.00000   0.00092  -0.00142  -0.00050  -1.83204
   D60        2.38175  -0.00000   0.00077  -0.00122  -0.00044   2.38131
   D61       -2.96471   0.00000   0.00110  -0.00141  -0.00031  -2.96502
   D62        1.22660   0.00000   0.00131  -0.00172  -0.00042   1.22618
   D63       -0.84330   0.00000   0.00116  -0.00152  -0.00036  -0.84366
   D64       -0.38036  -0.00000  -0.00113   0.00164   0.00051  -0.37985
   D65        1.67466  -0.00000  -0.00133   0.00194   0.00060   1.67527
   D66       -2.50475  -0.00000  -0.00109   0.00164   0.00055  -2.50421
   D67        1.65139  -0.00000  -0.00133   0.00188   0.00055   1.65194
   D68       -2.57677  -0.00000  -0.00153   0.00218   0.00064  -2.57613
   D69       -0.47301  -0.00000  -0.00129   0.00188   0.00059  -0.47242
   D70       -2.44381   0.00000  -0.00106   0.00163   0.00058  -2.44323
   D71       -0.38878   0.00000  -0.00126   0.00193   0.00067  -0.38811
   D72        1.71499   0.00001  -0.00102   0.00163   0.00061   1.71560
         Item               Value     Threshold  Converged?
 Maximum Force            0.000087     0.000450     YES
 RMS     Force            0.000013     0.000300     YES
 Maximum Displacement     0.008452     0.001800     NO 
 RMS     Displacement     0.001584     0.001200     NO 
 Predicted change in Energy=-7.351161D-08
 GradGradGradGradGradGradGradGradGradGradGradGradGradGradGradGradGradGrad

 Leave Link  103 at Tue Jul 28 03:19:48 2026, MaxMem=  4026531840 cpu:               0.2 elap:               0.8
 (Enter /opt/packages/gaussian/g16RevC.01/g16/l202.exe)
                          Input orientation:                          
 ---------------------------------------------------------------------
 Center     Atomic      Atomic             Coordinates (Angstroms)
 Number     Number       Type             X           Y           Z
 ---------------------------------------------------------------------
      1          6           0        2.066225   -0.521718   -0.103520
      2          6           0        1.237607   -1.641290    0.066596
      3          6           0       -0.144162   -1.487624    0.099333
      4          6           0       -0.741085   -0.219640   -0.046748
      5          6           0        0.103068    0.906029   -0.211458
      6          6           0        1.476155    0.764797   -0.233413
      7          8           0        2.280010    1.862972   -0.450053
      8          1           0        1.665152   -2.631782    0.169693
      9          1           0       -0.758667   -2.372297    0.228733
     10          1           0       -0.294008    1.910838   -0.321347
     11          8           0        3.410428   -0.561559   -0.164229
     12          6           0        4.081553   -1.831918   -0.059286
     13          1           0        3.775482   -2.496137   -0.874030
     14          1           0        3.877835   -2.295400    0.911484
     15          1           0        5.143863   -1.600721   -0.146291
     16          6           0       -2.183527   -0.105686   -0.036194
     17          6           0       -3.156795   -1.235838    0.184346
     18          7           0       -2.849679    0.999430   -0.252014
     19          6           0       -4.317557    0.857564   -0.244432
     20          6           0       -4.508374   -0.522141    0.404481
     21          1           0       -2.860941   -1.871987    1.022048
     22          1           0       -3.159344   -1.861967   -0.718702
     23          1           0       -4.674742    0.901893   -1.279521
     24          1           0       -4.761085    1.682947    0.316989
     25          1           0       -4.698822   -0.407322    1.476224
     26          1           0       -5.343975   -1.068976   -0.037348
     27          1           0       -2.410333    1.886858   -0.486627
     28          6           0        2.810091    2.475070    0.747049
     29          1           0        1.992390    2.855304    1.370531
     30          1           0        3.435851    3.303799    0.408917
     31          1           0        3.414588    1.760682    1.316339
 ---------------------------------------------------------------------
                    Distance matrix (angstroms):
                    1          2          3          4          5
     1  C    0.000000
     2  C    1.403207   0.000000
     3  C    2.420731   1.390673   0.000000
     4  C    2.824086   2.439090   1.409057   0.000000
     5  C    2.429835   2.802379   2.426373   1.416634   0.000000
     6  C    1.421329   2.436425   2.794557   2.433128   1.380506
     7  O    2.419201   3.692340   4.171921   3.691468   2.389926
     8  H    2.165150   1.083743   2.141884   3.413979   3.886064
     9  H    3.393383   2.132081   1.084899   2.170284   3.418153
    10  H    3.396392   3.887667   3.427677   2.194133   1.085996
    11  O    1.346162   2.437262   3.682685   4.167225   3.618656
    12  C    2.404190   2.853106   4.242685   5.085021   4.831962
    13  H    2.722788   2.838371   4.162708   5.125057   5.049788
    14  H    2.730954   2.848245   4.181932   5.153776   5.075334
    15  H    3.261584   3.912263   5.294934   6.045651   5.630067
    16  C    4.270599   3.751374   2.467211   1.446975   2.506551
    17  C    5.279468   4.414638   3.024332   2.630916   3.920582
    18  N    5.148015   4.876558   3.691707   2.444266   2.954502
    19  C    6.532607   6.099251   4.799511   3.740401   4.421013
    20  C    6.594196   5.863698   4.480136   3.806255   4.866666
    21  H    5.231357   4.214761   2.894828   2.892467   4.245498
    22  H    5.429667   4.471976   3.146527   2.999456   4.308413
    23  H    6.989298   6.575385   5.304450   4.272145   4.895737
    24  H    7.186761   6.862766   5.604986   4.462347   4.954073
    25  H    6.947989   6.225024   4.879325   4.244803   5.256549
    26  H    7.430675   6.607236   5.218429   4.680604   5.796657
    27  H    5.097802   5.105032   4.106825   2.723457   2.711997
    28  C    3.202739   4.458715   4.984987   4.527960   3.272400
    29  H    3.685451   4.742288   5.004181   4.351534   3.141958
    30  H    4.095491   5.422487   5.989163   5.483525   4.152302
    31  H    3.007230   4.227826   4.969638   4.800968   3.745766
                    6          7          8          9         10
     6  C    0.000000
     7  O    1.378079   0.000000
     8  H    3.425634   4.578749   0.000000
     9  H    3.879351   5.256597   2.438384   0.000000
    10  H    2.110597   2.577678   4.971401   4.343241   0.000000
    11  O    2.346363   2.690332   2.728244   4.562295   4.456487
    12  C    3.682574   4.129221   2.555623   4.878801   5.763891
    13  H    4.041161   4.627960   2.358230   4.667968   6.023922
    14  H    4.055079   4.658206   2.357832   4.687133   6.051164
    15  H    4.365243   4.504563   3.642027   5.964548   6.475502
    16  C    3.766950   4.895922   4.608241   2.690342   2.778123
    17  C    5.063723   6.289987   5.019966   2.654153   4.284023
    18  N    4.332233   5.205635   5.809237   3.996497   2.714209
    19  C    5.794465   6.676902   6.938289   4.829243   4.159838
    20  C    6.154486   7.245767   6.528257   4.185005   4.920071
    21  H    5.228692   6.522758   4.667903   2.302003   4.764832
    22  H    5.350069   6.598023   4.965644   2.630840   4.754166
    23  H    6.240727   7.069672   7.401442   5.322668   4.596401
    24  H    6.328436   7.085039   7.741777   5.698433   4.518206
    25  H    6.513606   7.587416   6.866980   4.576263   5.292214
    26  H    7.065079   8.178740   7.184225   4.774358   5.870444
    27  H    4.053138   4.690547   6.120331   4.623867   2.122905
    28  C    2.380278   1.445235   5.265374   6.041659   3.330955
    29  H    2.685024   2.093317   5.626474   6.016629   2.997013
    30  H    3.271013   2.037101   6.198688   7.060065   4.047897
    31  H    2.674143   2.101873   4.865086   5.973312   4.056876
                   11         12         13         14         15
    11  O    0.000000
    12  C    1.440568   0.000000
    13  H    2.092767   1.094839   0.000000
    14  H    2.093283   1.094857   1.799676   0.000000
    15  H    2.021132   1.090653   1.789928   1.790054   0.000000
    16  C    5.613960   6.498588   6.475030   6.514066   7.479164
    17  C    6.610944   7.266936   7.124954   7.151044   8.315250
    18  N    6.452389   7.489704   7.516558   7.580836   8.406466
    19  C    7.857614   8.821148   8.782994   8.856736   9.776056
    20  C    7.939295   8.701577   8.611243   8.586617   9.727916
    21  H    6.515715   7.026317   6.930136   6.752970   8.094164
    22  H    6.720148   7.270923   6.965494   7.236522   8.327013
    23  H    8.291896   9.253940   9.116870   9.389875  10.195699
    24  H    8.487814   9.523031   9.578948   9.529512  10.445338
    25  H    8.274951   9.026753   9.038842   8.800160  10.046651
    26  H    8.770013   9.456381   9.268296   9.351266  10.501874
    27  H    6.322970   7.493765   7.591115   7.680303   8.327359
    28  C    3.226754   4.562558   5.317214   4.891267   4.780859
    29  H    4.005155   5.327197   6.070864   5.504123   5.664687
    30  H    3.907702   5.197282   5.949837   5.639056   5.223014
    31  H    2.754070   3.904352   4.800882   4.102476   4.053234
                   16         17         18         19         20
    16  C    0.000000
    17  C    1.507691   0.000000
    18  N    1.308288   2.298076   0.000000
    19  C    2.350595   2.431780   1.474737   0.000000
    20  C    2.402611   1.544211   2.344660   1.536582   0.000000
    21  H    2.167622   1.092685   3.141400   3.343075   2.217545
    22  H    2.121923   1.098881   2.915695   2.993700   2.208293
    23  H    2.960951   3.002826   2.096697   1.095881   2.211655
    24  H    3.157174   3.333264   2.108182   1.092322   2.221245
    25  H    2.950441   2.175600   2.895702   2.169322   1.094571
    26  H    3.303991   2.204710   3.247444   2.192710   1.092004
    27  H    2.055374   3.280037   1.017643   2.180735   3.316492
    28  C    5.675385   7.049199   5.933687   7.375821   7.915842
    29  H    5.308919   6.682709   5.433467   6.812819   7.389203
    30  H    6.587877   8.007604   6.727172   8.156364   8.817514
    31  H    6.054054   7.310514   6.502329   7.939628   8.295546
                   21         22         23         24         25
    21  H    0.000000
    22  H    1.766170   0.000000
    23  H    4.035035   3.201542   0.000000
    24  H    4.092091   4.025499   1.779423   0.000000
    25  H    2.393601   3.050195   3.051026   2.391010   0.000000
    26  H    2.816488   2.421919   2.423880   2.835206   1.773389
    27  H    4.075299   3.829956   2.593527   2.492672   3.788566
    28  C    7.150744   7.522796   7.912307   7.624639   8.076117
    29  H    6.784065   7.290947   7.435674   6.934969   7.445014
    30  H    8.174000   8.453003   8.625642   8.356158   9.004692
    31  H    7.257076   7.776989   8.538926   8.236891   8.399597
                   26         27         28         29         30
    26  H    0.000000
    27  H    4.188682   0.000000
    28  C    8.925488   5.396368   0.000000
    29  H    8.438267   4.875541   1.096332   0.000000
    30  H    9.818638   6.081743   1.092109   1.791488   0.000000
    31  H    9.303325   6.098878   1.095380   1.795489   1.790273
                   31
    31  H    0.000000
 Stoichiometry    C12H16NO2(1+)
 Framework group  C1[X(C12H16NO2)]
 Deg. of freedom    87
 Full point group                 C1      NOp   1
 RotChk:  IX=0 Diff= 4.57D-04
 Largest Abelian subgroup         C1      NOp   1
 Largest concise Abelian subgroup C1      NOp   1
                         Standard orientation:                         
 ---------------------------------------------------------------------
 Center     Atomic      Atomic             Coordinates (Angstroms)
 Number     Number       Type             X           Y           Z
 ---------------------------------------------------------------------
      1          6           0        2.064931   -0.515565   -0.102198
      2          6           0        1.238352   -1.636366    0.069739
      3          6           0       -0.143722   -1.485256    0.101499
      4          6           0       -0.742975   -0.218698   -0.047392
      5          6           0        0.099124    0.908239   -0.213928
      6          6           0        1.472487    0.769568   -0.234934
      7          8           0        2.274366    1.868832   -0.453366
      8          1           0        1.667723   -2.625839    0.175013
      9          1           0       -0.756612   -2.370834    0.232358
     10          1           0       -0.299801    1.912074   -0.326007
     11          8           0        3.409235   -0.552978   -0.162174
     12          6           0        4.082716   -1.821852   -0.054381
     13          1           0        3.778303   -2.488267   -0.867951
     14          1           0        3.879400   -2.283790    0.917210
     15          1           0        5.144628   -1.588814   -0.141328
     16          6           0       -2.185635   -0.107459   -0.037766
     17          6           0       -3.156868   -1.239014    0.184546
     18          7           0       -2.853774    0.995961   -0.256106
     19          6           0       -4.321384    0.851328   -0.248956
     20          6           0       -4.509904   -0.527444    0.402605
     21          1           0       -2.860220   -1.872935    1.023655
     22          1           0       -3.157787   -1.866939   -0.717257
     23          1           0       -4.678145    0.892924   -1.284305
     24          1           0       -4.766751    1.676982    0.310609
     25          1           0       -4.701095   -0.410859    1.474025
     26          1           0       -5.344251   -1.076740   -0.038543
     27          1           0       -2.415996    1.883753   -0.492268
     28          6           0        2.802699    2.484311    0.742775
     29          1           0        1.983974    2.864231    1.365103
     30          1           0        3.427053    3.313552    0.403301
     31          1           0        3.408269    1.772203    1.313778
 ---------------------------------------------------------------------
 Rotational constants (GHZ):           1.2822359           0.3046079           0.2528344
 Leave Link  202 at Tue Jul 28 03:19:48 2026, MaxMem=  4026531840 cpu:               0.0 elap:               0.0
 (Enter /opt/packages/gaussian/g16RevC.01/g16/l301.exe)
 Standard basis: 6-31+G(d) (6D, 7F)
 Ernie: Thresh=  0.10000D-02 Tol=  0.10000D-05 Strict=F.
 There are   317 symmetry adapted cartesian basis functions of A   symmetry.
 There are   317 symmetry adapted basis functions of A   symmetry.
   317 basis functions,   544 primitive gaussians,   317 cartesian basis functions
    55 alpha electrons       55 beta electrons
       nuclear repulsion energy       980.2549574965 Hartrees.
 IExCor=  402 DFT=T Ex+Corr=B3LYP ExCW=0 ScaHFX=  0.200000
 ScaDFX=  0.800000  0.720000  1.000000  0.810000 ScalE2=  1.000000  1.000000
 IRadAn=      5 IRanWt=     -1 IRanGd=            0 ICorTp=0 IEmpDi=  4
 NAtoms=   31 NActive=   31 NUniq=   31 SFac= 1.00D+00 NAtFMM=   60 NAOKFM=F Big=F
 Integral buffers will be    131072 words long.
 Raffenetti 2 integral format.
 Two-electron integral symmetry is turned on.
 ------------------------------------------------------------------------------
 Polarizable Continuum Model (PCM)
 =================================
 Model                : PCM.
 Atomic radii         : SMD-Coulomb.
 Polarization charges : Total charges.
 Charge compensation  : None.
 Solution method      : On-the-fly selection.
 Cavity type          : VdW (van der Waals Surface) (Alpha=1.000).
 Cavity algorithm     : GePol (No added spheres)
                        Default sphere list used, NSphG=   31.
                        Lebedev-Laikov grids with approx.  5.0 points / Ang**2.
                        Smoothing algorithm: York/Karplus (Gamma=1.0000).
                        Polarization charges: spherical gaussians, with
                                              point-specific exponents (IZeta= 3).
                        Self-potential: point-specific (ISelfS= 7).
                        Self-field    : sphere-specific E.n sum rule (ISelfD= 2).
 1st derivatives      : Analytical E(r).r(x)/FMM algorithm (CHGder, D1EAlg=3).
                        Cavity 1st derivative terms included.
 Solvent              : Methanol, Eps=  32.613000 Eps(inf)=   1.765709
 ------------------------------------------------------------------------------
 GePol: Number of generator spheres                  =      31
 GePol: Total number of spheres                      =      31
 GePol: Number of exposed spheres                    =      31 (100.00%)
 GePol: Number of points                             =    2262
 GePol: Average weight of points                     =       0.11
 GePol: Minimum weight of points                     =   0.35D-09
 GePol: Maximum weight of points                     =    0.21991
 GePol: Number of points with low weight             =     131
 GePol: Fraction of low-weight points (<1% of avg)   =       5.79%
 GePol: Cavity surface area                          =    247.553 Ang**2
 GePol: Cavity volume                                =    218.502 Ang**3
 ------------------------------------------------------------------------------
 Atomic radii for non-electrostatic terms: SMD-CDS.
 ------------------------------------------------------------------------------
 PCM non-electrostatic energy =         0.0015849268 Hartrees.
 Nuclear repulsion after PCM non-electrostatic terms =      980.2565424233 Hartrees.
 Leave Link  301 at Tue Jul 28 03:19:48 2026, MaxMem=  4026531840 cpu:               0.4 elap:               0.1
 (Enter /opt/packages/gaussian/g16RevC.01/g16/l302.exe)
 NPDir=0 NMtPBC=     1 NCelOv=     1 NCel=       1 NClECP=     1 NCelD=      1
         NCelK=      1 NCelE2=     1 NClLst=     1 CellRange=     0.0.
 One-electron integrals computed using PRISM.
 One-electron integral symmetry used in STVInt
 NBasis=   317 RedAO= T EigKep=  1.42D-06  NBF=   317
 NBsUse=   315 1.00D-06 EigRej=  7.81D-07 NBFU=   315
 Precomputing XC quadrature grid using
 IXCGrd= 4 IRadAn=           5 IRanWt=          -1 IRanGd=           0 AccXCQ= 0.00D+00.
 Generated NRdTot=       0 NPtTot=           0 NUsed=           0 NTot=          32
 NSgBfM=   316   316   316   316   316 MxSgAt=    31 MxSgA2=    31.
 Leave Link  302 at Tue Jul 28 03:19:48 2026, MaxMem=  4026531840 cpu:               1.7 elap:               0.2
 (Enter /opt/packages/gaussian/g16RevC.01/g16/l303.exe)
 DipDrv:  MaxL=1.
 Leave Link  303 at Tue Jul 28 03:19:48 2026, MaxMem=  4026531840 cpu:               0.1 elap:               0.0
 (Enter /opt/packages/gaussian/g16RevC.01/g16/l401.exe)
 Initial guess from the checkpoint file:  "dmp_s0_opt.chk"
 B after Tr=     0.000000    0.000000   -0.000000
         Rot=    1.000000    0.000099    0.000036   -0.000080 Ang=   0.02 deg.
 Guess basis will be translated and rotated to current coordinates.
 JPrj=2 DoOrth=T DoCkMO=T.
 Leave Link  401 at Tue Jul 28 03:19:48 2026, MaxMem=  4026531840 cpu:               0.6 elap:               0.1
 (Enter /opt/packages/gaussian/g16RevC.01/g16/l502.exe)
 Integral symmetry usage will be decided dynamically.
 Closed shell SCF:
 Using DIIS extrapolation, IDIIS=  1040.
 NGot=  4026531840 LenX=  4026324160 LenY=  4026223230
 Requested convergence on RMS density matrix=1.00D-08 within 128 cycles.
 Requested convergence on MAX density matrix=1.00D-06.
 Requested convergence on             energy=1.00D-06.
 No special actions if energy rises.
 Fock matrices will be formed incrementally for  20 cycles.

 Cycle   1  Pass 1  IDiag  1:
 FoFJK:  IHMeth= 1 ICntrl=       0 DoSepK=F KAlg= 0 I1Cent=           0 FoldK=F
 IRaf= 870000000 NMat=       1 IRICut=       1 DoRegI=T DoRafI=F ISym2E= 0 IDoP0=0 IntGTp=1.
 FoFCou: FMM=F IPFlag=           0 FMFlag=      100000 FMFlg1=           0
         NFxFlg=           0 DoJE=F BraDBF=F KetDBF=F FulRan=T
         wScrn=  0.000000 ICntrl=         0 IOpCl=  0 I1Cent=           0 NGrid=           0
         NMat0=    1 NMatS0=      1 NMatT0=    0 NMatD0=    1 NMtDS0=    0 NMtDT0=    0
 Symmetry not used in FoFCou.
 Inv3:  Mode=1 IEnd=    15349932.
 Iteration    1 A*A^-1 deviation from unit magnitude is 3.55D-15 for   2038.
 Iteration    1 A*A^-1 deviation from orthogonality  is 2.45D-15 for   1507    241.
 Iteration    1 A^-1*A deviation from unit magnitude is 3.33D-15 for   2038.
 Iteration    1 A^-1*A deviation from orthogonality  is 1.56D-15 for    925     45.
 E= -671.981176444253    
 DIIS: error= 7.55D-05 at cycle   1 NSaved=   1.
 NSaved= 1 IEnMin= 1 EnMin= -671.981176444253     IErMin= 1 ErrMin= 7.55D-05
 ErrMax= 7.55D-05  0.00D+00 EMaxC= 1.00D-01 BMatC= 3.82D-06 BMatP= 3.82D-06
 IDIUse=1 WtCom= 1.00D+00 WtEn= 0.00D+00
 Coeff-Com:  0.100D+01
 Coeff:      0.100D+01
 Gap=     0.421 Goal=   None    Shift=    0.000
 RMSDP=1.81D-04 MaxDP=2.17D-02              OVMax= 9.12D-04

 Cycle   2  Pass 1  IDiag  1:
 RMSU=  1.69D-04    CP:  9.99D-01
 E= -671.981183365819     Delta-E=       -0.000006921566 Rises=F Damp=F
 DIIS: error= 9.42D-06 at cycle   2 NSaved=   2.
 NSaved= 2 IEnMin= 2 EnMin= -671.981183365819     IErMin= 2 ErrMin= 9.42D-06
 ErrMax= 9.42D-06  0.00D+00 EMaxC= 1.00D-01 BMatC= 4.22D-08 BMatP= 3.82D-06
 IDIUse=1 WtCom= 1.00D+00 WtEn= 0.00D+00
 Coeff-Com: -0.688D-01 0.107D+01
 Coeff:     -0.688D-01 0.107D+01
 Gap=     0.156 Goal=   None    Shift=    0.000
 RMSDP=1.75D-05 MaxDP=2.36D-03 DE=-6.92D-06 OVMax= 9.42D-05

 Cycle   3  Pass 1  IDiag  1:
 RMSU=  8.03D-06    CP:  9.99D-01  1.07D+00
 E= -671.981183422421     Delta-E=       -0.000000056602 Rises=F Damp=F
 DIIS: error= 5.38D-06 at cycle   3 NSaved=   3.
 NSaved= 3 IEnMin= 3 EnMin= -671.981183422421     IErMin= 3 ErrMin= 5.38D-06
 ErrMax= 5.38D-06  0.00D+00 EMaxC= 1.00D-01 BMatC= 1.92D-08 BMatP= 4.22D-08
 IDIUse=1 WtCom= 1.00D+00 WtEn= 0.00D+00
 Coeff-Com: -0.344D-01 0.482D+00 0.552D+00
 Coeff:     -0.344D-01 0.482D+00 0.552D+00
 Gap=     0.156 Goal=   None    Shift=    0.000
 RMSDP=4.08D-06 MaxDP=3.72D-04 DE=-5.66D-08 OVMax= 7.79D-05

 Cycle   4  Pass 1  IDiag  1:
 RMSU=  3.20D-06    CP:  9.99D-01  1.06D+00  8.56D-01
 E= -671.981183435293     Delta-E=       -0.000000012872 Rises=F Damp=F
 DIIS: error= 3.18D-06 at cycle   4 NSaved=   4.
 NSaved= 4 IEnMin= 4 EnMin= -671.981183435293     IErMin= 4 ErrMin= 3.18D-06
 ErrMax= 3.18D-06  0.00D+00 EMaxC= 1.00D-01 BMatC= 5.42D-09 BMatP= 1.92D-08
 IDIUse=1 WtCom= 1.00D+00 WtEn= 0.00D+00
 Coeff-Com: -0.716D-02 0.891D-01 0.346D+00 0.572D+00
 Coeff:     -0.716D-02 0.891D-01 0.346D+00 0.572D+00
 Gap=     0.156 Goal=   None    Shift=    0.000
 RMSDP=1.44D-06 MaxDP=7.42D-05 DE=-1.29D-08 OVMax= 3.33D-05

 Cycle   5  Pass 1  IDiag  1:
 RMSU=  1.14D-06    CP:  9.99D-01  1.06D+00  8.69D-01  8.97D-01
 E= -671.981183440241     Delta-E=       -0.000000004948 Rises=F Damp=F
 DIIS: error= 3.86D-07 at cycle   5 NSaved=   5.
 NSaved= 5 IEnMin= 5 EnMin= -671.981183440241     IErMin= 5 ErrMin= 3.86D-07
 ErrMax= 3.86D-07  0.00D+00 EMaxC= 1.00D-01 BMatC= 1.47D-10 BMatP= 5.42D-09
 IDIUse=1 WtCom= 1.00D+00 WtEn= 0.00D+00
 Coeff-Com: -0.143D-02 0.137D-01 0.121D+00 0.254D+00 0.613D+00
 Coeff:     -0.143D-02 0.137D-01 0.121D+00 0.254D+00 0.613D+00
 Gap=     0.156 Goal=   None    Shift=    0.000
 RMSDP=4.47D-07 MaxDP=3.39D-05 DE=-4.95D-09 OVMax= 4.31D-06

 Cycle   6  Pass 1  IDiag  1:
 RMSU=  2.75D-07    CP:  9.99D-01  1.06D+00  8.93D-01  9.12D-01  8.36D-01
 E= -671.981183440403     Delta-E=       -0.000000000162 Rises=F Damp=F
 DIIS: error= 1.04D-07 at cycle   6 NSaved=   6.
 NSaved= 6 IEnMin= 6 EnMin= -671.981183440403     IErMin= 6 ErrMin= 1.04D-07
 ErrMax= 1.04D-07  0.00D+00 EMaxC= 1.00D-01 BMatC= 1.43D-11 BMatP= 1.47D-10
 IDIUse=1 WtCom= 1.00D+00 WtEn= 0.00D+00
 Coeff-Com:  0.821D-04-0.394D-02 0.191D-01 0.572D-01 0.283D+00 0.644D+00
 Coeff:      0.821D-04-0.394D-02 0.191D-01 0.572D-01 0.283D+00 0.644D+00
 Gap=     0.156 Goal=   None    Shift=    0.000
 RMSDP=1.21D-07 MaxDP=1.19D-05 DE=-1.62D-10 OVMax= 1.55D-06

 Cycle   7  Pass 1  IDiag  1:
 RMSU=  6.31D-08    CP:  9.99D-01  1.06D+00  8.92D-01  9.27D-01  8.83D-01
                    CP:  9.67D-01
 E= -671.981183440414     Delta-E=       -0.000000000011 Rises=F Damp=F
 DIIS: error= 5.32D-08 at cycle   7 NSaved=   7.
 NSaved= 7 IEnMin= 7 EnMin= -671.981183440414     IErMin= 7 ErrMin= 5.32D-08
 ErrMax= 5.32D-08  0.00D+00 EMaxC= 1.00D-01 BMatC= 2.43D-12 BMatP= 1.43D-11
 IDIUse=1 WtCom= 1.00D+00 WtEn= 0.00D+00
 Coeff-Com:  0.148D-03-0.334D-02 0.256D-02 0.157D-01 0.125D+00 0.377D+00
 Coeff-Com:  0.483D+00
 Coeff:      0.148D-03-0.334D-02 0.256D-02 0.157D-01 0.125D+00 0.377D+00
 Coeff:      0.483D+00
 Gap=     0.156 Goal=   None    Shift=    0.000
 RMSDP=3.18D-08 MaxDP=1.82D-06 DE=-1.10D-11 OVMax= 5.65D-07

 Cycle   8  Pass 1  IDiag  1:
 RMSU=  1.90D-08    CP:  9.99D-01  1.06D+00  8.92D-01  9.30D-01  8.96D-01
                    CP:  9.50D-01  7.85D-01
 E= -671.981183440416     Delta-E=       -0.000000000003 Rises=F Damp=F
 DIIS: error= 8.71D-09 at cycle   8 NSaved=   8.
 NSaved= 8 IEnMin= 8 EnMin= -671.981183440416     IErMin= 8 ErrMin= 8.71D-09
 ErrMax= 8.71D-09  0.00D+00 EMaxC= 1.00D-01 BMatC= 7.84D-14 BMatP= 2.43D-12
 IDIUse=1 WtCom= 1.00D+00 WtEn= 0.00D+00
 Coeff-Com:  0.555D-04-0.109D-02-0.526D-03 0.218D-02 0.307D-01 0.110D+00
 Coeff-Com:  0.209D+00 0.650D+00
 Coeff:      0.555D-04-0.109D-02-0.526D-03 0.218D-02 0.307D-01 0.110D+00
 Coeff:      0.209D+00 0.650D+00
 Gap=     0.156 Goal=   None    Shift=    0.000
 RMSDP=1.63D-08 MaxDP=1.58D-06 DE=-2.50D-12 OVMax= 1.22D-07

 Cycle   9  Pass 1  IDiag  1:
 RMSU=  5.71D-09    CP:  9.99D-01  1.06D+00  8.92D-01  9.33D-01  9.00D-01
                    CP:  9.67D-01  8.49D-01  1.01D+00
 E= -671.981183440440     Delta-E=       -0.000000000023 Rises=F Damp=F
 DIIS: error= 4.08D-09 at cycle   9 NSaved=   9.
 NSaved= 9 IEnMin= 9 EnMin= -671.981183440440     IErMin= 9 ErrMin= 4.08D-09
 ErrMax= 4.08D-09  0.00D+00 EMaxC= 1.00D-01 BMatC= 1.57D-14 BMatP= 7.84D-14
 IDIUse=1 WtCom= 1.00D+00 WtEn= 0.00D+00
 Coeff-Com:  0.714D-05-0.725D-04-0.686D-03-0.110D-02-0.189D-02 0.354D-02
 Coeff-Com:  0.439D-01 0.351D+00 0.606D+00
 Coeff:      0.714D-05-0.725D-04-0.686D-03-0.110D-02-0.189D-02 0.354D-02
 Coeff:      0.439D-01 0.351D+00 0.606D+00
 Gap=     0.156 Goal=   None    Shift=    0.000
 RMSDP=2.94D-09 MaxDP=2.16D-07 DE=-2.34D-11 OVMax= 6.07D-08

 Error on total polarization charges =  0.05682
 SCF Done:  E(RB3LYP) =  -671.981183440     A.U. after    9 cycles
            NFock=  9  Conv=0.29D-08     -V/T= 2.0097
 KE= 6.654953358346D+02 PE=-3.505418534036D+03 EE= 1.187685472338D+03
 SMD-CDS (non-electrostatic) energy       (kcal/mol) =       0.99
 (included in total energy above)
 Leave Link  502 at Tue Jul 28 03:20:30 2026, MaxMem=  4026531840 cpu:             314.3 elap:              41.7
 (Enter /opt/packages/gaussian/g16RevC.01/g16/l701.exe)
 ... and contract with generalized density number  0.
 Compute integral first derivatives.
 D1PCM: PCM CHGder 1st derivatives, ID1Alg=3 FixD1E=F DoIter=F DoCFld=F I1PDM=0.
 GePol: Maximum number of non-zero 1st derivatives   =     260
 Leave Link  701 at Tue Jul 28 03:20:31 2026, MaxMem=  4026531840 cpu:               8.2 elap:               1.0
 (Enter /opt/packages/gaussian/g16RevC.01/g16/l702.exe)
 L702 exits ... SP integral derivatives will be done elsewhere.
 Leave Link  702 at Tue Jul 28 03:20:38 2026, MaxMem=  4026531840 cpu:               0.1 elap:               1.8
 (Enter /opt/packages/gaussian/g16RevC.01/g16/l703.exe)
 Integral derivatives from FoFJK, PRISM(SPDF).
 Compute integral first derivatives, UseDBF=F ICtDFT=           0.
 Calling FoFJK, ICntrl=      2127 FMM=F ISym2X=0 I1Cent= 0 IOpClX= 0 NMat=1 NMatS=1 NMatT=0.
 FoFJK:  IHMeth= 1 ICntrl=    2127 DoSepK=F KAlg= 0 I1Cent=           0 FoldK=F
 IRaf=         0 NMat=       1 IRICut=       1 DoRegI=T DoRafI=F ISym2E= 0 IDoP0=0 IntGTp=1.
 FoFCou: FMM=F IPFlag=           0 FMFlag=      100000 FMFlg1=         800
         NFxFlg=           0 DoJE=F BraDBF=F KetDBF=F FulRan=T
         wScrn=  0.000000 ICntrl=      2127 IOpCl=  0 I1Cent=           0 NGrid=           0
         NMat0=    1 NMatS0=      1 NMatT0=    0 NMatD0=    1 NMtDS0=    0 NMtDT0=    0
 Symmetry not used in FoFCou.
 Leave Link  703 at Tue Jul 28 03:20:45 2026, MaxMem=  4026531840 cpu:              58.8 elap:               7.4
 (Enter /opt/packages/gaussian/g16RevC.01/g16/l716.exe)
 Dipole        =-3.43778238D+00-5.59868507D-01 5.92271842D-01
 ***** Axes restored to original set *****
 -------------------------------------------------------------------
 Center     Atomic                   Forces (Hartrees/Bohr)
 Number     Number              X              Y              Z
 -------------------------------------------------------------------
      1        6          -0.000068586    0.000008186    0.000013528
      2        6          -0.000003092   -0.000002458   -0.000002062
      3        6          -0.000002074   -0.000016203    0.000004251
      4        6          -0.000033562    0.000012405    0.000002478
      5        6           0.000009135    0.000013523    0.000003280
      6        6           0.000005173   -0.000032478   -0.000002436
      7        8           0.000034507    0.000002568    0.000038444
      8        1          -0.000007355   -0.000001668    0.000004073
      9        1          -0.000000913    0.000003736    0.000001696
     10        1          -0.000007114   -0.000003117   -0.000003166
     11        8           0.000065131   -0.000031213   -0.000000524
     12        6          -0.000025373    0.000038183    0.000004511
     13        1          -0.000006222   -0.000021321    0.000006007
     14        1          -0.000008576   -0.000017997    0.000010739
     15        1           0.000000941   -0.000015681    0.000007882
     16        6           0.000060884   -0.000019361   -0.000003348
     17        6           0.000000074   -0.000001193    0.000006318
     18        7           0.000021801    0.000035074   -0.000020488
     19        6          -0.000037419    0.000002632   -0.000000549
     20        6          -0.000015911    0.000010366   -0.000005092
     21        1          -0.000008133    0.000011397    0.000000516
     22        1          -0.000009547    0.000011887   -0.000003667
     23        1           0.000007475    0.000002321   -0.000007864
     24        1           0.000010563    0.000012511   -0.000006458
     25        1           0.000004028    0.000019540   -0.000001696
     26        1          -0.000001441    0.000013289   -0.000007349
     27        1           0.000013573    0.000006503    0.000004263
     28        6          -0.000015231   -0.000014307   -0.000049914
     29        1           0.000002760   -0.000004009    0.000005247
     30        1           0.000009917   -0.000007643   -0.000006331
     31        1           0.000004586   -0.000015474    0.000007715
 -------------------------------------------------------------------
 Cartesian Forces:  Max     0.000068586 RMS     0.000018763
 Leave Link  716 at Tue Jul 28 03:20:46 2026, MaxMem=  4026531840 cpu:               0.1 elap:               0.0
 (Enter /opt/packages/gaussian/g16RevC.01/g16/l103.exe)

 GradGradGradGradGradGradGradGradGradGradGradGradGradGradGradGradGradGrad
 Berny optimization.
 Using GEDIIS/GDIIS optimizer.
 FormGI is forming the generalized inverse of G from B-inverse, IUseBI=4.
 Internal  Forces:  Max     0.000046733 RMS     0.000009525
 Search for a local minimum.
 Step number   8 out of a maximum of  170
 All quantities printed in internal units (Hartrees-Bohrs-Radians)
 RMS Force = .95246D-05 SwitMx=.10000D-02 MixMth= 2
 Mixed Optimization -- En-DIIS/RFO-DIIS
 Swapping is turned off.
 Update second derivatives using D2CorX and points    1    2    3    4    5
                                                      6    7    8
 DE=  1.90D-07 DEPred=-7.35D-08 R=-2.59D+00
 Trust test=-2.59D+00 RLast= 6.33D-03 DXMaxT set to 5.00D-02
 ITU= -1 -1 -1  0  1  1  1  0
     Eigenvalues ---    0.00211   0.00630   0.01126   0.01224   0.01283
     Eigenvalues ---    0.01369   0.01441   0.01836   0.01865   0.02024
     Eigenvalues ---    0.02088   0.02147   0.02162   0.02190   0.02193
     Eigenvalues ---    0.02219   0.02282   0.02459   0.03378   0.03612
     Eigenvalues ---    0.05009   0.05237   0.05651   0.05959   0.06932
     Eigenvalues ---    0.07509   0.08449   0.08564   0.09438   0.10151
     Eigenvalues ---    0.10217   0.10633   0.10745   0.10997   0.13410
     Eigenvalues ---    0.15927   0.15954   0.16000   0.16000   0.16009
     Eigenvalues ---    0.16035   0.16067   0.16299   0.16420   0.21536
     Eigenvalues ---    0.22434   0.22895   0.23303   0.24118   0.24352
     Eigenvalues ---    0.24903   0.25022   0.25783   0.27733   0.27960
     Eigenvalues ---    0.29209   0.31330   0.31491   0.33862   0.33990
     Eigenvalues ---    0.34236   0.34328   0.34364   0.34376   0.34450
     Eigenvalues ---    0.34561   0.34687   0.34721   0.34726   0.34805
     Eigenvalues ---    0.34952   0.35448   0.35493   0.36085   0.36878
     Eigenvalues ---    0.40826   0.40942   0.42443   0.44483   0.44919
     Eigenvalues ---    0.46261   0.47436   0.47837   0.50317   0.52203
     Eigenvalues ---    0.60866   0.69972
 En-DIIS/RFO-DIIS/Sim-DIIS IScMMF=       -3 using points:     8    7    6    5    4    3    2
 RFO step:  Lambda=-7.11433532D-08.
 NNeg= 0 NGDIIS= 7 SimSw=  2.50D-03 Rises=T DC=  1.90D-07 SmlDif=  1.00D-05
 NRisDI= 2 DoIntr=T SqrtH=F CThrHd= 10.0 CDAdj=  3.0
 RMS Error=  0.2435480901D-03 NUsed= 7 OKEnD=T EnDIS=T
 InvSVX:  RCond= 1.12D-08 Info=           0 Equed=N FErr=  4.91D-12 BErr=  5.52D-17
 DIIS inversion failure, remove point   7.
 InvSVX:  RCond= 1.30D-08 Info=           0 Equed=N FErr=  4.26D-12 BErr=  6.58D-17
 DIIS inversion failure, remove point   6.
 InvSVX:  RCond= 1.85D-08 Info=           0 Equed=N FErr=  3.58D-12 BErr=  2.34D-17
 DIIS inversion failure, remove point   5.
 InvSVX:  RCond= 1.89D-08 Info=           0 Equed=N FErr=  3.18D-12 BErr=  1.94D-17
 DIIS inversion failure, remove point   4.
 InvSVX:  RCond= 8.35D-08 Info=           0 Equed=N FErr=  2.54D-13 BErr=  2.84D-17
 DIIS inversion failure, remove point   3.
 InvSVX:  RCond= 1.00D-05 Info=           0 Equed=N FErr=  2.17D-15 BErr=  3.39D-17
 RFO-DIIS uses    2 points instead of    7
 EnCoef did   100 forward-backward iterations
 IWarn =    2
 Energies =   -671.981143565      -671.981178788      -671.981183514      -671.981183862      -671.981183833    
 Energies =   -671.981183630      -671.981183440    
 Point number   1 has energy  -0.6719811436D+03 and has been removed
 EnCoef did   100 forward-backward iterations
 IWarn =    2
 Energies =   -671.981178788      -671.981183514      -671.981183862      -671.981183833      -671.981183630    
 Energies =   -671.981183440    
 Point number   1 has energy  -0.6719811788D+03 and has been removed
 EnCoef did   100 forward-backward iterations
 IWarn =    2
 Energies =   -671.981183514      -671.981183862      -671.981183833      -671.981183630      -671.981183440    
 Point number   1 has energy  -0.6719811835D+03 and has been removed
 EnCoef did   100 forward-backward iterations
 IWarn =    2
 Energies =   -671.981183862      -671.981183833      -671.981183630      -671.981183440    
 Point number   3 has energy  -0.6719811836D+03 and has been removed
 EnCoef did   100 forward-backward iterations
 IWarn =    2
 Energies =   -671.981183862      -671.981183833      -671.981183440    
 Point number   2 has energy  -0.6719811838D+03 and has been removed
 IWarn =    0
 DidBck=T Rises=T En-DIIS coefs:    0.31365    0.00000    0.00000    0.68635    0.00000
                  En-DIIS coefs:    0.00000    0.00000
 Iteration  1 RMS(Cart)=  0.00311564 RMS(Int)=  0.00000687
 Iteration  2 RMS(Cart)=  0.00000966 RMS(Int)=  0.00000003
 Iteration  3 RMS(Cart)=  0.00000000 RMS(Int)=  0.00000003
 ITry= 1 IFail=0 DXMaxC= 1.69D-02 DCOld= 1.00D+10 DXMaxT= 5.00D-02 DXLimC= 3.00D+00 Rises=F
 Variable       Old X    -DE/DX   Delta X   Delta X   Delta X     New X
                                 (Linear)    (Quad)   (Total)
    R1        2.65168  -0.00000  -0.00010   0.00000  -0.00010   2.65157
    R2        2.68592  -0.00003  -0.00010   0.00000  -0.00010   2.68582
    R3        2.54388   0.00005   0.00017   0.00000   0.00017   2.54405
    R4        2.62799  -0.00001  -0.00006   0.00000  -0.00006   2.62793
    R5        2.04798  -0.00000  -0.00001   0.00000  -0.00001   2.04796
    R6        2.66273   0.00001   0.00006   0.00000   0.00006   2.66279
    R7        2.05016  -0.00000  -0.00004   0.00000  -0.00004   2.05013
    R8        2.67705  -0.00000   0.00003   0.00000   0.00003   2.67708
    R9        2.73439  -0.00004  -0.00026   0.00000  -0.00026   2.73413
   R10        2.60878  -0.00001  -0.00004   0.00000  -0.00004   2.60874
   R11        2.05223   0.00000  -0.00002   0.00000  -0.00002   2.05221
   R12        2.60419   0.00000  -0.00009   0.00000  -0.00009   2.60410
   R13        2.73110  -0.00005  -0.00009   0.00000  -0.00009   2.73101
   R14        2.72228  -0.00004  -0.00007   0.00000  -0.00007   2.72221
   R15        2.06895   0.00001   0.00002   0.00000   0.00002   2.06897
   R16        2.06898   0.00001   0.00001   0.00000   0.00001   2.06899
   R17        2.06103   0.00000   0.00000   0.00000   0.00000   2.06104
   R18        2.84912   0.00001   0.00009   0.00000   0.00009   2.84921
   R19        2.47231   0.00002   0.00014   0.00000   0.00014   2.47245
   R20        2.91814   0.00001  -0.00006   0.00000  -0.00006   2.91808
   R21        2.06488  -0.00000  -0.00006   0.00000  -0.00006   2.06482
   R22        2.07658  -0.00000   0.00001   0.00000   0.00001   2.07659
   R23        2.78685   0.00003   0.00020   0.00000   0.00020   2.78705
   R24        1.92307   0.00000  -0.00003   0.00000  -0.00003   1.92304
   R25        2.90372  -0.00000  -0.00018   0.00000  -0.00018   2.90354
   R26        2.07092   0.00000  -0.00001   0.00000  -0.00001   2.07091
   R27        2.06419  -0.00000  -0.00004   0.00000  -0.00004   2.06415
   R28        2.06844   0.00000   0.00002   0.00000   0.00002   2.06846
   R29        2.06359   0.00000  -0.00001   0.00000  -0.00001   2.06358
   R30        2.07177   0.00001   0.00003   0.00000   0.00003   2.07179
   R31        2.06379   0.00000  -0.00001   0.00000  -0.00001   2.06378
   R32        2.06997   0.00001  -0.00007   0.00000  -0.00007   2.06990
    A1        2.08072   0.00001   0.00013   0.00000   0.00013   2.08085
    A2        2.17914   0.00000  -0.00005   0.00000  -0.00005   2.17910
    A3        2.02330  -0.00001  -0.00008   0.00000  -0.00008   2.02322
    A4        2.09605  -0.00000  -0.00004   0.00000  -0.00004   2.09601
    A5        2.10341   0.00000  -0.00004   0.00000  -0.00004   2.10337
    A6        2.08373   0.00000   0.00007   0.00000   0.00007   2.08380
    A7        2.11521  -0.00001  -0.00003   0.00000  -0.00003   2.11518
    A8        2.06632   0.00000   0.00001   0.00000   0.00001   2.06633
    A9        2.10159   0.00001   0.00002   0.00000   0.00002   2.10160
   A10        2.06539   0.00001   0.00001   0.00000   0.00001   2.06539
   A11        2.08566   0.00002   0.00003   0.00000   0.00003   2.08569
   A12        2.13210  -0.00003  -0.00004   0.00000  -0.00004   2.13206
   A13        2.10975  -0.00001  -0.00001   0.00000  -0.00001   2.10974
   A14        2.12833  -0.00001  -0.00008   0.00000  -0.00008   2.12825
   A15        2.04509   0.00002   0.00009   0.00000   0.00009   2.04518
   A16        2.09910   0.00000  -0.00006   0.00000  -0.00006   2.09904
   A17        2.08691  -0.00001   0.00048   0.00000   0.00048   2.08739
   A18        2.09573   0.00001  -0.00044   0.00000  -0.00044   2.09529
   A19        2.00561   0.00001   0.00029   0.00000   0.00029   2.00590
   A20        2.08061  -0.00001  -0.00008   0.00000  -0.00008   2.08053
   A21        1.92895   0.00001   0.00003   0.00000   0.00003   1.92898
   A22        1.92967   0.00000   0.00004   0.00000   0.00004   1.92970
   A23        1.83488   0.00000   0.00004   0.00000   0.00004   1.83492
   A24        1.92942  -0.00001  -0.00010   0.00000  -0.00010   1.92932
   A25        1.91935  -0.00000  -0.00001   0.00000  -0.00001   1.91934
   A26        1.91952  -0.00000   0.00001   0.00000   0.00001   1.91953
   A27        2.19635   0.00002   0.00018   0.00000   0.00018   2.19653
   A28        2.18084  -0.00002  -0.00001   0.00000  -0.00001   2.18083
   A29        1.90564  -0.00000  -0.00018   0.00000  -0.00018   1.90546
   A30        1.81256   0.00001  -0.00010   0.00000  -0.00010   1.81246
   A31        1.95386  -0.00000   0.00023   0.00000   0.00023   1.95409
   A32        1.88430   0.00000  -0.00011   0.00000  -0.00011   1.88419
   A33        1.97879  -0.00000   0.00004   0.00000   0.00004   1.97883
   A34        1.95893  -0.00001  -0.00028   0.00000  -0.00028   1.95865
   A35        1.87436   0.00000   0.00020   0.00000   0.00020   1.87456
   A36        2.00943  -0.00001  -0.00014   0.00000  -0.00014   2.00930
   A37        2.15895  -0.00000   0.00001   0.00000   0.00001   2.15896
   A38        2.11156   0.00001   0.00015   0.00000   0.00015   2.11172
   A39        1.78457   0.00000  -0.00014   0.00000  -0.00014   1.78444
   A40        1.89196  -0.00000  -0.00006   0.00000  -0.00006   1.89189
   A41        1.91145  -0.00000  -0.00002   0.00000  -0.00002   1.91144
   A42        1.97657  -0.00000  -0.00016   0.00000  -0.00016   1.97641
   A43        1.99435   0.00000   0.00016   0.00000   0.00016   1.99450
   A44        1.89922   0.00000   0.00019   0.00000   0.00019   1.89941
   A45        1.81945   0.00000  -0.00021   0.00000  -0.00021   1.81924
   A46        1.91809  -0.00000  -0.00010   0.00000  -0.00010   1.91799
   A47        1.96127  -0.00000   0.00005   0.00000   0.00005   1.96132
   A48        1.91869  -0.00000  -0.00009   0.00000  -0.00009   1.91861
   A49        1.95389  -0.00000   0.00010   0.00000   0.00010   1.95400
   A50        1.89184   0.00000   0.00022   0.00000   0.00022   1.89205
   A51        1.92238   0.00000  -0.00020   0.00000  -0.00020   1.92218
   A52        1.84948  -0.00000  -0.00005   0.00000  -0.00005   1.84943
   A53        1.93551  -0.00000   0.00023   0.00000   0.00023   1.93574
   A54        1.91798   0.00000   0.00003   0.00000   0.00003   1.91801
   A55        1.92009  -0.00000  -0.00000   0.00000  -0.00000   1.92009
   A56        1.91729   0.00000  -0.00001   0.00000  -0.00001   1.91728
    D1        0.00620  -0.00000   0.00028   0.00000   0.00028   0.00647
    D2       -3.13952  -0.00000  -0.00003   0.00000  -0.00003  -3.13955
    D3       -3.12791   0.00000   0.00065   0.00000   0.00065  -3.12726
    D4        0.00957   0.00000   0.00034   0.00000   0.00034   0.00991
    D5       -0.01616   0.00000  -0.00025   0.00000  -0.00025  -0.01641
    D6       -3.10007   0.00000   0.00015   0.00000   0.00015  -3.09992
    D7        3.11860   0.00000  -0.00059   0.00000  -0.00059   3.11800
    D8        0.03469   0.00000  -0.00019   0.00000  -0.00019   0.03450
    D9        0.00771  -0.00000  -0.00061   0.00000  -0.00061   0.00710
   D10       -3.12661   0.00000  -0.00025   0.00000  -0.00025  -3.12686
   D11        0.00905   0.00000  -0.00007   0.00000  -0.00007   0.00898
   D12        3.13794   0.00000  -0.00026   0.00000  -0.00026   3.13768
   D13       -3.12847   0.00000   0.00023   0.00000   0.00023  -3.12824
   D14        0.00042  -0.00000   0.00004   0.00000   0.00004   0.00047
   D15       -0.01422   0.00000  -0.00016   0.00000  -0.00016  -0.01439
   D16        3.11814  -0.00000  -0.00020   0.00000  -0.00020   3.11794
   D17        3.14032   0.00000   0.00003   0.00000   0.00003   3.14035
   D18       -0.01050  -0.00000  -0.00000   0.00000  -0.00000  -0.01050
   D19        0.00412  -0.00000   0.00019   0.00000   0.00019   0.00431
   D20       -3.13319  -0.00000   0.00023   0.00000   0.00023  -3.13297
   D21       -3.12799   0.00000   0.00022   0.00000   0.00022  -3.12776
   D22        0.01789  -0.00000   0.00026   0.00000   0.00026   0.01815
   D23        0.05253   0.00000   0.00006   0.00000   0.00006   0.05259
   D24       -3.05729   0.00000   0.00008   0.00000   0.00008  -3.05721
   D25       -3.09865   0.00000   0.00002   0.00000   0.00002  -3.09863
   D26        0.07471  -0.00000   0.00004   0.00000   0.00004   0.07476
   D27        0.01095  -0.00000   0.00002   0.00000   0.00002   0.01096
   D28        3.09456  -0.00000  -0.00036   0.00000  -0.00036   3.09420
   D29       -3.13473  -0.00000  -0.00002   0.00000  -0.00002  -3.13475
   D30       -0.05111  -0.00000  -0.00039   0.00000  -0.00039  -0.05151
   D31       -1.50420  -0.00001   0.00723   0.00000   0.00723  -1.49697
   D32        1.69496  -0.00001   0.00762   0.00000   0.00762   1.70258
   D33       -1.09084   0.00000  -0.00068   0.00000  -0.00068  -1.09152
   D34        3.11869  -0.00000  -0.00058   0.00000  -0.00058   3.11811
   D35        1.03885  -0.00000  -0.00067   0.00000  -0.00067   1.03818
   D36        1.06129  -0.00000   0.00042   0.00000   0.00042   1.06171
   D37       -1.08074   0.00000   0.00050   0.00000   0.00050  -1.08024
   D38        3.13158   0.00000   0.00045   0.00000   0.00045   3.13203
   D39        2.93153   0.00000  -0.00096   0.00000  -0.00096   2.93056
   D40        0.79035   0.00000  -0.00108   0.00000  -0.00108   0.78927
   D41       -1.26910  -0.00000  -0.00139   0.00000  -0.00139  -1.27048
   D42       -0.23764   0.00000  -0.00098   0.00000  -0.00098  -0.23862
   D43       -2.37881   0.00000  -0.00110   0.00000  -0.00110  -2.37991
   D44        1.84492  -0.00000  -0.00140   0.00000  -0.00140   1.84352
   D45        3.09965   0.00000  -0.00001   0.00000  -0.00001   3.09963
   D46        0.04397  -0.00000  -0.00037   0.00000  -0.00037   0.04360
   D47       -0.01468  -0.00000  -0.00000   0.00000  -0.00000  -0.01468
   D48       -3.07035  -0.00000  -0.00036   0.00000  -0.00036  -3.07071
   D49        0.38002   0.00000   0.00155   0.00000   0.00155   0.38156
   D50       -1.67551   0.00000   0.00181   0.00000   0.00181  -1.67371
   D51        2.49949  -0.00000   0.00157   0.00000   0.00157   2.50105
   D52        2.50467   0.00000   0.00179   0.00000   0.00179   2.50645
   D53        0.44913   0.00000   0.00205   0.00000   0.00205   0.45118
   D54       -1.65905  -0.00000   0.00181   0.00000   0.00181  -1.65724
   D55       -1.65082   0.00000   0.00187   0.00000   0.00187  -1.64895
   D56        2.57683   0.00000   0.00213   0.00000   0.00213   2.57896
   D57        0.46865  -0.00000   0.00189   0.00000   0.00189   0.47054
   D58        0.25995   0.00000   0.00100   0.00000   0.00100   0.26094
   D59       -1.83204   0.00000   0.00128   0.00000   0.00128  -1.83076
   D60        2.38131   0.00000   0.00109   0.00000   0.00109   2.38240
   D61       -2.96502   0.00000   0.00134   0.00000   0.00134  -2.96368
   D62        1.22618   0.00000   0.00162   0.00000   0.00162   1.22780
   D63       -0.84366   0.00000   0.00143   0.00000   0.00143  -0.84222
   D64       -0.37985  -0.00000  -0.00150   0.00000  -0.00150  -0.38136
   D65        1.67527  -0.00000  -0.00177   0.00000  -0.00177   1.67349
   D66       -2.50421  -0.00000  -0.00149   0.00000  -0.00149  -2.50570
   D67        1.65194  -0.00000  -0.00173   0.00000  -0.00173   1.65020
   D68       -2.57613  -0.00000  -0.00200   0.00000  -0.00200  -2.57813
   D69       -0.47242  -0.00000  -0.00172   0.00000  -0.00172  -0.47414
   D70       -2.44323   0.00000  -0.00147   0.00000  -0.00147  -2.44470
   D71       -0.38811   0.00000  -0.00174   0.00000  -0.00174  -0.38985
   D72        1.71560   0.00000  -0.00146   0.00000  -0.00146   1.71414
         Item               Value     Threshold  Converged?
 Maximum Force            0.000047     0.000450     YES
 RMS     Force            0.000010     0.000300     YES
 Maximum Displacement     0.016917     0.001800     NO 
 RMS     Displacement     0.003116     0.001200     NO 
 Predicted change in Energy=-3.307944D-07
 GradGradGradGradGradGradGradGradGradGradGradGradGradGradGradGradGradGrad

 Leave Link  103 at Tue Jul 28 03:20:46 2026, MaxMem=  4026531840 cpu:               0.2 elap:               0.0
 (Enter /opt/packages/gaussian/g16RevC.01/g16/l202.exe)
                          Input orientation:                          
 ---------------------------------------------------------------------
 Center     Atomic      Atomic             Coordinates (Angstroms)
 Number     Number       Type             X           Y           Z
 ---------------------------------------------------------------------
      1          6           0        2.065191   -0.520059   -0.102675
      2          6           0        1.237134   -1.639970    0.067496
      3          6           0       -0.144681   -1.486946    0.099913
      4          6           0       -0.742137   -0.219213   -0.046479
      5          6           0        0.101570    0.906844   -0.210961
      6          6           0        1.474699    0.766199   -0.232624
      7          8           0        2.277594    1.864967   -0.449503
      8          1           0        1.665181   -2.630238    0.170595
      9          1           0       -0.758808   -2.371886    0.229120
     10          1           0       -0.295992    1.911448   -0.320853
     11          8           0        3.409478   -0.559382   -0.163813
     12          6           0        4.081038   -1.829441   -0.058532
     13          1           0        3.775263   -2.493995   -0.873128
     14          1           0        3.877393   -2.292832    0.912304
     15          1           0        5.143281   -1.597924   -0.145503
     16          6           0       -2.184496   -0.105882   -0.036509
     17          6           0       -3.157609   -1.236286    0.183756
     18          7           0       -2.851066    0.998988   -0.252753
     19          6           0       -4.318974    0.856296   -0.245713
     20          6           0       -4.509105   -0.522724    0.404630
     21          1           0       -2.861586   -1.873019    1.020916
     22          1           0       -3.160597   -1.861641   -0.719833
     23          1           0       -4.675592    0.898984   -1.281064
     24          1           0       -4.763214    1.682104    0.314482
     25          1           0       -4.698284   -0.406831    1.476491
     26          1           0       -5.345058   -1.070104   -0.035845
     27          1           0       -2.411996    1.886633   -0.487000
     28          6           0        2.815200    2.472203    0.746665
     29          1           0        2.001343    2.850797    1.376169
     30          1           0        3.439609    3.301671    0.407861
     31          1           0        3.422421    1.755418    1.309940
 ---------------------------------------------------------------------
                    Distance matrix (angstroms):
                    1          2          3          4          5
     1  C    0.000000
     2  C    1.403153   0.000000
     3  C    2.420630   1.390640   0.000000
     4  C    2.823961   2.439068   1.409089   0.000000
     5  C    2.429730   2.802375   2.426420   1.416651   0.000000
     6  C    1.421277   2.436423   2.794573   2.433114   1.380483
     7  O    2.419453   3.692482   4.171882   3.691207   2.389557
     8  H    2.165073   1.083736   2.141895   3.413992   3.886054
     9  H    3.393276   2.132043   1.084880   2.170307   3.418186
    10  H    3.396323   3.887654   3.427684   2.194092   1.085983
    11  O    1.346251   2.437263   3.682659   4.167180   3.618605
    12  C    2.404177   2.852993   4.242536   5.084879   4.831838
    13  H    2.722934   2.838351   4.162562   5.124928   5.049773
    14  H    2.730747   2.847964   4.181687   5.153563   5.075086
    15  H    3.261635   3.912176   5.294818   6.045560   5.630009
    16  C    4.270335   3.751239   2.467143   1.446839   2.506421
    17  C    5.279457   4.414776   3.024499   2.630961   3.920594
    18  N    5.147777   4.876477   3.691715   2.444206   2.954368
    19  C    6.532410   6.099162   4.799475   3.740344   4.420969
    20  C    6.593841   5.863545   4.480041   3.806004   4.866306
    21  H    5.231261   4.214597   2.894628   2.892486   4.245639
    22  H    5.430432   4.473149   3.147718   2.999988   4.308735
    23  H    6.988593   6.574589   5.303669   4.271608   4.895554
    24  H    7.186839   6.863042   5.605333   4.462551   4.954113
    25  H    6.946307   6.223751   4.878208   4.243317   5.254696
    26  H    7.430936   6.607622   5.218822   4.680920   5.796960
    27  H    5.097556   5.104953   4.106850   2.723431   2.711862
    28  C    3.199613   4.456627   4.985383   4.530721   3.275848
    29  H    3.681539   4.739581   5.005024   4.356095   3.147550
    30  H    4.093322   5.420936   5.989392   5.485439   4.154592
    31  H    3.002557   4.224666   4.970041   4.804433   3.749836
                    6          7          8          9         10
     6  C    0.000000
     7  O    1.378030   0.000000
     8  H    3.425588   4.578912   0.000000
     9  H    3.879348   5.256538   2.438421   0.000000
    10  H    2.110622   2.577219   4.971381   4.343226   0.000000
    11  O    2.346332   2.690771   2.728157   4.562256   4.456475
    12  C    3.682480   4.129639   2.555414   4.878637   5.763805
    13  H    4.041251   4.628501   2.358043   4.667726   6.023957
    14  H    4.054809   4.658451   2.357510   4.686934   6.050932
    15  H    4.365223   4.505130   3.641809   5.964396   6.475502
    16  C    3.766788   4.895412   4.608175   2.690338   2.777934
    17  C    5.063753   6.289692   5.020217   2.654410   4.283889
    18  N    4.332070   5.204977   5.809216   3.996565   2.713968
    19  C    5.794388   6.676350   6.938252   4.829224   4.159732
    20  C    6.154131   7.244991   6.528261   4.185084   4.919536
    21  H    5.228786   6.522718   4.667767   2.301626   4.764956
    22  H    5.350597   6.598077   4.967065   2.632385   4.754087
    23  H    6.240427   7.069046   7.400549   5.321695   4.596518
    24  H    6.328488   7.084497   7.742174   5.698893   4.518000
    25  H    6.511742   7.585077   6.866046   4.575679   5.290088
    26  H    7.065395   8.178666   7.184712   4.774780   5.870600
    27  H    4.052959   4.689790   6.120288   4.623942   2.122662
    28  C    2.380419   1.445189   5.262062   6.042067   3.336698
    29  H    2.685352   2.093144   5.622113   6.017522   3.006661
    30  H    3.271041   2.037024   6.196162   7.060304   4.051969
    31  H    2.674262   2.101967   4.860038   5.973733   4.063302
                   11         12         13         14         15
    11  O    0.000000
    12  C    1.440530   0.000000
    13  H    2.092762   1.094850   0.000000
    14  H    2.093280   1.094863   1.799629   0.000000
    15  H    2.021133   1.090654   1.789931   1.790064   0.000000
    16  C    5.613770   6.498312   6.474701   6.513792   7.478930
    17  C    6.611024   7.266949   7.124855   7.151106   8.315286
    18  N    6.452196   7.489445   7.516252   7.580606   8.406250
    19  C    7.857469   8.820908   8.782641   8.856547   9.775863
    20  C    7.939045   8.701298   8.611001   8.586289   9.727654
    21  H    6.515786   7.026175   6.929703   6.752916   8.094079
    22  H    6.720932   7.271838   6.966314   7.237617   8.327893
    23  H    8.291166   9.252970   9.115683   9.388935  10.194818
    24  H    8.487987   9.523176   9.578926   9.529826  10.445517
    25  H    8.273432   9.025331   9.037586   8.798723  10.045196
    26  H    8.770354   9.456658   9.268698   9.351344  10.502184
    27  H    6.322737   7.493483   7.590862   7.680000   8.327123
    28  C    3.220659   4.555746   5.311174   4.884798   4.773035
    29  H    3.997964   5.318658   6.064069   5.494693   5.654943
    30  H    3.903261   5.192038   5.945027   5.634233   5.216775
    31  H    2.744160   3.893290   4.790386   4.093097   4.040369
                   16         17         18         19         20
    16  C    0.000000
    17  C    1.507739   0.000000
    18  N    1.308363   2.298034   0.000000
    19  C    2.350648   2.431483   1.474844   0.000000
    20  C    2.402534   1.544182   2.344537   1.536487   0.000000
    21  H    2.167803   1.092656   3.141778   3.343275   2.217526
    22  H    2.121884   1.098886   2.914991   2.992292   2.208073
    23  H    2.960444   3.001557   2.096740   1.095878   2.211456
    24  H    3.157511   3.333475   2.108249   1.092303   2.221253
    25  H    2.949384   2.175508   2.894620   2.169182   1.094580
    26  H    3.304372   2.204716   3.247797   2.192695   1.091998
    27  H    2.055436   3.280012   1.017629   2.180912   3.316304
    28  C    5.679511   7.052957   5.939340   7.381896   7.920354
    29  H    5.315906   6.688862   5.443202   6.823117   7.396652
    30  H    6.590860   8.010403   6.731370   8.161042   8.820887
    31  H    6.059281   7.315420   6.509288   7.947179   8.301724
                   21         22         23         24         25
    21  H    0.000000
    22  H    1.766280   0.000000
    23  H    4.034071   3.198631   0.000000
    24  H    4.093182   4.024465   1.779528   0.000000
    25  H    2.393891   3.050375   3.051192   2.391261   0.000000
    26  H    2.815857   2.422032   2.424059   2.834769   1.773529
    27  H    4.075651   3.829383   2.594196   2.492475   3.787134
    28  C    7.154164   7.526152   7.918248   7.631736   8.079227
    29  H    6.788867   7.296980   7.446604   6.946384   7.450315
    30  H    8.176692   8.455424   8.630286   8.361699   9.006678
    31  H    7.262081   7.780695   8.545442   8.246267   8.405290
                   26         27         28         29         30
    26  H    0.000000
    27  H    4.189115   0.000000
    28  C    8.930289   5.402629   0.000000
    29  H    8.446114   4.886570   1.096345   0.000000
    30  H    9.822405   6.086410   1.092104   1.791512   0.000000
    31  H    9.309317   6.106278   1.095343   1.795468   1.790234
                   31
    31  H    0.000000
 Stoichiometry    C12H16NO2(1+)
 Framework group  C1[X(C12H16NO2)]
 Deg. of freedom    87
 Full point group                 C1      NOp   1
 RotChk:  IX=0 Diff= 8.98D-04
 Largest Abelian subgroup         C1      NOp   1
 Largest concise Abelian subgroup C1      NOp   1
                         Standard orientation:                         
 ---------------------------------------------------------------------
 Center     Atomic      Atomic             Coordinates (Angstroms)
 Number     Number       Type             X           Y           Z
 ---------------------------------------------------------------------
      1          6           0        2.064158   -0.515236   -0.102116
      2          6           0        1.237649   -1.636047    0.069649
      3          6           0       -0.144391   -1.484939    0.101447
      4          6           0       -0.743611   -0.218297   -0.047161
      5          6           0        0.098536    0.908692   -0.213243
      6          6           0        1.471870    0.769968   -0.234309
      7          8           0        2.273259    1.869525   -0.452754
      8          1           0        1.667078   -2.625536    0.174470
      9          1           0       -0.757293   -2.370542    0.231925
     10          1           0       -0.300425    1.912549   -0.324871
     11          8           0        3.408516   -0.552744   -0.162828
     12          6           0        4.081854   -1.821673   -0.055307
     13          1           0        3.777247   -2.487982   -0.868906
     14          1           0        3.878606   -2.283779    0.916224
     15          1           0        5.143790   -1.588785   -0.142369
     16          6           0       -2.186133   -0.107005   -0.037763
     17          6           0       -3.157695   -1.238434    0.184074
     18          7           0       -2.854216    0.996563   -0.255977
     19          6           0       -4.321921    0.851793   -0.249100
     20          6           0       -4.510265   -0.526441    0.403428
     21          1           0       -2.860993   -1.873387    1.022346
     22          1           0       -3.159548   -1.865258   -0.718500
     23          1           0       -4.678319    0.892294   -1.284614
     24          1           0       -4.767488    1.677874    0.309636
     25          1           0       -4.699899   -0.409079    1.475048
     26          1           0       -5.345319   -1.075723   -0.036383
     27          1           0       -2.416347    1.884452   -0.491546
     28          6           0        2.809675    2.479464    0.742572
     29          1           0        1.995110    2.857919    1.371242
     30          1           0        3.432995    3.309270    0.402591
     31          1           0        3.417764    1.764459    1.307172
 ---------------------------------------------------------------------
 Rotational constants (GHZ):           1.2834944           0.3045123           0.2528147
 Leave Link  202 at Tue Jul 28 03:20:46 2026, MaxMem=  4026531840 cpu:               0.0 elap:               0.0
 (Enter /opt/packages/gaussian/g16RevC.01/g16/l301.exe)
 Standard basis: 6-31+G(d) (6D, 7F)
 Ernie: Thresh=  0.10000D-02 Tol=  0.10000D-05 Strict=F.
 There are   317 symmetry adapted cartesian basis functions of A   symmetry.
 There are   317 symmetry adapted basis functions of A   symmetry.
   317 basis functions,   544 primitive gaussians,   317 cartesian basis functions
    55 alpha electrons       55 beta electrons
       nuclear repulsion energy       980.2809264435 Hartrees.
 IExCor=  402 DFT=T Ex+Corr=B3LYP ExCW=0 ScaHFX=  0.200000
 ScaDFX=  0.800000  0.720000  1.000000  0.810000 ScalE2=  1.000000  1.000000
 IRadAn=      5 IRanWt=     -1 IRanGd=            0 ICorTp=0 IEmpDi=  4
 NAtoms=   31 NActive=   31 NUniq=   31 SFac= 1.00D+00 NAtFMM=   60 NAOKFM=F Big=F
 Integral buffers will be    131072 words long.
 Raffenetti 2 integral format.
 Two-electron integral symmetry is turned on.
 ------------------------------------------------------------------------------
 Polarizable Continuum Model (PCM)
 =================================
 Model                : PCM.
 Atomic radii         : SMD-Coulomb.
 Polarization charges : Total charges.
 Charge compensation  : None.
 Solution method      : On-the-fly selection.
 Cavity type          : VdW (van der Waals Surface) (Alpha=1.000).
 Cavity algorithm     : GePol (No added spheres)
                        Default sphere list used, NSphG=   31.
                        Lebedev-Laikov grids with approx.  5.0 points / Ang**2.
                        Smoothing algorithm: York/Karplus (Gamma=1.0000).
                        Polarization charges: spherical gaussians, with
                                              point-specific exponents (IZeta= 3).
                        Self-potential: point-specific (ISelfS= 7).
                        Self-field    : sphere-specific E.n sum rule (ISelfD= 2).
 1st derivatives      : Analytical E(r).r(x)/FMM algorithm (CHGder, D1EAlg=3).
                        Cavity 1st derivative terms included.
 Solvent              : Methanol, Eps=  32.613000 Eps(inf)=   1.765709
 ------------------------------------------------------------------------------
 GePol: Number of generator spheres                  =      31
 GePol: Total number of spheres                      =      31
 GePol: Number of exposed spheres                    =      31 (100.00%)
 GePol: Number of points                             =    2260
 GePol: Average weight of points                     =       0.11
 GePol: Minimum weight of points                     =   0.13D-11
 GePol: Maximum weight of points                     =    0.21991
 GePol: Number of points with low weight             =     132
 GePol: Fraction of low-weight points (<1% of avg)   =       5.84%
 GePol: Cavity surface area                          =    247.486 Ang**2
 GePol: Cavity volume                                =    218.483 Ang**3
 ------------------------------------------------------------------------------
 Atomic radii for non-electrostatic terms: SMD-CDS.
 ------------------------------------------------------------------------------
 PCM non-electrostatic energy =         0.0015827243 Hartrees.
 Nuclear repulsion after PCM non-electrostatic terms =      980.2825091678 Hartrees.
 Leave Link  301 at Tue Jul 28 03:20:46 2026, MaxMem=  4026531840 cpu:               0.4 elap:               0.1
 (Enter /opt/packages/gaussian/g16RevC.01/g16/l302.exe)
 NPDir=0 NMtPBC=     1 NCelOv=     1 NCel=       1 NClECP=     1 NCelD=      1
         NCelK=      1 NCelE2=     1 NClLst=     1 CellRange=     0.0.
 One-electron integrals computed using PRISM.
 One-electron integral symmetry used in STVInt
 NBasis=   317 RedAO= T EigKep=  1.42D-06  NBF=   317
 NBsUse=   315 1.00D-06 EigRej=  7.82D-07 NBFU=   315
 Precomputing XC quadrature grid using
 IXCGrd= 4 IRadAn=           5 IRanWt=          -1 IRanGd=           0 AccXCQ= 0.00D+00.
 Generated NRdTot=       0 NPtTot=           0 NUsed=           0 NTot=          32
 NSgBfM=   316   316   316   316   316 MxSgAt=    31 MxSgA2=    31.
 Leave Link  302 at Tue Jul 28 03:20:46 2026, MaxMem=  4026531840 cpu:               1.7 elap:               0.2
 (Enter /opt/packages/gaussian/g16RevC.01/g16/l303.exe)
 DipDrv:  MaxL=1.
 Leave Link  303 at Tue Jul 28 03:20:46 2026, MaxMem=  4026531840 cpu:               0.2 elap:               0.0
 (Enter /opt/packages/gaussian/g16RevC.01/g16/l401.exe)
 Initial guess from the checkpoint file:  "dmp_s0_opt.chk"
 B after Tr=    -0.000000   -0.000000    0.000000
         Rot=    1.000000   -0.000184   -0.000075    0.000169 Ang=  -0.03 deg.
 Guess basis will be translated and rotated to current coordinates.
 JPrj=2 DoOrth=T DoCkMO=T.
 Leave Link  401 at Tue Jul 28 03:20:46 2026, MaxMem=  4026531840 cpu:               0.6 elap:               0.1
 (Enter /opt/packages/gaussian/g16RevC.01/g16/l502.exe)
 Integral symmetry usage will be decided dynamically.
 Closed shell SCF:
 Using DIIS extrapolation, IDIIS=  1040.
 NGot=  4026531840 LenX=  4026324160 LenY=  4026223230
 Requested convergence on RMS density matrix=1.00D-08 within 128 cycles.
 Requested convergence on MAX density matrix=1.00D-06.
 Requested convergence on             energy=1.00D-06.
 No special actions if energy rises.
 Fock matrices will be formed incrementally for  20 cycles.

 Cycle   1  Pass 1  IDiag  1:
 FoFJK:  IHMeth= 1 ICntrl=       0 DoSepK=F KAlg= 0 I1Cent=           0 FoldK=F
 IRaf= 870000000 NMat=       1 IRICut=       1 DoRegI=T DoRafI=F ISym2E= 0 IDoP0=0 IntGTp=1.
 FoFCou: FMM=F IPFlag=           0 FMFlag=      100000 FMFlg1=           0
         NFxFlg=           0 DoJE=F BraDBF=F KetDBF=F FulRan=T
         wScrn=  0.000000 ICntrl=         0 IOpCl=  0 I1Cent=           0 NGrid=           0
         NMat0=    1 NMatS0=      1 NMatT0=    0 NMatD0=    1 NMtDS0=    0 NMtDT0=    0
 Symmetry not used in FoFCou.
 Inv3:  Mode=1 IEnd=    15322800.
 Iteration    1 A*A^-1 deviation from unit magnitude is 2.89D-15 for      4.
 Iteration    1 A*A^-1 deviation from orthogonality  is 2.49D-15 for   1439    413.
 Iteration    1 A^-1*A deviation from unit magnitude is 3.11D-15 for   1379.
 Iteration    1 A^-1*A deviation from orthogonality  is 1.97D-15 for   1849    564.
 E= -671.981158378590    
 DIIS: error= 1.44D-04 at cycle   1 NSaved=   1.
 NSaved= 1 IEnMin= 1 EnMin= -671.981158378590     IErMin= 1 ErrMin= 1.44D-04
 ErrMax= 1.44D-04  0.00D+00 EMaxC= 1.00D-01 BMatC= 1.36D-05 BMatP= 1.36D-05
 IDIUse=3 WtCom= 9.99D-01 WtEn= 1.44D-03
 Coeff-Com:  0.100D+01
 Coeff-En:   0.100D+01
 Coeff:      0.100D+01
 Gap=     0.421 Goal=   None    Shift=    0.000
 RMSDP=3.41D-04 MaxDP=4.24D-02              OVMax= 1.76D-03

 Cycle   2  Pass 1  IDiag  1:
 RMSU=  3.12D-04    CP:  1.00D+00
 E= -671.981183574971     Delta-E=       -0.000025196380 Rises=F Damp=F
 DIIS: error= 1.76D-05 at cycle   2 NSaved=   2.
 NSaved= 2 IEnMin= 2 EnMin= -671.981183574971     IErMin= 2 ErrMin= 1.76D-05
 ErrMax= 1.76D-05  0.00D+00 EMaxC= 1.00D-01 BMatC= 1.55D-07 BMatP= 1.36D-05
 IDIUse=1 WtCom= 1.00D+00 WtEn= 0.00D+00
 Coeff-Com: -0.721D-01 0.107D+01
 Coeff:     -0.721D-01 0.107D+01
 Gap=     0.156 Goal=   None    Shift=    0.000
 RMSDP=3.47D-05 MaxDP=4.68D-03 DE=-2.52D-05 OVMax= 1.82D-04

 Cycle   3  Pass 1  IDiag  1:
 RMSU=  1.61D-05    CP:  1.00D+00  1.08D+00
 E= -671.981183793773     Delta-E=       -0.000000218803 Rises=F Damp=F
 DIIS: error= 7.17D-06 at cycle   3 NSaved=   3.
 NSaved= 3 IEnMin= 3 EnMin= -671.981183793773     IErMin= 3 ErrMin= 7.17D-06
 ErrMax= 7.17D-06  0.00D+00 EMaxC= 1.00D-01 BMatC= 5.61D-08 BMatP= 1.55D-07
 IDIUse=1 WtCom= 1.00D+00 WtEn= 0.00D+00
 Coeff-Com: -0.337D-01 0.452D+00 0.582D+00
 Coeff:     -0.337D-01 0.452D+00 0.582D+00
 Gap=     0.156 Goal=   None    Shift=    0.000
 RMSDP=7.55D-06 MaxDP=6.38D-04 DE=-2.19D-07 OVMax= 1.29D-04

 Cycle   4  Pass 1  IDiag  1:
 RMSU=  6.28D-06    CP:  1.00D+00  1.07D+00  8.53D-01
 E= -671.981183833247     Delta-E=       -0.000000039474 Rises=F Damp=F
 DIIS: error= 4.70D-06 at cycle   4 NSaved=   4.
 NSaved= 4 IEnMin= 4 EnMin= -671.981183833247     IErMin= 4 ErrMin= 4.70D-06
 ErrMax= 4.70D-06  0.00D+00 EMaxC= 1.00D-01 BMatC= 1.80D-08 BMatP= 5.61D-08
 IDIUse=1 WtCom= 1.00D+00 WtEn= 0.00D+00
 Coeff-Com: -0.784D-02 0.953D-01 0.362D+00 0.551D+00
 Coeff:     -0.784D-02 0.953D-01 0.362D+00 0.551D+00
 Gap=     0.156 Goal=   None    Shift=    0.000
 RMSDP=2.88D-06 MaxDP=1.60D-04 DE=-3.95D-08 OVMax= 6.04D-05

 Cycle   5  Pass 1  IDiag  1:
 RMSU=  2.21D-06    CP:  1.00D+00  1.07D+00  8.77D-01  8.84D-01
 E= -671.981183851358     Delta-E=       -0.000000018111 Rises=F Damp=F
 DIIS: error= 8.02D-07 at cycle   5 NSaved=   5.
 NSaved= 5 IEnMin= 5 EnMin= -671.981183851358     IErMin= 5 ErrMin= 8.02D-07
 ErrMax= 8.02D-07  0.00D+00 EMaxC= 1.00D-01 BMatC= 7.07D-10 BMatP= 1.80D-08
 IDIUse=1 WtCom= 1.00D+00 WtEn= 0.00D+00
 Coeff-Com: -0.182D-02 0.185D-01 0.139D+00 0.270D+00 0.574D+00
 Coeff:     -0.182D-02 0.185D-01 0.139D+00 0.270D+00 0.574D+00
 Gap=     0.156 Goal=   None    Shift=    0.000
 RMSDP=9.55D-07 MaxDP=6.24D-05 DE=-1.81D-08 OVMax= 1.01D-05

 Cycle   6  Pass 1  IDiag  1:
 RMSU=  5.74D-07    CP:  1.00D+00  1.07D+00  9.02D-01  8.97D-01  8.14D-01
 E= -671.981183852067     Delta-E=       -0.000000000709 Rises=F Damp=F
 DIIS: error= 2.30D-07 at cycle   6 NSaved=   6.
 NSaved= 6 IEnMin= 6 EnMin= -671.981183852067     IErMin= 6 ErrMin= 2.30D-07
 ErrMax= 2.30D-07  0.00D+00 EMaxC= 1.00D-01 BMatC= 5.84D-11 BMatP= 7.07D-10
 IDIUse=1 WtCom= 1.00D+00 WtEn= 0.00D+00
 Coeff-Com:  0.564D-05-0.274D-02 0.246D-01 0.651D-01 0.267D+00 0.646D+00
 Coeff:      0.564D-05-0.274D-02 0.246D-01 0.651D-01 0.267D+00 0.646D+00
 Gap=     0.156 Goal=   None    Shift=    0.000
 RMSDP=1.86D-07 MaxDP=1.23D-05 DE=-7.09D-10 OVMax= 2.59D-06

 Cycle   7  Pass 1  IDiag  1:
 RMSU=  1.21D-07    CP:  1.00D+00  1.07D+00  9.03D-01  9.08D-01  8.49D-01
                    CP:  9.77D-01
 E= -671.981183852119     Delta-E=       -0.000000000052 Rises=F Damp=F
 DIIS: error= 1.06D-07 at cycle   7 NSaved=   7.
 NSaved= 7 IEnMin= 7 EnMin= -671.981183852119     IErMin= 7 ErrMin= 1.06D-07
 ErrMax= 1.06D-07  0.00D+00 EMaxC= 1.00D-01 BMatC= 1.20D-11 BMatP= 5.84D-11
 IDIUse=1 WtCom= 1.00D+00 WtEn= 0.00D+00
 Coeff-Com:  0.165D-03-0.340D-02 0.221D-02 0.150D-01 0.112D+00 0.386D+00
 Coeff-Com:  0.488D+00
 Coeff:      0.165D-03-0.340D-02 0.221D-02 0.150D-01 0.112D+00 0.386D+00
 Coeff:      0.488D+00
 Gap=     0.156 Goal=   None    Shift=    0.000
 RMSDP=7.85D-08 MaxDP=7.38D-06 DE=-5.21D-11 OVMax= 1.13D-06

 Cycle   8  Pass 1  IDiag  1:
 RMSU=  3.84D-08    CP:  1.00D+00  1.07D+00  9.03D-01  9.13D-01  8.66D-01
                    CP:  9.67D-01  7.31D-01
 E= -671.981183852134     Delta-E=       -0.000000000015 Rises=F Damp=F
 DIIS: error= 1.65D-08 at cycle   8 NSaved=   8.
 NSaved= 8 IEnMin= 8 EnMin= -671.981183852134     IErMin= 8 ErrMin= 1.65D-08
 ErrMax= 1.65D-08  0.00D+00 EMaxC= 1.00D-01 BMatC= 2.76D-13 BMatP= 1.20D-11
 IDIUse=1 WtCom= 1.00D+00 WtEn= 0.00D+00
 Coeff-Com:  0.652D-04-0.121D-02-0.562D-03 0.244D-02 0.310D-01 0.124D+00
 Coeff-Com:  0.205D+00 0.640D+00
 Coeff:      0.652D-04-0.121D-02-0.562D-03 0.244D-02 0.310D-01 0.124D+00
 Coeff:      0.205D+00 0.640D+00
 Gap=     0.156 Goal=   None    Shift=    0.000
 RMSDP=3.24D-08 MaxDP=2.93D-06 DE=-1.51D-11 OVMax= 2.39D-07

 Cycle   9  Pass 1  IDiag  1:
 RMSU=  1.21D-08    CP:  1.00D+00  1.07D+00  9.03D-01  9.16D-01  8.70D-01
                    CP:  9.85D-01  7.82D-01  1.04D+00
 E= -671.981183852117     Delta-E=        0.000000000017 Rises=F Damp=F
 DIIS: error= 7.29D-09 at cycle   9 NSaved=   9.
 NSaved= 9 IEnMin= 8 EnMin= -671.981183852134     IErMin= 9 ErrMin= 7.29D-09
 ErrMax= 7.29D-09  0.00D+00 EMaxC= 1.00D-01 BMatC= 4.84D-14 BMatP= 2.76D-13
 IDIUse=1 WtCom= 1.00D+00 WtEn= 0.00D+00
 Coeff-Com:  0.620D-05-0.513D-04-0.669D-03-0.116D-02-0.223D-02 0.527D-03
 Coeff-Com:  0.266D-01 0.322D+00 0.655D+00
 Coeff:      0.620D-05-0.513D-04-0.669D-03-0.116D-02-0.223D-02 0.527D-03
 Coeff:      0.266D-01 0.322D+00 0.655D+00
 Gap=     0.156 Goal=   None    Shift=    0.000
 RMSDP=5.73D-09 MaxDP=4.06D-07 DE= 1.74D-11 OVMax= 1.16D-07

 Error on total polarization charges =  0.05682
 SCF Done:  E(RB3LYP) =  -671.981183852     A.U. after    9 cycles
            NFock=  9  Conv=0.57D-08     -V/T= 2.0097
 KE= 6.654958952817D+02 PE=-3.505470524930D+03 EE= 1.187710936628D+03
 SMD-CDS (non-electrostatic) energy       (kcal/mol) =       0.99
 (included in total energy above)
 Leave Link  502 at Tue Jul 28 03:21:14 2026, MaxMem=  4026531840 cpu:             220.5 elap:              28.3
 (Enter /opt/packages/gaussian/g16RevC.01/g16/l701.exe)
 ... and contract with generalized density number  0.
 Compute integral first derivatives.
 D1PCM: PCM CHGder 1st derivatives, ID1Alg=3 FixD1E=F DoIter=F DoCFld=F I1PDM=0.
 GePol: Maximum number of non-zero 1st derivatives   =     259
 Leave Link  701 at Tue Jul 28 03:21:15 2026, MaxMem=  4026531840 cpu:               8.2 elap:               1.0
 (Enter /opt/packages/gaussian/g16RevC.01/g16/l702.exe)
 L702 exits ... SP integral derivatives will be done elsewhere.
 Leave Link  702 at Tue Jul 28 03:21:16 2026, MaxMem=  4026531840 cpu:               0.1 elap:               0.0
 (Enter /opt/packages/gaussian/g16RevC.01/g16/l703.exe)
 Integral derivatives from FoFJK, PRISM(SPDF).
 Compute integral first derivatives, UseDBF=F ICtDFT=           0.
 Calling FoFJK, ICntrl=      2127 FMM=F ISym2X=0 I1Cent= 0 IOpClX= 0 NMat=1 NMatS=1 NMatT=0.
 FoFJK:  IHMeth= 1 ICntrl=    2127 DoSepK=F KAlg= 0 I1Cent=           0 FoldK=F
 IRaf=         0 NMat=       1 IRICut=       1 DoRegI=T DoRafI=F ISym2E= 0 IDoP0=0 IntGTp=1.
 FoFCou: FMM=F IPFlag=           0 FMFlag=      100000 FMFlg1=         800
         NFxFlg=           0 DoJE=F BraDBF=F KetDBF=F FulRan=T
         wScrn=  0.000000 ICntrl=      2127 IOpCl=  0 I1Cent=           0 NGrid=           0
         NMat0=    1 NMatS0=      1 NMatT0=    0 NMatD0=    1 NMtDS0=    0 NMtDT0=    0
 Symmetry not used in FoFCou.
 Leave Link  703 at Tue Jul 28 03:21:23 2026, MaxMem=  4026531840 cpu:              59.0 elap:               7.4
 (Enter /opt/packages/gaussian/g16RevC.01/g16/l716.exe)
 Dipole        =-3.43280756D+00-5.62678304D-01 5.91476435D-01
 ***** Axes restored to original set *****
 -------------------------------------------------------------------
 Center     Atomic                   Forces (Hartrees/Bohr)
 Number     Number              X              Y              Z
 -------------------------------------------------------------------
      1        6           0.000045677   -0.000003192   -0.000013808
      2        6           0.000002867   -0.000014067    0.000003998
      3        6          -0.000034622    0.000009002   -0.000002027
      4        6           0.000043857   -0.000017942    0.000000445
      5        6          -0.000021822   -0.000008303    0.000017066
      6        6          -0.000019685    0.000022582    0.000000405
      7        8           0.000066669   -0.000017082    0.000004966
      8        1          -0.000011952   -0.000006353    0.000006704
      9        1          -0.000011294   -0.000003937    0.000006301
     10        1           0.000007926    0.000005311   -0.000006791
     11        8          -0.000005937   -0.000027422    0.000013118
     12        6          -0.000016716    0.000010643    0.000002702
     13        1          -0.000004092   -0.000014928    0.000005478
     14        1          -0.000003630   -0.000011035    0.000011541
     15        1           0.000000391   -0.000013887    0.000007454
     16        6          -0.000066086    0.000036788   -0.000001600
     17        6          -0.000000955    0.000006510   -0.000008880
     18        7           0.000016067   -0.000024762    0.000005980
     19        6           0.000023027    0.000018654   -0.000010182
     20        6           0.000006675    0.000009687    0.000001458
     21        1           0.000001365    0.000003478    0.000003080
     22        1           0.000003673   -0.000003779    0.000001164
     23        1          -0.000001407    0.000017826   -0.000009280
     24        1           0.000000870    0.000015206   -0.000007292
     25        1          -0.000011547    0.000010591   -0.000001708
     26        1          -0.000007631    0.000012208   -0.000001093
     27        1           0.000005615    0.000012305   -0.000012491
     28        6          -0.000034157   -0.000004250   -0.000018972
     29        1           0.000005957    0.000000312    0.000002967
     30        1           0.000010608   -0.000004816   -0.000004365
     31        1           0.000010289   -0.000015348    0.000003662
 -------------------------------------------------------------------
 Cartesian Forces:  Max     0.000066669 RMS     0.000016957
 Leave Link  716 at Tue Jul 28 03:21:23 2026, MaxMem=  4026531840 cpu:               0.1 elap:               0.0
 (Enter /opt/packages/gaussian/g16RevC.01/g16/l103.exe)

 GradGradGradGradGradGradGradGradGradGradGradGradGradGradGradGradGradGrad
 Berny optimization.
 Using GEDIIS/GDIIS optimizer.
 FormGI is forming the generalized inverse of G from B-inverse, IUseBI=4.
 Internal  Forces:  Max     0.000032106 RMS     0.000008188
 Search for a local minimum.
 Step number   9 out of a maximum of  170
 All quantities printed in internal units (Hartrees-Bohrs-Radians)
 RMS Force = .81879D-05 SwitMx=.10000D-02 MixMth= 2
 Mixed Optimization -- En-DIIS/RFO-DIIS
 Swapping is turned off.
 Update second derivatives using D2CorX and points    1    2    3    4    5
                                                      6    7    8    9
 DE= -4.12D-07 DEPred=-3.31D-07 R= 1.24D+00
 Trust test= 1.24D+00 RLast= 1.38D-02 DXMaxT set to 5.00D-02
 ITU=  0 -1 -1 -1  0  1  1  1  0
     Eigenvalues ---    0.00220   0.00611   0.01127   0.01210   0.01274
     Eigenvalues ---    0.01332   0.01442   0.01816   0.01861   0.02016
     Eigenvalues ---    0.02086   0.02146   0.02163   0.02189   0.02193
     Eigenvalues ---    0.02218   0.02272   0.02453   0.03379   0.03617
     Eigenvalues ---    0.04987   0.05242   0.05597   0.05872   0.06938
     Eigenvalues ---    0.07513   0.08444   0.08529   0.09404   0.10146
     Eigenvalues ---    0.10191   0.10632   0.10744   0.10996   0.13590
     Eigenvalues ---    0.15929   0.15953   0.15984   0.16000   0.16000
     Eigenvalues ---    0.16029   0.16059   0.16146   0.16410   0.21514
     Eigenvalues ---    0.22351   0.22974   0.23460   0.24114   0.24351
     Eigenvalues ---    0.24874   0.25006   0.25578   0.27854   0.27963
     Eigenvalues ---    0.29361   0.31322   0.32456   0.33715   0.33997
     Eigenvalues ---    0.34232   0.34332   0.34368   0.34375   0.34461
     Eigenvalues ---    0.34553   0.34690   0.34720   0.34727   0.34806
     Eigenvalues ---    0.34990   0.35436   0.35502   0.36253   0.37222
     Eigenvalues ---    0.38966   0.40866   0.41280   0.42742   0.44920
     Eigenvalues ---    0.46213   0.46765   0.47926   0.50108   0.51164
     Eigenvalues ---    0.60782   0.65204
 En-DIIS/RFO-DIIS/Sim-DIIS IScMMF=       -3 using points:     9    8    7    6    5    4    3    2
 RFO step:  Lambda=-6.19966616D-07.
 NNeg= 0 NGDIIS= 8 SimSw=  2.50D-03 Rises=F DC= -4.12D-07 SmlDif=  1.00D-05
 NRisDI= 0 DoIntr=F SqrtH=F CThrHd= 10.0 CDAdj=  3.0
 RMS Error=  0.1213736455D-02 NUsed= 8 OKEnD=F EnDIS=F
 InvSVX:  RCond= 2.68D-11 Info=           0 Equed=N FErr=  2.81D-09 BErr=  6.11D-17
 DIIS inversion failure, remove point   8.
 InvSVX:  RCond= 3.11D-11 Info=           0 Equed=N FErr=  2.54D-09 BErr=  1.67D-16
 DIIS inversion failure, remove point   7.
 InvSVX:  RCond= 3.62D-11 Info=           0 Equed=N FErr=  2.21D-09 BErr=  4.54D-17
 DIIS inversion failure, remove point   6.
 InvSVX:  RCond= 4.35D-11 Info=           0 Equed=N FErr=  2.06D-09 BErr=  9.31D-17
 DIIS inversion failure, remove point   5.
 InvSVX:  RCond= 1.36D-08 Info=           0 Equed=N FErr=  5.02D-12 BErr=  7.99D-17
 DIIS inversion failure, remove point   4.
 InvSVX:  RCond= 3.52D-07 Info=           0 Equed=N FErr=  6.31D-14 BErr=  5.94D-17
 RFO-DIIS uses    3 points instead of    8
 DidBck=T Rises=F RFO-DIIS coefs:    0.55378    1.91158   -1.46536    0.00000    0.00000
                  RFO-DIIS coefs:    0.00000    0.00000    0.00000
 Iteration  1 RMS(Cart)=  0.00383787 RMS(Int)=  0.00001056
 Iteration  2 RMS(Cart)=  0.00001471 RMS(Int)=  0.00000003
 Iteration  3 RMS(Cart)=  0.00000000 RMS(Int)=  0.00000003
 ITry= 1 IFail=0 DXMaxC= 2.10D-02 DCOld= 1.00D+10 DXMaxT= 5.00D-02 DXLimC= 3.00D+00 Rises=F
 Variable       Old X    -DE/DX   Delta X   Delta X   Delta X     New X
                                 (Linear)    (Quad)   (Total)
    R1        2.65157   0.00003   0.00002   0.00007   0.00009   2.65166
    R2        2.68582   0.00002  -0.00002   0.00002   0.00001   2.68583
    R3        2.54405  -0.00001  -0.00005   0.00002  -0.00003   2.54401
    R4        2.62793   0.00002   0.00007   0.00000   0.00007   2.62800
    R5        2.04796  -0.00000   0.00001  -0.00001   0.00000   2.04797
    R6        2.66279  -0.00001  -0.00011   0.00007  -0.00005   2.66274
    R7        2.05013   0.00001   0.00002   0.00000   0.00003   2.05015
    R8        2.67708   0.00000  -0.00004  -0.00001  -0.00004   2.67704
    R9        2.73413   0.00003   0.00022  -0.00007   0.00015   2.73428
   R10        2.60874   0.00002   0.00002   0.00002   0.00004   2.60877
   R11        2.05221   0.00000  -0.00002   0.00005   0.00003   2.05224
   R12        2.60410   0.00001   0.00010   0.00001   0.00011   2.60421
   R13        2.73101  -0.00002  -0.00024   0.00009  -0.00015   2.73086
   R14        2.72221  -0.00002  -0.00026   0.00013  -0.00013   2.72208
   R15        2.06897   0.00000   0.00003  -0.00001   0.00002   2.06899
   R16        2.06899   0.00000   0.00004  -0.00002   0.00003   2.06902
   R17        2.06104   0.00000   0.00002   0.00000   0.00002   2.06106
   R18        2.84921  -0.00000  -0.00012   0.00006  -0.00006   2.84915
   R19        2.47245  -0.00003  -0.00012  -0.00000  -0.00013   2.47232
   R20        2.91808   0.00001   0.00004   0.00004   0.00009   2.91817
   R21        2.06482   0.00001   0.00006  -0.00001   0.00005   2.06487
   R22        2.07659   0.00000  -0.00001   0.00000  -0.00001   2.07658
   R23        2.78705  -0.00001  -0.00008  -0.00000  -0.00008   2.78697
   R24        1.92304   0.00001   0.00001   0.00003   0.00004   1.92308
   R25        2.90354   0.00002   0.00016   0.00001   0.00017   2.90371
   R26        2.07091   0.00001  -0.00001   0.00001   0.00000   2.07091
   R27        2.06415   0.00000   0.00003   0.00000   0.00003   2.06418
   R28        2.06846   0.00000  -0.00001   0.00000  -0.00001   2.06844
   R29        2.06358   0.00000   0.00000   0.00001   0.00001   2.06359
   R30        2.07179   0.00000   0.00002  -0.00001   0.00001   2.07180
   R31        2.06378   0.00001   0.00003  -0.00000   0.00002   2.06380
   R32        2.06990   0.00001   0.00013  -0.00001   0.00013   2.07003
    A1        2.08085  -0.00001  -0.00006  -0.00001  -0.00008   2.08077
    A2        2.17910   0.00001  -0.00001   0.00007   0.00006   2.17916
    A3        2.02322  -0.00000   0.00008  -0.00006   0.00002   2.02323
    A4        2.09601   0.00000   0.00000   0.00001   0.00002   2.09603
    A5        2.10337   0.00000   0.00005   0.00001   0.00006   2.10342
    A6        2.08380  -0.00001  -0.00005  -0.00002  -0.00007   2.08373
    A7        2.11518  -0.00000  -0.00001  -0.00001  -0.00002   2.11516
    A8        2.06633   0.00000  -0.00002   0.00001  -0.00001   2.06632
    A9        2.10160   0.00000   0.00003   0.00000   0.00003   2.10163
   A10        2.06539   0.00001   0.00007  -0.00001   0.00006   2.06545
   A11        2.08569  -0.00001  -0.00013   0.00017   0.00004   2.08573
   A12        2.13206  -0.00000   0.00005  -0.00016  -0.00010   2.13196
   A13        2.10974   0.00000  -0.00008   0.00003  -0.00005   2.10970
   A14        2.12825   0.00000   0.00012  -0.00012  -0.00000   2.12825
   A15        2.04518  -0.00001  -0.00004   0.00009   0.00005   2.04523
   A16        2.09904  -0.00000   0.00009  -0.00001   0.00008   2.09912
   A17        2.08739  -0.00002  -0.00060  -0.00001  -0.00061   2.08678
   A18        2.09529   0.00002   0.00054   0.00002   0.00056   2.09584
   A19        2.00590  -0.00001  -0.00018  -0.00007  -0.00025   2.00565
   A20        2.08053   0.00002  -0.00003   0.00008   0.00005   2.08058
   A21        1.92898   0.00000   0.00010  -0.00004   0.00006   1.92904
   A22        1.92970   0.00000   0.00009  -0.00005   0.00005   1.92975
   A23        1.83492  -0.00000   0.00007  -0.00006   0.00001   1.83493
   A24        1.92932   0.00000  -0.00011   0.00008  -0.00003   1.92930
   A25        1.91934  -0.00000  -0.00007   0.00003  -0.00004   1.91930
   A26        1.91953  -0.00000  -0.00007   0.00002  -0.00005   1.91948
   A27        2.19653  -0.00001  -0.00029   0.00020  -0.00009   2.19644
   A28        2.18083  -0.00000   0.00012  -0.00021  -0.00009   2.18074
   A29        1.90546   0.00002   0.00017   0.00001   0.00019   1.90565
   A30        1.81246  -0.00001   0.00010  -0.00002   0.00009   1.81255
   A31        1.95409   0.00000  -0.00032   0.00008  -0.00024   1.95385
   A32        1.88419   0.00000   0.00018  -0.00005   0.00014   1.88433
   A33        1.97883   0.00001  -0.00004  -0.00002  -0.00006   1.97878
   A34        1.95865   0.00001   0.00026  -0.00002   0.00023   1.95889
   A35        1.87456  -0.00001  -0.00017   0.00002  -0.00015   1.87441
   A36        2.00930   0.00000   0.00010  -0.00001   0.00010   2.00939
   A37        2.15896   0.00000   0.00009  -0.00010  -0.00001   2.15894
   A38        2.11172  -0.00000  -0.00019   0.00010  -0.00009   2.11163
   A39        1.78444  -0.00000   0.00012   0.00001   0.00012   1.78456
   A40        1.89189   0.00000   0.00001   0.00003   0.00004   1.89193
   A41        1.91144   0.00000  -0.00008   0.00003  -0.00006   1.91138
   A42        1.97641   0.00000   0.00019  -0.00004   0.00015   1.97656
   A43        1.99450   0.00000  -0.00012  -0.00000  -0.00012   1.99438
   A44        1.89941  -0.00000  -0.00010  -0.00002  -0.00012   1.89930
   A45        1.81924  -0.00000   0.00020  -0.00000   0.00020   1.81944
   A46        1.91799   0.00000   0.00009   0.00000   0.00009   1.91808
   A47        1.96132   0.00000  -0.00008   0.00001  -0.00006   1.96126
   A48        1.91861   0.00000   0.00008  -0.00003   0.00005   1.91866
   A49        1.95400   0.00000  -0.00015   0.00003  -0.00011   1.95388
   A50        1.89205  -0.00000  -0.00013  -0.00002  -0.00015   1.89191
   A51        1.92218   0.00001   0.00036  -0.00004   0.00032   1.92250
   A52        1.84943  -0.00000   0.00012  -0.00007   0.00005   1.84948
   A53        1.93574  -0.00000  -0.00018  -0.00006  -0.00025   1.93549
   A54        1.91801  -0.00000  -0.00008   0.00005  -0.00003   1.91799
   A55        1.92009  -0.00000  -0.00017   0.00007  -0.00010   1.91999
   A56        1.91728   0.00000  -0.00004   0.00005   0.00002   1.91730
    D1        0.00647  -0.00000  -0.00043  -0.00008  -0.00051   0.00597
    D2       -3.13955   0.00000  -0.00002  -0.00012  -0.00014  -3.13969
    D3       -3.12726  -0.00000  -0.00093   0.00016  -0.00077  -3.12803
    D4        0.00991  -0.00000  -0.00052   0.00011  -0.00040   0.00951
    D5       -0.01641   0.00000   0.00042   0.00008   0.00051  -0.01591
    D6       -3.09992  -0.00000  -0.00009   0.00014   0.00005  -3.09986
    D7        3.11800   0.00000   0.00088  -0.00013   0.00075   3.11875
    D8        0.03450   0.00000   0.00037  -0.00007   0.00030   0.03479
    D9        0.00710   0.00000   0.00064  -0.00014   0.00051   0.00761
   D10       -3.12686   0.00000   0.00016   0.00009   0.00025  -3.12661
   D11        0.00898   0.00000   0.00011   0.00001   0.00012   0.00910
   D12        3.13768   0.00000   0.00031  -0.00001   0.00030   3.13799
   D13       -3.12824  -0.00000  -0.00030   0.00006  -0.00024  -3.12848
   D14        0.00047   0.00000  -0.00010   0.00004  -0.00006   0.00041
   D15       -0.01439   0.00000   0.00021   0.00005   0.00026  -0.01413
   D16        3.11794   0.00000   0.00026  -0.00008   0.00018   3.11813
   D17        3.14035  -0.00000   0.00001   0.00007   0.00008   3.14043
   D18       -0.01050  -0.00000   0.00006  -0.00006  -0.00000  -0.01051
   D19        0.00431  -0.00000  -0.00022  -0.00004  -0.00026   0.00405
   D20       -3.13297  -0.00000  -0.00029  -0.00010  -0.00039  -3.13335
   D21       -3.12776  -0.00000  -0.00026   0.00009  -0.00018  -3.12794
   D22        0.01815  -0.00000  -0.00034   0.00003  -0.00031   0.01784
   D23        0.05259  -0.00000   0.00021   0.00005   0.00026   0.05285
   D24       -3.05721   0.00000   0.00021  -0.00008   0.00012  -3.05709
   D25       -3.09863   0.00000   0.00026  -0.00008   0.00018  -3.09845
   D26        0.07476   0.00000   0.00025  -0.00021   0.00004   0.07480
   D27        0.01096  -0.00000  -0.00010  -0.00002  -0.00012   0.01084
   D28        3.09420   0.00000   0.00038  -0.00008   0.00029   3.09450
   D29       -3.13475   0.00000  -0.00003   0.00003   0.00000  -3.13475
   D30       -0.05151   0.00000   0.00045  -0.00003   0.00042  -0.05109
   D31       -1.49697  -0.00003  -0.00874  -0.00022  -0.00895  -1.50593
   D32        1.70258  -0.00003  -0.00923  -0.00016  -0.00939   1.69319
   D33       -1.09152   0.00000   0.00065   0.00001   0.00065  -1.09087
   D34        3.11811  -0.00000   0.00048   0.00001   0.00049   3.11860
   D35        1.03818   0.00000   0.00055   0.00002   0.00057   1.03876
   D36        1.06171   0.00000  -0.00037   0.00003  -0.00034   1.06137
   D37       -1.08024  -0.00000  -0.00037  -0.00001  -0.00038  -1.08062
   D38        3.13203  -0.00000  -0.00037   0.00002  -0.00035   3.13168
   D39        2.93056  -0.00000   0.00081  -0.00001   0.00080   2.93136
   D40        0.78927  -0.00000   0.00097  -0.00002   0.00094   0.79022
   D41       -1.27048   0.00000   0.00124  -0.00006   0.00118  -1.26930
   D42       -0.23862  -0.00000   0.00081   0.00010   0.00091  -0.23770
   D43       -2.37991  -0.00000   0.00097   0.00009   0.00106  -2.37885
   D44        1.84352   0.00000   0.00124   0.00005   0.00129   1.84481
   D45        3.09963  -0.00000   0.00012  -0.00002   0.00010   3.09973
   D46        0.04360   0.00000   0.00018   0.00002   0.00019   0.04379
   D47       -0.01468   0.00000   0.00013  -0.00014  -0.00001  -0.01469
   D48       -3.07071   0.00000   0.00018  -0.00010   0.00008  -3.07063
   D49        0.38156  -0.00000  -0.00139  -0.00004  -0.00142   0.38014
   D50       -1.67371  -0.00000  -0.00163   0.00000  -0.00163  -1.67534
   D51        2.50105   0.00000  -0.00148   0.00001  -0.00147   2.49959
   D52        2.50645  -0.00000  -0.00174   0.00005  -0.00169   2.50476
   D53        0.45118  -0.00000  -0.00198   0.00008  -0.00190   0.44928
   D54       -1.65724  -0.00000  -0.00183   0.00009  -0.00174  -1.65898
   D55       -1.64895  -0.00000  -0.00179   0.00004  -0.00175  -1.65070
   D56        2.57896  -0.00000  -0.00203   0.00008  -0.00196   2.57701
   D57        0.47054   0.00000  -0.00188   0.00009  -0.00179   0.46875
   D58        0.26094   0.00000  -0.00102   0.00012  -0.00090   0.26004
   D59       -1.83076  -0.00000  -0.00130   0.00015  -0.00115  -1.83192
   D60        2.38240  -0.00000  -0.00114   0.00013  -0.00100   2.38140
   D61       -2.96368  -0.00000  -0.00105   0.00007  -0.00099  -2.96467
   D62        1.22780  -0.00000  -0.00133   0.00009  -0.00124   1.22656
   D63       -0.84222  -0.00000  -0.00117   0.00008  -0.00109  -0.84331
   D64       -0.38136  -0.00000   0.00142  -0.00004   0.00138  -0.37998
   D65        1.67349   0.00000   0.00167  -0.00006   0.00162   1.67511
   D66       -2.50570  -0.00000   0.00147  -0.00008   0.00139  -2.50431
   D67        1.65020   0.00000   0.00158  -0.00002   0.00156   1.65177
   D68       -2.57813   0.00000   0.00184  -0.00003   0.00180  -2.57633
   D69       -0.47414  -0.00000   0.00163  -0.00006   0.00157  -0.47257
   D70       -2.44470  -0.00000   0.00150  -0.00008   0.00143  -2.44328
   D71       -0.38985   0.00000   0.00176  -0.00009   0.00166  -0.38819
   D72        1.71414  -0.00000   0.00155  -0.00011   0.00144   1.71558
         Item               Value     Threshold  Converged?
 Maximum Force            0.000032     0.000450     YES
 RMS     Force            0.000008     0.000300     YES
 Maximum Displacement     0.020971     0.001800     NO 
 RMS     Displacement     0.003838     0.001200     NO 
 Predicted change in Energy=-3.088556D-07
 GradGradGradGradGradGradGradGradGradGradGradGradGradGradGradGradGradGrad

 Leave Link  103 at Tue Jul 28 03:21:23 2026, MaxMem=  4026531840 cpu:               0.2 elap:               0.0
 (Enter /opt/packages/gaussian/g16RevC.01/g16/l202.exe)
                          Input orientation:                          
 ---------------------------------------------------------------------
 Center     Atomic      Atomic             Coordinates (Angstroms)
 Number     Number       Type             X           Y           Z
 ---------------------------------------------------------------------
      1          6           0        2.066357   -0.522136   -0.103618
      2          6           0        1.237745   -1.641749    0.066194
      3          6           0       -0.144024   -1.488063    0.099001
      4          6           0       -0.740865   -0.219998   -0.046778
      5          6           0        0.103282    0.905684   -0.211369
      6          6           0        1.476357    0.764367   -0.233415
      7          8           0        2.280398    1.862426   -0.450002
      8          1           0        1.665272   -2.632267    0.169055
      9          1           0       -0.758543   -2.372749    0.228202
     10          1           0       -0.293875    1.910476   -0.321164
     11          8           0        3.410636   -0.561928   -0.164242
     12          6           0        4.081717   -1.832198   -0.059398
     13          1           0        3.775823   -2.496382   -0.874263
     14          1           0        3.877883   -2.295923    0.911255
     15          1           0        5.144059   -1.601022   -0.146194
     16          6           0       -2.183234   -0.105849   -0.036204
     17          6           0       -3.156766   -1.235776    0.184434
     18          7           0       -2.849130    0.999436   -0.251994
     19          6           0       -4.317099    0.857873   -0.244308
     20          6           0       -4.508145   -0.521724    0.404761
     21          1           0       -2.860969   -1.871995    1.022103
     22          1           0       -3.159638   -1.861873   -0.718634
     23          1           0       -4.674304    0.902144   -1.279390
     24          1           0       -4.760346    1.683430    0.317071
     25          1           0       -4.698338   -0.406725    1.476532
     26          1           0       -5.343951   -1.068390   -0.036893
     27          1           0       -2.409560    1.886807   -0.486426
     28          6           0        2.808755    2.475714    0.747099
     29          1           0        1.990245    2.856550    1.369185
     30          1           0        3.434961    3.304124    0.408985
     31          1           0        3.412498    1.761896    1.317962
 ---------------------------------------------------------------------
                    Distance matrix (angstroms):
                    1          2          3          4          5
     1  C    0.000000
     2  C    1.403199   0.000000
     3  C    2.420714   1.390677   0.000000
     4  C    2.824007   2.439064   1.409064   0.000000
     5  C    2.429804   2.802403   2.426420   1.416627   0.000000
     6  C    1.421281   2.436411   2.794562   2.433080   1.380504
     7  O    2.419077   3.692266   4.171930   3.691491   2.390007
     8  H    2.165149   1.083737   2.141883   3.413960   3.886082
     9  H    3.393366   2.132081   1.084894   2.170314   3.418199
    10  H    3.396414   3.887699   3.427690   2.194084   1.085999
    11  O    1.346234   2.437329   3.682748   4.167214   3.618660
    12  C    2.404140   2.853108   4.242689   5.084943   4.831877
    13  H    2.722832   2.838433   4.162830   5.125146   5.049856
    14  H    2.730918   2.848228   4.181882   5.153651   5.075252
    15  H    3.261603   3.912296   5.294970   6.045613   5.630032
    16  C    4.270465   3.751343   2.467220   1.446918   2.506400
    17  C    5.279515   4.414807   3.024493   2.630940   3.920514
    18  N    5.147739   4.876438   3.691673   2.444160   2.954180
    19  C    6.532437   6.099247   4.799565   3.740358   4.420763
    20  C    6.594129   5.863816   4.480274   3.806223   4.866454
    21  H    5.231435   4.215001   2.895049   2.892481   4.245438
    22  H    5.429932   4.472291   3.146774   2.999602   4.308519
    23  H    6.989101   6.575280   5.304384   4.272058   4.895510
    24  H    7.186472   6.862715   5.605029   4.462248   4.953687
    25  H    6.947755   6.225064   4.879412   4.244636   5.256138
    26  H    7.430714   6.607427   5.218604   4.680627   5.796530
    27  H    5.097390   5.104795   4.106717   2.723318   2.711574
    28  C    3.203433   4.459283   4.985024   4.527350   3.271580
    29  H    3.686525   4.743284   5.004412   4.350754   3.140805
    30  H    4.095865   5.422816   5.989181   5.483126   4.151799
    31  H    3.008287   4.228626   4.969603   4.800088   3.744711
                    6          7          8          9         10
     6  C    0.000000
     7  O    1.378087   0.000000
     8  H    3.425609   4.578632   0.000000
     9  H    3.879351   5.256598   2.438386   0.000000
    10  H    2.110684   2.577943   4.971427   4.343239   0.000000
    11  O    2.346334   2.690092   2.728312   4.562361   4.456547
    12  C    3.682436   4.128870   2.555682   4.878834   5.763847
    13  H    4.041128   4.627689   2.358263   4.668103   6.024015
    14  H    4.054994   4.657987   2.357888   4.687100   6.051133
    15  H    4.365171   4.504257   3.642089   5.964599   6.475520
    16  C    3.766799   4.895850   4.608245   2.690444   2.777849
    17  C    5.063694   6.290001   5.020206   2.654449   4.283769
    18  N    4.331910   5.205384   5.809163   3.996595   2.713689
    19  C    5.794221   6.676706   6.938350   4.829441   4.159352
    20  C    6.154313   7.245627   6.528478   4.185330   4.919617
    21  H    5.228683   6.522779   4.668251   2.302440   4.764601
    22  H    5.350236   6.598223   4.966010   2.631112   4.754071
    23  H    6.240487   7.069505   7.401370   5.322682   4.595986
    24  H    6.328047   7.084667   7.741816   5.698677   4.517550
    25  H    6.513235   7.587050   6.867173   4.576633   5.291543
    26  H    7.065000   8.178694   7.184520   4.774683   5.870070
    27  H    4.052682   4.690163   6.120126   4.623891   2.122261
    28  C    2.380210   1.445108   5.266228   6.041726   3.329714
    29  H    2.685077   2.093303   5.627880   6.016913   2.994920
    30  H    3.270959   2.037000   6.199202   7.060102   4.047172
    31  H    2.674038   2.101775   4.866360   5.973311   4.055369
                   11         12         13         14         15
    11  O    0.000000
    12  C    1.440460   0.000000
    13  H    2.092750   1.094860   0.000000
    14  H    2.093263   1.094877   1.799632   0.000000
    15  H    2.021088   1.090663   1.789923   1.790052   0.000000
    16  C    5.613893   6.498495   6.475134   6.513927   7.479096
    17  C    6.611083   7.267105   7.125360   7.151117   8.315433
    18  N    6.452150   7.489452   7.516513   7.580584   8.406227
    19  C    7.857490   8.821042   8.783124   8.856607   9.775956
    20  C    7.939300   8.701639   8.611580   8.586605   9.727975
    21  H    6.515883   7.026530   6.930590   6.753083   8.094370
    22  H    6.720544   7.271362   6.966164   7.236825   8.327492
    23  H    8.291763   9.253805   9.116949   9.389700  10.195599
    24  H    8.487535   9.522786   9.578951   9.529287  10.445070
    25  H    8.274763   9.026651   9.039044   8.800010  10.046511
    26  H    8.770150   9.456592   9.268799   9.351366  10.502095
    27  H    6.322562   7.493332   7.590898   7.679888   8.326937
    28  C    3.228014   4.563877   5.318437   4.892698   4.782405
    29  H    4.006857   5.329115   6.072498   5.506437   5.666822
    30  H    3.908394   5.198026   5.950528   5.639945   5.223954
    31  H    2.756282   3.906723   4.803206   4.104618   4.056017
                   16         17         18         19         20
    16  C    0.000000
    17  C    1.507707   0.000000
    18  N    1.308296   2.298104   0.000000
    19  C    2.350627   2.431781   1.474799   0.000000
    20  C    2.402626   1.544228   2.344693   1.536579   0.000000
    21  H    2.167627   1.092684   3.141429   3.343095   2.217551
    22  H    2.121955   1.098880   2.915691   2.993613   2.208277
    23  H    2.960910   3.002733   2.096728   1.095879   2.211645
    24  H    3.157187   3.333291   2.108181   1.092318   2.221261
    25  H    2.950364   2.175612   2.895628   2.169295   1.094573
    26  H    3.304030   2.204718   3.247507   2.192700   1.092004
    27  H    2.055384   3.280076   1.017649   2.180833   3.316519
    28  C    5.674327   7.048347   5.932053   7.374150   7.914471
    29  H    5.307435   6.681504   5.431082   6.810335   7.387281
    30  H    6.587127   8.006996   6.725942   8.155083   8.816466
    31  H    6.052641   7.309320   6.500316   7.937545   8.293700
                   21         22         23         24         25
    21  H    0.000000
    22  H    1.766202   0.000000
    23  H    4.034960   3.201320   0.000000
    24  H    4.092157   4.025435   1.779466   0.000000
    25  H    2.393626   3.050214   3.051036   2.391013   0.000000
    26  H    2.816461   2.421902   2.423888   2.835208   1.773435
    27  H    4.075294   3.830031   2.593727   2.492622   3.788403
    28  C    7.150103   7.522283   7.910686   7.622593   8.074464
    29  H    6.783353   7.289979   7.433093   6.932073   7.442959
    30  H    8.173547   8.452679   8.624402   8.354529   9.003367
    31  H    7.255969   7.776400   8.537083   8.234278   8.397246
                   26         27         28         29         30
    26  H    0.000000
    27  H    4.188785   0.000000
    28  C    8.924233   5.394368   0.000000
    29  H    8.436388   4.872574   1.096351   0.000000
    30  H    9.817688   6.080212   1.092117   1.791511   0.000000
    31  H    9.301697   6.096539   1.095411   1.795465   1.790310
                   31
    31  H    0.000000
 Stoichiometry    C12H16NO2(1+)
 Framework group  C1[X(C12H16NO2)]
 Deg. of freedom    87
 Full point group                 C1      NOp   1
 RotChk:  IX=0 Diff= 1.13D-03
 Largest Abelian subgroup         C1      NOp   1
 Largest concise Abelian subgroup C1      NOp   1
                         Standard orientation:                         
 ---------------------------------------------------------------------
 Center     Atomic      Atomic             Coordinates (Angstroms)
 Number     Number       Type             X           Y           Z
 ---------------------------------------------------------------------
      1          6           0        2.065016   -0.515650   -0.102135
      2          6           0        1.238558   -1.636561    0.069599
      3          6           0       -0.143533   -1.485576    0.101352
      4          6           0       -0.742835   -0.219019   -0.047414
      5          6           0        0.099143    0.908003   -0.213930
      6          6           0        1.472509    0.769393   -0.234953
      7          8           0        2.274464    1.868602   -0.453429
      8          1           0        1.668014   -2.626001    0.174773
      9          1           0       -0.756347   -2.371217    0.232092
     10          1           0       -0.299968    1.911763   -0.326053
     11          8           0        3.409405   -0.552874   -0.161964
     12          6           0        4.082973   -1.821572   -0.054089
     13          1           0        3.778844   -2.488083   -0.867715
     14          1           0        3.879551   -2.283660    0.917431
     15          1           0        5.144896   -1.588451   -0.140811
     16          6           0       -2.185436   -0.107740   -0.037843
     17          6           0       -3.156820   -1.239149    0.184662
     18          7           0       -2.853430    0.995751   -0.256313
     19          6           0       -4.321116    0.851262   -0.249104
     20          6           0       -4.509744   -0.527344    0.402770
     21          1           0       -2.860195   -1.873008    1.023825
     22          1           0       -3.157956   -1.867150   -0.717087
     23          1           0       -4.677858    0.892638   -1.284466
     24          1           0       -4.766315    1.677111    0.310300
     25          1           0       -4.700737   -0.410470    1.474195
     26          1           0       -5.344217   -1.076614   -0.038173
     27          1           0       -2.415513    1.883506   -0.492382
     28          6           0        2.800954    2.485468    0.742656
     29          1           0        1.981352    2.865972    1.363506
     30          1           0        3.425680    3.314418    0.403128
     31          1           0        3.405822    1.774066    1.315341
 ---------------------------------------------------------------------
 Rotational constants (GHZ):           1.2819979           0.3046417           0.2528488
 Leave Link  202 at Tue Jul 28 03:21:23 2026, MaxMem=  4026531840 cpu:               0.0 elap:               0.0
 (Enter /opt/packages/gaussian/g16RevC.01/g16/l301.exe)
 Standard basis: 6-31+G(d) (6D, 7F)
 Ernie: Thresh=  0.10000D-02 Tol=  0.10000D-05 Strict=F.
 There are   317 symmetry adapted cartesian basis functions of A   symmetry.
 There are   317 symmetry adapted basis functions of A   symmetry.
   317 basis functions,   544 primitive gaussians,   317 cartesian basis functions
    55 alpha electrons       55 beta electrons
       nuclear repulsion energy       980.2616855919 Hartrees.
 IExCor=  402 DFT=T Ex+Corr=B3LYP ExCW=0 ScaHFX=  0.200000
 ScaDFX=  0.800000  0.720000  1.000000  0.810000 ScalE2=  1.000000  1.000000
 IRadAn=      5 IRanWt=     -1 IRanGd=            0 ICorTp=0 IEmpDi=  4
 NAtoms=   31 NActive=   31 NUniq=   31 SFac= 1.00D+00 NAtFMM=   60 NAOKFM=F Big=F
 Integral buffers will be    131072 words long.
 Raffenetti 2 integral format.
 Two-electron integral symmetry is turned on.
 ------------------------------------------------------------------------------
 Polarizable Continuum Model (PCM)
 =================================
 Model                : PCM.
 Atomic radii         : SMD-Coulomb.
 Polarization charges : Total charges.
 Charge compensation  : None.
 Solution method      : On-the-fly selection.
 Cavity type          : VdW (van der Waals Surface) (Alpha=1.000).
 Cavity algorithm     : GePol (No added spheres)
                        Default sphere list used, NSphG=   31.
                        Lebedev-Laikov grids with approx.  5.0 points / Ang**2.
                        Smoothing algorithm: York/Karplus (Gamma=1.0000).
                        Polarization charges: spherical gaussians, with
                                              point-specific exponents (IZeta= 3).
                        Self-potential: point-specific (ISelfS= 7).
                        Self-field    : sphere-specific E.n sum rule (ISelfD= 2).
 1st derivatives      : Analytical E(r).r(x)/FMM algorithm (CHGder, D1EAlg=3).
                        Cavity 1st derivative terms included.
 Solvent              : Methanol, Eps=  32.613000 Eps(inf)=   1.765709
 ------------------------------------------------------------------------------
 GePol: Number of generator spheres                  =      31
 GePol: Total number of spheres                      =      31
 GePol: Number of exposed spheres                    =      31 (100.00%)
 GePol: Number of points                             =    2262
 GePol: Average weight of points                     =       0.11
 GePol: Minimum weight of points                     =   0.26D-09
 GePol: Maximum weight of points                     =    0.21991
 GePol: Number of points with low weight             =     129
 GePol: Fraction of low-weight points (<1% of avg)   =       5.70%
 GePol: Cavity surface area                          =    247.561 Ang**2
 GePol: Cavity volume                                =    218.504 Ang**3
 ------------------------------------------------------------------------------
 Atomic radii for non-electrostatic terms: SMD-CDS.
 ------------------------------------------------------------------------------
 PCM non-electrostatic energy =         0.0015846681 Hartrees.
 Nuclear repulsion after PCM non-electrostatic terms =      980.2632702600 Hartrees.
 Leave Link  301 at Tue Jul 28 03:21:23 2026, MaxMem=  4026531840 cpu:               0.4 elap:               0.1
 (Enter /opt/packages/gaussian/g16RevC.01/g16/l302.exe)
 NPDir=0 NMtPBC=     1 NCelOv=     1 NCel=       1 NClECP=     1 NCelD=      1
         NCelK=      1 NCelE2=     1 NClLst=     1 CellRange=     0.0.
 One-electron integrals computed using PRISM.
 One-electron integral symmetry used in STVInt
 NBasis=   317 RedAO= T EigKep=  1.42D-06  NBF=   317
 NBsUse=   315 1.00D-06 EigRej=  7.81D-07 NBFU=   315
 Precomputing XC quadrature grid using
 IXCGrd= 4 IRadAn=           5 IRanWt=          -1 IRanGd=           0 AccXCQ= 0.00D+00.
 Generated NRdTot=       0 NPtTot=           0 NUsed=           0 NTot=          32
 NSgBfM=   316   316   316   316   316 MxSgAt=    31 MxSgA2=    31.
 Leave Link  302 at Tue Jul 28 03:21:24 2026, MaxMem=  4026531840 cpu:               1.7 elap:               0.2
 (Enter /opt/packages/gaussian/g16RevC.01/g16/l303.exe)
 DipDrv:  MaxL=1.
 Leave Link  303 at Tue Jul 28 03:21:24 2026, MaxMem=  4026531840 cpu:               0.1 elap:               0.0
 (Enter /opt/packages/gaussian/g16RevC.01/g16/l401.exe)
 Initial guess from the checkpoint file:  "dmp_s0_opt.chk"
 B after Tr=    -0.000000   -0.000000   -0.000000
         Rot=    1.000000    0.000239    0.000093   -0.000210 Ang=   0.04 deg.
 Guess basis will be translated and rotated to current coordinates.
 JPrj=2 DoOrth=T DoCkMO=T.
 Generating alternative initial guess.
 ExpMin= 4.38D-02 ExpMax= 5.48D+03 ExpMxC= 8.25D+02 IAcc=3 IRadAn=         5 AccDes= 0.00D+00
 Harris functional with IExCor=  402 and IRadAn=       5 diagonalized for initial guess.
 HarFok:  IExCor=  402 AccDes= 0.00D+00 IRadAn=         5 IDoV= 1 UseB2=F ITyADJ=14
 ICtDFT=  3500011 ScaDFX=  1.000000  1.000000  1.000000  1.000000
 FoFCou: FMM=F IPFlag=           0 FMFlag=      100000 FMFlg1=           0
         NFxFlg=           0 DoJE=T BraDBF=F KetDBF=T FulRan=T
         wScrn=  0.000000 ICntrl=       500 IOpCl=  0 I1Cent=   200000004 NGrid=           0
         NMat0=    1 NMatS0=      1 NMatT0=    0 NMatD0=    1 NMtDS0=    0 NMtDT0=    0
 Petite list used in FoFCou.
 Harris En= -671.877024655950    
 Leave Link  401 at Tue Jul 28 03:21:25 2026, MaxMem=  4026531840 cpu:               8.3 elap:               1.1
 (Enter /opt/packages/gaussian/g16RevC.01/g16/l502.exe)
 Integral symmetry usage will be decided dynamically.
 Closed shell SCF:
 Using DIIS extrapolation, IDIIS=  1040.
 NGot=  4026531840 LenX=  4026324160 LenY=  4026223230
 Requested convergence on RMS density matrix=1.00D-08 within 128 cycles.
 Requested convergence on MAX density matrix=1.00D-06.
 Requested convergence on             energy=1.00D-06.
 No special actions if energy rises.
 Fock matrices will be formed incrementally for  20 cycles.

 Cycle   1  Pass 1  IDiag  1:
 FoFJK:  IHMeth= 1 ICntrl=       0 DoSepK=F KAlg= 0 I1Cent=           0 FoldK=F
 IRaf= 870000000 NMat=       1 IRICut=       1 DoRegI=T DoRafI=F ISym2E= 0 IDoP0=0 IntGTp=1.
 FoFCou: FMM=F IPFlag=           0 FMFlag=      100000 FMFlg1=           0
         NFxFlg=           0 DoJE=F BraDBF=F KetDBF=F FulRan=T
         wScrn=  0.000000 ICntrl=         0 IOpCl=  0 I1Cent=           0 NGrid=           0
         NMat0=    1 NMatS0=      1 NMatT0=    0 NMatD0=    1 NMtDS0=    0 NMtDT0=    0
 Symmetry not used in FoFCou.
 Inv3:  Mode=1 IEnd=    15349932.
 Iteration    1 A*A^-1 deviation from unit magnitude is 3.33D-15 for    768.
 Iteration    1 A*A^-1 deviation from orthogonality  is 2.33D-15 for   1179    546.
 Iteration    1 A^-1*A deviation from unit magnitude is 3.33D-15 for    768.
 Iteration    1 A^-1*A deviation from orthogonality  is 2.76D-15 for   1420    389.
 E= -671.981145356313    
 DIIS: error= 1.82D-04 at cycle   1 NSaved=   1.
 NSaved= 1 IEnMin= 1 EnMin= -671.981145356313     IErMin= 1 ErrMin= 1.82D-04
 ErrMax= 1.82D-04  0.00D+00 EMaxC= 1.00D-01 BMatC= 2.02D-05 BMatP= 2.02D-05
 IDIUse=3 WtCom= 9.98D-01 WtEn= 1.82D-03
 Coeff-Com:  0.100D+01
 Coeff-En:   0.100D+01
 Coeff:      0.100D+01
 Gap=     0.421 Goal=   None    Shift=    0.000
 RMSDP=4.35D-04 MaxDP=5.51D-02              OVMax= 2.17D-03

 Cycle   2  Pass 1  IDiag  1:
 RMSU=  3.94D-04    CP:  9.98D-01
 E= -671.981182921209     Delta-E=       -0.000037564896 Rises=F Damp=F
 DIIS: error= 2.18D-05 at cycle   2 NSaved=   2.
 NSaved= 2 IEnMin= 2 EnMin= -671.981182921209     IErMin= 2 ErrMin= 2.18D-05
 ErrMax= 2.18D-05  0.00D+00 EMaxC= 1.00D-01 BMatC= 2.31D-07 BMatP= 2.02D-05
 IDIUse=1 WtCom= 1.00D+00 WtEn= 0.00D+00
 Coeff-Com: -0.726D-01 0.107D+01
 Coeff:     -0.726D-01 0.107D+01
 Gap=     0.156 Goal=   None    Shift=    0.000
 RMSDP=4.47D-05 MaxDP=6.31D-03 DE=-3.76D-05 OVMax= 2.27D-04

 Cycle   3  Pass 1  IDiag  1:
 RMSU=  2.06D-05    CP:  9.97D-01  1.08D+00
 E= -671.981183242235     Delta-E=       -0.000000321026 Rises=F Damp=F
 DIIS: error= 8.93D-06 at cycle   3 NSaved=   3.
 NSaved= 3 IEnMin= 3 EnMin= -671.981183242235     IErMin= 3 ErrMin= 8.93D-06
 ErrMax= 8.93D-06  0.00D+00 EMaxC= 1.00D-01 BMatC= 9.54D-08 BMatP= 2.31D-07
 IDIUse=1 WtCom= 1.00D+00 WtEn= 0.00D+00
 Coeff-Com: -0.356D-01 0.476D+00 0.560D+00
 Coeff:     -0.356D-01 0.476D+00 0.560D+00
 Gap=     0.156 Goal=   None    Shift=    0.000
 RMSDP=1.07D-05 MaxDP=1.24D-03 DE=-3.21D-07 OVMax= 1.43D-04

 Cycle   4  Pass 1  IDiag  1:
 RMSU=  7.68D-06    CP:  9.97D-01  1.06D+00  8.35D-01
 E= -671.981183308407     Delta-E=       -0.000000066172 Rises=F Damp=F
 DIIS: error= 5.30D-06 at cycle   4 NSaved=   4.
 NSaved= 4 IEnMin= 4 EnMin= -671.981183308407     IErMin= 4 ErrMin= 5.30D-06
 ErrMax= 5.30D-06  0.00D+00 EMaxC= 1.00D-01 BMatC= 2.69D-08 BMatP= 9.54D-08
 IDIUse=1 WtCom= 1.00D+00 WtEn= 0.00D+00
 Coeff-Com: -0.775D-02 0.943D-01 0.348D+00 0.566D+00
 Coeff:     -0.775D-02 0.943D-01 0.348D+00 0.566D+00
 Gap=     0.156 Goal=   None    Shift=    0.000
 RMSDP=3.53D-06 MaxDP=1.68D-04 DE=-6.62D-08 OVMax= 6.27D-05

 Cycle   5  Pass 1  IDiag  1:
 RMSU=  2.75D-06    CP:  9.97D-01  1.06D+00  8.56D-01  9.22D-01
 E= -671.981183333975     Delta-E=       -0.000000025568 Rises=F Damp=F
 DIIS: error= 9.90D-07 at cycle   5 NSaved=   5.
 NSaved= 5 IEnMin= 5 EnMin= -671.981183333975     IErMin= 5 ErrMin= 9.90D-07
 ErrMax= 9.90D-07  0.00D+00 EMaxC= 1.00D-01 BMatC= 9.85D-10 BMatP= 2.69D-08
 IDIUse=1 WtCom= 1.00D+00 WtEn= 0.00D+00
 Coeff-Com: -0.172D-02 0.174D-01 0.131D+00 0.271D+00 0.582D+00
 Coeff:     -0.172D-02 0.174D-01 0.131D+00 0.271D+00 0.582D+00
 Gap=     0.156 Goal=   None    Shift=    0.000
 RMSDP=1.22D-06 MaxDP=1.14D-04 DE=-2.56D-08 OVMax= 1.01D-05

 Cycle   6  Pass 1  IDiag  1:
 RMSU=  6.81D-07    CP:  9.97D-01  1.06D+00  8.83D-01  9.19D-01  8.11D-01
 E= -671.981183334964     Delta-E=       -0.000000000989 Rises=F Damp=F
 DIIS: error= 2.83D-07 at cycle   6 NSaved=   6.
 NSaved= 6 IEnMin= 6 EnMin= -671.981183334964     IErMin= 6 ErrMin= 2.83D-07
 ErrMax= 2.83D-07  0.00D+00 EMaxC= 1.00D-01 BMatC= 8.97D-11 BMatP= 9.85D-10
 IDIUse=1 WtCom= 1.00D+00 WtEn= 0.00D+00
 Coeff-Com:  0.142D-04-0.289D-02 0.239D-01 0.674D-01 0.277D+00 0.635D+00
 Coeff:      0.142D-04-0.289D-02 0.239D-01 0.674D-01 0.277D+00 0.635D+00
 Gap=     0.156 Goal=   None    Shift=    0.000
 RMSDP=3.13D-07 MaxDP=3.76D-05 DE=-9.89D-10 OVMax= 2.97D-06

 Cycle   7  Pass 1  IDiag  1:
 RMSU=  1.41D-07    CP:  9.97D-01  1.06D+00  8.82D-01  9.34D-01  8.59D-01
                    CP:  9.69D-01
 E= -671.981183335044     Delta-E=       -0.000000000080 Rises=F Damp=F
 DIIS: error= 1.25D-07 at cycle   7 NSaved=   7.
 NSaved= 7 IEnMin= 7 EnMin= -671.981183335044     IErMin= 7 ErrMin= 1.25D-07
 ErrMax= 1.25D-07  0.00D+00 EMaxC= 1.00D-01 BMatC= 1.75D-11 BMatP= 8.97D-11
 IDIUse=1 WtCom= 1.00D+00 WtEn= 0.00D+00
 Coeff-Com:  0.169D-03-0.345D-02 0.184D-02 0.147D-01 0.112D+00 0.377D+00
 Coeff-Com:  0.497D+00
 Coeff:      0.169D-03-0.345D-02 0.184D-02 0.147D-01 0.112D+00 0.377D+00
 Coeff:      0.497D+00
 Gap=     0.156 Goal=   None    Shift=    0.000
 RMSDP=7.82D-08 MaxDP=4.29D-06 DE=-7.99D-11 OVMax= 1.29D-06

 Cycle   8  Pass 1  IDiag  1:
 RMSU=  4.80D-08    CP:  9.97D-01  1.06D+00  8.83D-01  9.38D-01  8.70D-01
                    CP:  9.57D-01  7.53D-01
 E= -671.981183335043     Delta-E=        0.000000000001 Rises=F Damp=F
 DIIS: error= 1.83D-08 at cycle   8 NSaved=   8.
 NSaved= 8 IEnMin= 7 EnMin= -671.981183335044     IErMin= 8 ErrMin= 1.83D-08
 ErrMax= 1.83D-08  0.00D+00 EMaxC= 1.00D-01 BMatC= 3.53D-13 BMatP= 1.75D-11
 IDIUse=1 WtCom= 1.00D+00 WtEn= 0.00D+00
 Coeff-Com:  0.624D-04-0.114D-02-0.644D-03 0.209D-02 0.290D-01 0.112D+00
 Coeff-Com:  0.197D+00 0.662D+00
 Coeff:      0.624D-04-0.114D-02-0.644D-03 0.209D-02 0.290D-01 0.112D+00
 Coeff:      0.197D+00 0.662D+00
 Gap=     0.156 Goal=   None    Shift=    0.000
 RMSDP=4.01D-08 MaxDP=3.89D-06 DE= 9.09D-13 OVMax= 2.41D-07

 Cycle   9  Pass 1  IDiag  1:
 RMSU=  1.37D-08    CP:  9.97D-01  1.06D+00  8.83D-01  9.40D-01  8.74D-01
                    CP:  9.74D-01  8.28D-01  1.00D+00
 E= -671.981183335049     Delta-E=       -0.000000000006 Rises=F Damp=F
 DIIS: error= 8.02D-09 at cycle   9 NSaved=   9.
 NSaved= 9 IEnMin= 9 EnMin= -671.981183335049     IErMin= 9 ErrMin= 8.02D-09
 ErrMax= 8.02D-09  0.00D+00 EMaxC= 1.00D-01 BMatC= 7.22D-14 BMatP= 3.53D-13
 IDIUse=1 WtCom= 1.00D+00 WtEn= 0.00D+00
 Coeff-Com:  0.457D-05-0.198D-04-0.661D-03-0.126D-02-0.304D-02-0.265D-02
 Coeff-Com:  0.246D-01 0.340D+00 0.643D+00
 Coeff:      0.457D-05-0.198D-04-0.661D-03-0.126D-02-0.304D-02-0.265D-02
 Coeff:      0.246D-01 0.340D+00 0.643D+00
 Gap=     0.156 Goal=   None    Shift=    0.000
 RMSDP=7.42D-09 MaxDP=5.80D-07 DE=-5.80D-12 OVMax= 1.35D-07

 Error on total polarization charges =  0.05683
 SCF Done:  E(RB3LYP) =  -671.981183335     A.U. after    9 cycles
            NFock=  9  Conv=0.74D-08     -V/T= 2.0097
 KE= 6.654954796097D+02 PE=-3.505431496985D+03 EE= 1.187691563780D+03
 SMD-CDS (non-electrostatic) energy       (kcal/mol) =       0.99
 (included in total energy above)
 Leave Link  502 at Tue Jul 28 03:22:01 2026, MaxMem=  4026531840 cpu:             266.8 elap:              34.9
 (Enter /opt/packages/gaussian/g16RevC.01/g16/l701.exe)
 ... and contract with generalized density number  0.
 Compute integral first derivatives.
 D1PCM: PCM CHGder 1st derivatives, ID1Alg=3 FixD1E=F DoIter=F DoCFld=F I1PDM=0.
 GePol: Maximum number of non-zero 1st derivatives   =     260
 Leave Link  701 at Tue Jul 28 03:22:02 2026, MaxMem=  4026531840 cpu:               8.2 elap:               1.0
 (Enter /opt/packages/gaussian/g16RevC.01/g16/l702.exe)
 L702 exits ... SP integral derivatives will be done elsewhere.
 Leave Link  702 at Tue Jul 28 03:22:05 2026, MaxMem=  4026531840 cpu:               0.1 elap:               0.0
 (Enter /opt/packages/gaussian/g16RevC.01/g16/l703.exe)
 Integral derivatives from FoFJK, PRISM(SPDF).
 Compute integral first derivatives, UseDBF=F ICtDFT=           0.
 Calling FoFJK, ICntrl=      2127 FMM=F ISym2X=0 I1Cent= 0 IOpClX= 0 NMat=1 NMatS=1 NMatT=0.
 FoFJK:  IHMeth= 1 ICntrl=    2127 DoSepK=F KAlg= 0 I1Cent=           0 FoldK=F
 IRaf=         0 NMat=       1 IRICut=       1 DoRegI=T DoRafI=F ISym2E= 0 IDoP0=0 IntGTp=1.
 FoFCou: FMM=F IPFlag=           0 FMFlag=      100000 FMFlg1=         800
         NFxFlg=           0 DoJE=F BraDBF=F KetDBF=F FulRan=T
         wScrn=  0.000000 ICntrl=      2127 IOpCl=  0 I1Cent=           0 NGrid=           0
         NMat0=    1 NMatS0=      1 NMatT0=    0 NMatD0=    1 NMtDS0=    0 NMtDT0=    0
 Symmetry not used in FoFCou.
 Leave Link  703 at Tue Jul 28 03:22:12 2026, MaxMem=  4026531840 cpu:              58.9 elap:               7.4
 (Enter /opt/packages/gaussian/g16RevC.01/g16/l716.exe)
 Dipole        =-3.43918635D+00-5.59183401D-01 5.92148089D-01
 ***** Axes restored to original set *****
 -------------------------------------------------------------------
 Center     Atomic                   Forces (Hartrees/Bohr)
 Number     Number              X              Y              Z
 -------------------------------------------------------------------
      1        6          -0.000011413   -0.000005573   -0.000000037
      2        6          -0.000005709   -0.000003829    0.000003842
      3        6           0.000008185   -0.000002065    0.000004648
      4        6          -0.000010394    0.000004348   -0.000000972
      5        6           0.000011896    0.000000601   -0.000001579
      6        6          -0.000000874   -0.000002811   -0.000000516
      7        8           0.000001578   -0.000016245   -0.000009149
      8        1          -0.000004481   -0.000005133    0.000005780
      9        1          -0.000008608    0.000003462    0.000002431
     10        1           0.000013760   -0.000004533   -0.000001584
     11        8          -0.000002139   -0.000000615    0.000001925
     12        6           0.000001248   -0.000024006    0.000009812
     13        1          -0.000005019   -0.000010088    0.000008147
     14        1          -0.000007467   -0.000008170    0.000006304
     15        1          -0.000004140   -0.000015199    0.000008166
     16        6           0.000015407   -0.000008121    0.000003117
     17        6          -0.000001305    0.000009538    0.000000968
     18        7          -0.000007645    0.000017532   -0.000010226
     19        6          -0.000001025    0.000009844   -0.000000714
     20        6          -0.000004328    0.000015128   -0.000008582
     21        1          -0.000005081    0.000008798   -0.000001730
     22        1          -0.000005988    0.000009337   -0.000002163
     23        1           0.000004590    0.000005903   -0.000006211
     24        1           0.000003173    0.000011188   -0.000009076
     25        1           0.000000756    0.000014657   -0.000003442
     26        1          -0.000002299    0.000013342   -0.000002920
     27        1          -0.000002351    0.000000733   -0.000002699
     28        6           0.000010690    0.000001353    0.000007564
     29        1           0.000008057   -0.000004437   -0.000003330
     30        1           0.000008697   -0.000008916    0.000001386
     31        1           0.000002225   -0.000006021    0.000000839
 -------------------------------------------------------------------
 Cartesian Forces:  Max     0.000024006 RMS     0.000007640
 Leave Link  716 at Tue Jul 28 03:22:12 2026, MaxMem=  4026531840 cpu:               0.1 elap:               0.0
 (Enter /opt/packages/gaussian/g16RevC.01/g16/l103.exe)

 GradGradGradGradGradGradGradGradGradGradGradGradGradGradGradGradGradGrad
 Berny optimization.
 Using GEDIIS/GDIIS optimizer.
 FormGI is forming the generalized inverse of G from B-inverse, IUseBI=4.
 Internal  Forces:  Max     0.000026726 RMS     0.000004954
 Search for a local minimum.
 Step number  10 out of a maximum of  170
 All quantities printed in internal units (Hartrees-Bohrs-Radians)
 RMS Force = .49540D-05 SwitMx=.10000D-02 MixMth= 2
 Mixed Optimization -- En-DIIS/RFO-DIIS
 Swapping is turned off.
 Update second derivatives using D2CorX and points    1    2    3    4    5
                                                      6    7    8    9   10
 DE=  5.17D-07 DEPred=-3.09D-07 R=-1.67D+00
 Trust test=-1.67D+00 RLast= 1.54D-02 DXMaxT set to 5.00D-02
 ITU= -1  0 -1 -1 -1  0  1  1  1  0
     Eigenvalues ---    0.00225   0.00486   0.01128   0.01204   0.01265
     Eigenvalues ---    0.01332   0.01442   0.01813   0.01862   0.02022
     Eigenvalues ---    0.02086   0.02146   0.02164   0.02189   0.02195
     Eigenvalues ---    0.02219   0.02273   0.02449   0.03376   0.03605
     Eigenvalues ---    0.04999   0.05240   0.05595   0.05843   0.06936
     Eigenvalues ---    0.07509   0.08417   0.08457   0.09389   0.10129
     Eigenvalues ---    0.10185   0.10632   0.10744   0.10998   0.13566
     Eigenvalues ---    0.15880   0.15927   0.15956   0.16000   0.16001
     Eigenvalues ---    0.16046   0.16064   0.16239   0.16439   0.21494
     Eigenvalues ---    0.22356   0.22996   0.23418   0.24110   0.24293
     Eigenvalues ---    0.24805   0.24973   0.25823   0.27892   0.28308
     Eigenvalues ---    0.30235   0.31436   0.32076   0.33969   0.34067
     Eigenvalues ---    0.34233   0.34328   0.34337   0.34372   0.34427
     Eigenvalues ---    0.34485   0.34567   0.34720   0.34729   0.34783
     Eigenvalues ---    0.34814   0.35124   0.35497   0.36107   0.36827
     Eigenvalues ---    0.39576   0.40874   0.41641   0.43181   0.45141
     Eigenvalues ---    0.46301   0.46617   0.47950   0.50009   0.51249
     Eigenvalues ---    0.59615   0.62214
 En-DIIS/RFO-DIIS/Sim-DIIS IScMMF=       -3 using points:    10    9    8    7    6    5    4    3    2
 RFO step:  Lambda=-1.08002616D-08.
 NNeg= 0 NGDIIS= 9 SimSw=  2.50D-03 Rises=T DC=  5.17D-07 SmlDif=  1.00D-05
 NRisDI= 1 DoIntr=F SqrtH=F CThrHd= 10.0 CDAdj=  3.0
 RMS Error=  0.9271346515D-04 NUsed= 9 OKEnD=T EnDIS=T
 InvSVX:  RCond= 2.32D-11 Info=           0 Equed=N FErr=  3.24D-09 BErr=  1.18D-16
 DIIS inversion failure, remove point   9.
 InvSVX:  RCond= 2.61D-11 Info=           0 Equed=N FErr=  2.81D-09 BErr=  8.90D-17
 DIIS inversion failure, remove point   8.
 InvSVX:  RCond= 2.98D-11 Info=           0 Equed=N FErr=  2.48D-09 BErr=  7.03D-17
 DIIS inversion failure, remove point   7.
 InvSVX:  RCond= 3.58D-11 Info=           0 Equed=N FErr=  2.16D-09 BErr=  9.21D-17
 DIIS inversion failure, remove point   6.
 InvSVX:  RCond= 5.29D-09 Info=           0 Equed=N FErr=  8.79D-12 BErr=  5.31D-17
 DIIS inversion failure, remove point   5.
 InvSVX:  RCond= 2.37D-08 Info=           0 Equed=N FErr=  3.79D-13 BErr=  6.49D-17
 DIIS inversion failure, remove point   4.
 InvSVX:  RCond= 6.53D-07 Info=           0 Equed=N FErr=  3.60D-15 BErr=  3.77D-17
 RFO-DIIS uses    3 points instead of    9
 EnCoef did   100 forward-backward iterations
 IWarn =    2
 Energies =   -671.981143565      -671.981178788      -671.981183514      -671.981183862      -671.981183833    
 Energies =   -671.981183630      -671.981183440      -671.981183852      -671.981183335    
 Point number   1 has energy  -0.6719811436D+03 and has been removed
 EnCoef did   100 forward-backward iterations
 IWarn =    2
 Energies =   -671.981178788      -671.981183514      -671.981183862      -671.981183833      -671.981183630    
 Energies =   -671.981183440      -671.981183852      -671.981183335    
 Point number   1 has energy  -0.6719811788D+03 and has been removed
 EnCoef did   100 forward-backward iterations
 IWarn =    2
 Energies =   -671.981183514      -671.981183862      -671.981183833      -671.981183630      -671.981183440    
 Energies =   -671.981183852      -671.981183335    
 Point number   5 has energy  -0.6719811834D+03 and has been removed
 EnCoef did   100 forward-backward iterations
 IWarn =    2
 Energies =   -671.981183514      -671.981183862      -671.981183833      -671.981183630      -671.981183852    
 Energies =   -671.981183335    
 Point number   1 has energy  -0.6719811835D+03 and has been removed
 EnCoef did   100 forward-backward iterations
 IWarn =    2
 Energies =   -671.981183862      -671.981183833      -671.981183630      -671.981183852      -671.981183335    
 Point number   3 has energy  -0.6719811836D+03 and has been removed
 EnCoef did   100 forward-backward iterations
 IWarn =    2
 Energies =   -671.981183862      -671.981183833      -671.981183852      -671.981183335    
 Point number   2 has energy  -0.6719811838D+03 and has been removed
 EnCoef did   100 forward-backward iterations
 IWarn =    2
 Energies =   -671.981183862      -671.981183852      -671.981183335    
 Point number   2 has energy  -0.6719811839D+03 and has been removed
 IWarn =    0
 DidBck=T Rises=T En-DIIS coefs:    0.28264    0.00000    0.00000    0.00000    0.00000
                  En-DIIS coefs:    0.71736    0.00000    0.00000    0.00000
 Iteration  1 RMS(Cart)=  0.00023720 RMS(Int)=  0.00000010
 Iteration  2 RMS(Cart)=  0.00000004 RMS(Int)=  0.00000010
 ITry= 1 IFail=0 DXMaxC= 8.88D-04 DCOld= 1.00D+10 DXMaxT= 5.00D-02 DXLimC= 3.00D+00 Rises=F
 Variable       Old X    -DE/DX   Delta X   Delta X   Delta X     New X
                                 (Linear)    (Quad)   (Total)
    R1        2.65166  -0.00001  -0.00010   0.00008  -0.00002   2.65165
    R2        2.68583  -0.00000  -0.00004   0.00002  -0.00002   2.68581
    R3        2.54401   0.00000   0.00008  -0.00005   0.00003   2.54404
    R4        2.62800  -0.00001  -0.00007   0.00005  -0.00002   2.62798
    R5        2.04797   0.00000  -0.00000   0.00001   0.00000   2.04797
    R6        2.66274   0.00000   0.00005  -0.00003   0.00002   2.66276
    R7        2.05015  -0.00000  -0.00003   0.00003  -0.00000   2.05015
    R8        2.67704   0.00001   0.00004  -0.00002   0.00002   2.67706
    R9        2.73428   0.00001  -0.00019   0.00018  -0.00001   2.73427
   R10        2.60877  -0.00000  -0.00004   0.00003  -0.00001   2.60877
   R11        2.05224  -0.00001  -0.00003   0.00001  -0.00002   2.05222
   R12        2.60421   0.00000  -0.00011   0.00011   0.00000   2.60421
   R13        2.73086   0.00001   0.00008  -0.00007   0.00002   2.73087
   R14        2.72208   0.00001   0.00007  -0.00005   0.00002   2.72209
   R15        2.06899  -0.00000  -0.00001   0.00001   0.00000   2.06899
   R16        2.06902  -0.00000  -0.00001   0.00001   0.00000   2.06902
   R17        2.06106  -0.00000  -0.00001   0.00001   0.00000   2.06106
   R18        2.84915  -0.00000   0.00007  -0.00007   0.00000   2.84916
   R19        2.47232   0.00002   0.00014  -0.00009   0.00004   2.47236
   R20        2.91817  -0.00000  -0.00008   0.00008  -0.00000   2.91817
   R21        2.06487  -0.00000  -0.00006   0.00005  -0.00001   2.06487
   R22        2.07658  -0.00000   0.00001  -0.00001  -0.00000   2.07658
   R23        2.78697   0.00000   0.00013  -0.00009   0.00003   2.78700
   R24        1.92308  -0.00001  -0.00004   0.00002  -0.00002   1.92306
   R25        2.90371  -0.00001  -0.00018   0.00015  -0.00003   2.90368
   R26        2.07091  -0.00000  -0.00000   0.00000  -0.00000   2.07091
   R27        2.06418  -0.00000  -0.00003   0.00003  -0.00000   2.06418
   R28        2.06844   0.00000   0.00001  -0.00001   0.00000   2.06844
   R29        2.06359  -0.00000  -0.00001   0.00001  -0.00000   2.06359
   R30        2.07180  -0.00000   0.00000  -0.00000  -0.00000   2.07180
   R31        2.06380  -0.00000  -0.00002   0.00002  -0.00000   2.06380
   R32        2.07003  -0.00000  -0.00012   0.00012   0.00000   2.07003
    A1        2.08077   0.00000   0.00010  -0.00008   0.00002   2.08079
    A2        2.17916  -0.00001  -0.00006   0.00003  -0.00003   2.17913
    A3        2.02323   0.00000  -0.00004   0.00005   0.00001   2.02325
    A4        2.09603  -0.00000  -0.00002   0.00001  -0.00001   2.09601
    A5        2.10342  -0.00000  -0.00005   0.00005  -0.00001   2.10342
    A6        2.08373   0.00000   0.00008  -0.00005   0.00002   2.08375
    A7        2.11516   0.00001   0.00000   0.00002   0.00002   2.11518
    A8        2.06632   0.00000   0.00001  -0.00000   0.00001   2.06633
    A9        2.10163  -0.00001  -0.00002  -0.00001  -0.00003   2.10161
   A10        2.06545  -0.00001  -0.00004   0.00001  -0.00002   2.06543
   A11        2.08573  -0.00002  -0.00002  -0.00004  -0.00006   2.08568
   A12        2.13196   0.00003   0.00006   0.00002   0.00008   2.13204
   A13        2.10970   0.00000   0.00003  -0.00003  -0.00000   2.10969
   A14        2.12825   0.00001  -0.00002   0.00004   0.00002   2.12827
   A15        2.04523  -0.00001  -0.00001  -0.00001  -0.00001   2.04522
   A16        2.09912  -0.00000  -0.00007   0.00008   0.00000   2.09912
   A17        2.08678  -0.00000   0.00059  -0.00062  -0.00002   2.08676
   A18        2.09584   0.00000  -0.00054   0.00057   0.00002   2.09586
   A19        2.00565   0.00000   0.00027  -0.00026   0.00001   2.00566
   A20        2.08058  -0.00001  -0.00006   0.00002  -0.00005   2.08054
   A21        1.92904  -0.00000  -0.00003   0.00003  -0.00001   1.92904
   A22        1.92975  -0.00000  -0.00002   0.00001  -0.00001   1.92974
   A23        1.83493   0.00000   0.00001   0.00001   0.00002   1.83495
   A24        1.92930   0.00000  -0.00001   0.00000  -0.00001   1.92929
   A25        1.91930   0.00000   0.00002  -0.00002   0.00000   1.91930
   A26        1.91948   0.00000   0.00004  -0.00003   0.00001   1.91949
   A27        2.19644  -0.00002   0.00012  -0.00016  -0.00003   2.19641
   A28        2.18074   0.00003   0.00006   0.00002   0.00009   2.18083
   A29        1.90565  -0.00001  -0.00019   0.00014  -0.00005   1.90559
   A30        1.81255   0.00001  -0.00009   0.00011   0.00001   1.81256
   A31        1.95385  -0.00000   0.00025  -0.00025  -0.00001   1.95384
   A32        1.88433  -0.00000  -0.00014   0.00014  -0.00000   1.88433
   A33        1.97878  -0.00000   0.00005  -0.00005   0.00000   1.97878
   A34        1.95889  -0.00000  -0.00026   0.00022  -0.00003   1.95885
   A35        1.87441   0.00000   0.00017  -0.00014   0.00003   1.87444
   A36        2.00939   0.00000  -0.00012   0.00012   0.00000   2.00939
   A37        2.15894   0.00000   0.00001   0.00001   0.00002   2.15896
   A38        2.11163  -0.00001   0.00012  -0.00013  -0.00002   2.11161
   A39        1.78456   0.00000  -0.00013   0.00012  -0.00002   1.78454
   A40        1.89193   0.00000  -0.00005   0.00005   0.00000   1.89193
   A41        1.91138   0.00000   0.00003  -0.00003   0.00000   1.91138
   A42        1.97656  -0.00000  -0.00016   0.00014  -0.00003   1.97654
   A43        1.99438   0.00000   0.00014  -0.00013   0.00001   1.99439
   A44        1.89930   0.00000   0.00015  -0.00012   0.00002   1.89932
   A45        1.81944   0.00000  -0.00021   0.00018  -0.00003   1.81940
   A46        1.91808  -0.00000  -0.00010   0.00009  -0.00001   1.91808
   A47        1.96126  -0.00000   0.00006  -0.00006   0.00000   1.96126
   A48        1.91866   0.00000  -0.00006   0.00006  -0.00000   1.91865
   A49        1.95388  -0.00000   0.00012  -0.00011   0.00000   1.95389
   A50        1.89191   0.00000   0.00018  -0.00014   0.00004   1.89194
   A51        1.92250  -0.00000  -0.00029   0.00030   0.00001   1.92250
   A52        1.84948   0.00000  -0.00005   0.00008   0.00003   1.84951
   A53        1.93549   0.00000   0.00025  -0.00027  -0.00001   1.93548
   A54        1.91799  -0.00000   0.00003  -0.00003   0.00000   1.91799
   A55        1.91999  -0.00000   0.00007  -0.00009  -0.00002   1.91997
   A56        1.91730  -0.00000  -0.00001   0.00002   0.00000   1.91730
    D1        0.00597   0.00000   0.00045  -0.00049  -0.00003   0.00593
    D2       -3.13969   0.00000   0.00009  -0.00009  -0.00000  -3.13969
    D3       -3.12803  -0.00000   0.00077  -0.00085  -0.00008  -3.12811
    D4        0.00951  -0.00000   0.00040  -0.00046  -0.00005   0.00945
    D5       -0.01591  -0.00000  -0.00045   0.00047   0.00002  -0.01589
    D6       -3.09986  -0.00000   0.00001  -0.00003  -0.00002  -3.09988
    D7        3.11875   0.00000  -0.00073   0.00080   0.00007   3.11882
    D8        0.03479   0.00000  -0.00027   0.00030   0.00003   0.03482
    D9        0.00761  -0.00000  -0.00056   0.00054  -0.00003   0.00758
   D10       -3.12661  -0.00000  -0.00026   0.00018  -0.00008  -3.12669
   D11        0.00910   0.00000  -0.00011   0.00014   0.00003   0.00913
   D12        3.13799   0.00000  -0.00030   0.00031   0.00000   3.13799
   D13       -3.12848   0.00000   0.00025  -0.00025   0.00000  -3.12848
   D14        0.00041  -0.00000   0.00006  -0.00008  -0.00002   0.00038
   D15       -0.01413  -0.00000  -0.00024   0.00023  -0.00001  -0.01414
   D16        3.11813   0.00000  -0.00019   0.00019  -0.00000   3.11812
   D17        3.14043  -0.00000  -0.00004   0.00006   0.00001   3.14044
   D18       -0.01051   0.00000   0.00000   0.00002   0.00002  -0.01048
   D19        0.00405   0.00000   0.00025  -0.00025   0.00000   0.00405
   D20       -3.13335   0.00000   0.00035  -0.00032   0.00003  -3.13332
   D21       -3.12794  -0.00000   0.00020  -0.00021  -0.00001  -3.12795
   D22        0.01784   0.00000   0.00031  -0.00028   0.00002   0.01786
   D23        0.05285  -0.00000  -0.00017   0.00018   0.00002   0.05286
   D24       -3.05709   0.00000  -0.00006   0.00012   0.00005  -3.05703
   D25       -3.09845   0.00000  -0.00012   0.00014   0.00003  -3.09843
   D26        0.07480   0.00000  -0.00002   0.00008   0.00006   0.07486
   D27        0.01084   0.00000   0.00009  -0.00010  -0.00000   0.01084
   D28        3.09450   0.00000  -0.00033   0.00036   0.00003   3.09453
   D29       -3.13475  -0.00000  -0.00001  -0.00003  -0.00003  -3.13478
   D30       -0.05109   0.00000  -0.00043   0.00043   0.00000  -0.05109
   D31       -1.50593  -0.00000   0.00879  -0.00922  -0.00043  -1.50636
   D32        1.69319  -0.00000   0.00923  -0.00970  -0.00047   1.69272
   D33       -1.09087   0.00000  -0.00069   0.00068  -0.00002  -1.09088
   D34        3.11860  -0.00000  -0.00054   0.00051  -0.00004   3.11857
   D35        1.03876  -0.00000  -0.00063   0.00058  -0.00005   1.03871
   D36        1.06137   0.00000   0.00038  -0.00030   0.00009   1.06146
   D37       -1.08062   0.00000   0.00044  -0.00033   0.00011  -1.08051
   D38        3.13168   0.00000   0.00040  -0.00031   0.00010   3.13177
   D39        2.93136   0.00000  -0.00089   0.00077  -0.00012   2.93124
   D40        0.79022  -0.00000  -0.00103   0.00091  -0.00012   0.79009
   D41       -1.26930  -0.00000  -0.00130   0.00115  -0.00015  -1.26946
   D42       -0.23770  -0.00000  -0.00098   0.00083  -0.00015  -0.23785
   D43       -2.37885  -0.00000  -0.00112   0.00096  -0.00015  -2.37900
   D44        1.84481  -0.00000  -0.00139   0.00120  -0.00018   1.84463
   D45        3.09973  -0.00000  -0.00008   0.00008   0.00000   3.09974
   D46        0.04379  -0.00000  -0.00026   0.00022  -0.00005   0.04375
   D47       -0.01469   0.00000   0.00001   0.00003   0.00004  -0.01466
   D48       -3.07063   0.00000  -0.00018   0.00016  -0.00001  -3.07064
   D49        0.38014   0.00000   0.00153  -0.00132   0.00021   0.38035
   D50       -1.67534   0.00000   0.00176  -0.00154   0.00023  -1.67511
   D51        2.49959   0.00000   0.00157  -0.00138   0.00019   2.49977
   D52        2.50476   0.00000   0.00180  -0.00159   0.00021   2.50497
   D53        0.44928   0.00000   0.00203  -0.00181   0.00023   0.44951
   D54       -1.65898   0.00000   0.00184  -0.00165   0.00019  -1.65879
   D55       -1.65070   0.00000   0.00187  -0.00165   0.00022  -1.65048
   D56        2.57701   0.00000   0.00210  -0.00186   0.00024   2.57724
   D57        0.46875   0.00000   0.00191  -0.00171   0.00020   0.46894
   D58        0.26004  -0.00000   0.00097  -0.00088   0.00009   0.26014
   D59       -1.83192   0.00000   0.00125  -0.00112   0.00013  -1.83178
   D60        2.38140   0.00000   0.00108  -0.00098   0.00010   2.38150
   D61       -2.96467  -0.00000   0.00115  -0.00100   0.00015  -2.96453
   D62        1.22656   0.00000   0.00142  -0.00124   0.00018   1.22674
   D63       -0.84331   0.00000   0.00125  -0.00110   0.00015  -0.84317
   D64       -0.37998   0.00000  -0.00148   0.00131  -0.00017  -0.38015
   D65        1.67511  -0.00000  -0.00174   0.00154  -0.00020   1.67491
   D66       -2.50431   0.00000  -0.00149   0.00133  -0.00016  -2.50447
   D67        1.65177  -0.00000  -0.00169   0.00150  -0.00019   1.65158
   D68       -2.57633  -0.00000  -0.00195   0.00173  -0.00022  -2.57655
   D69       -0.47257  -0.00000  -0.00169   0.00152  -0.00017  -0.47274
   D70       -2.44328  -0.00000  -0.00151   0.00133  -0.00017  -2.44345
   D71       -0.38819  -0.00000  -0.00177   0.00157  -0.00020  -0.38839
   D72        1.71558  -0.00000  -0.00151   0.00136  -0.00015   1.71542
         Item               Value     Threshold  Converged?
 Maximum Force            0.000027     0.000450     YES
 RMS     Force            0.000005     0.000300     YES
 Maximum Displacement     0.000888     0.001800     YES
 RMS     Displacement     0.000237     0.001200     YES
 Predicted change in Energy=-9.276391D-09
 Optimization completed.
    -- Stationary point found.
                           ----------------------------
                           !   Optimized Parameters   !
                           ! (Angstroms and Degrees)  !
 --------------------------                            --------------------------
 ! Name  Definition              Value          Derivative Info.                !
 --------------------------------------------------------------------------------
 ! R1    R(1,2)                  1.4032         -DE/DX =    0.0                 !
 ! R2    R(1,6)                  1.4213         -DE/DX =    0.0                 !
 ! R3    R(1,11)                 1.3462         -DE/DX =    0.0                 !
 ! R4    R(2,3)                  1.3907         -DE/DX =    0.0                 !
 ! R5    R(2,8)                  1.0837         -DE/DX =    0.0                 !
 ! R6    R(3,4)                  1.4091         -DE/DX =    0.0                 !
 ! R7    R(3,9)                  1.0849         -DE/DX =    0.0                 !
 ! R8    R(4,5)                  1.4166         -DE/DX =    0.0                 !
 ! R9    R(4,16)                 1.4469         -DE/DX =    0.0                 !
 ! R10   R(5,6)                  1.3805         -DE/DX =    0.0                 !
 ! R11   R(5,10)                 1.086          -DE/DX =    0.0                 !
 ! R12   R(6,7)                  1.3781         -DE/DX =    0.0                 !
 ! R13   R(7,28)                 1.4451         -DE/DX =    0.0                 !
 ! R14   R(11,12)                1.4405         -DE/DX =    0.0                 !
 ! R15   R(12,13)                1.0949         -DE/DX =    0.0                 !
 ! R16   R(12,14)                1.0949         -DE/DX =    0.0                 !
 ! R17   R(12,15)                1.0907         -DE/DX =    0.0                 !
 ! R18   R(16,17)                1.5077         -DE/DX =    0.0                 !
 ! R19   R(16,18)                1.3083         -DE/DX =    0.0                 !
 ! R20   R(17,20)                1.5442         -DE/DX =    0.0                 !
 ! R21   R(17,21)                1.0927         -DE/DX =    0.0                 !
 ! R22   R(17,22)                1.0989         -DE/DX =    0.0                 !
 ! R23   R(18,19)                1.4748         -DE/DX =    0.0                 !
 ! R24   R(18,27)                1.0176         -DE/DX =    0.0                 !
 ! R25   R(19,20)                1.5366         -DE/DX =    0.0                 !
 ! R26   R(19,23)                1.0959         -DE/DX =    0.0                 !
 ! R27   R(19,24)                1.0923         -DE/DX =    0.0                 !
 ! R28   R(20,25)                1.0946         -DE/DX =    0.0                 !
 ! R29   R(20,26)                1.092          -DE/DX =    0.0                 !
 ! R30   R(28,29)                1.0964         -DE/DX =    0.0                 !
 ! R31   R(28,30)                1.0921         -DE/DX =    0.0                 !
 ! R32   R(28,31)                1.0954         -DE/DX =    0.0                 !
 ! A1    A(2,1,6)              119.2193         -DE/DX =    0.0                 !
 ! A2    A(2,1,11)             124.8566         -DE/DX =    0.0                 !
 ! A3    A(6,1,11)             115.9227         -DE/DX =    0.0                 !
 ! A4    A(1,2,3)              120.0935         -DE/DX =    0.0                 !
 ! A5    A(1,2,8)              120.5173         -DE/DX =    0.0                 !
 ! A6    A(3,2,8)              119.3888         -DE/DX =    0.0                 !
 ! A7    A(2,3,4)              121.1896         -DE/DX =    0.0                 !
 ! A8    A(2,3,9)              118.3916         -DE/DX =    0.0                 !
 ! A9    A(4,3,9)              120.4147         -DE/DX =    0.0                 !
 ! A10   A(3,4,5)              118.3416         -DE/DX =    0.0                 !
 ! A11   A(3,4,16)             119.5038         -DE/DX =    0.0                 !
 ! A12   A(5,4,16)             122.1524         -DE/DX =    0.0                 !
 ! A13   A(4,5,6)              120.8766         -DE/DX =    0.0                 !
 ! A14   A(4,5,10)             121.9398         -DE/DX =    0.0                 !
 ! A15   A(6,5,10)             117.1831         -DE/DX =    0.0                 !
 ! A16   A(1,6,5)              120.2707         -DE/DX =    0.0                 !
 ! A17   A(1,6,7)              119.5638         -DE/DX =    0.0                 !
 ! A18   A(5,6,7)              120.0829         -DE/DX =    0.0                 !
 ! A19   A(6,7,28)             114.9153         -DE/DX =    0.0                 !
 ! A20   A(1,11,12)            119.2086         -DE/DX =    0.0                 !
 ! A21   A(11,12,13)           110.5259         -DE/DX =    0.0                 !
 ! A22   A(11,12,14)           110.5664         -DE/DX =    0.0                 !
 ! A23   A(11,12,15)           105.1338         -DE/DX =    0.0                 !
 ! A24   A(13,12,14)           110.5405         -DE/DX =    0.0                 !
 ! A25   A(13,12,15)           109.9676         -DE/DX =    0.0                 !
 ! A26   A(14,12,15)           109.9781         -DE/DX =    0.0                 !
 ! A27   A(4,16,17)            125.8468         -DE/DX =    0.0                 !
 ! A28   A(4,16,18)            124.9473         -DE/DX =    0.0                 !
 ! A29   A(17,16,18)           109.1857         -DE/DX =    0.0                 !
 ! A30   A(16,17,20)           103.8515         -DE/DX =    0.0                 !
 ! A31   A(16,17,21)           111.9471         -DE/DX =    0.0                 !
 ! A32   A(16,17,22)           107.9641         -DE/DX =    0.0                 !
 ! A33   A(20,17,21)           113.3755         -DE/DX =    0.0                 !
 ! A34   A(20,17,22)           112.2361         -DE/DX =    0.0                 !
 ! A35   A(21,17,22)           107.396          -DE/DX =    0.0                 !
 ! A36   A(16,18,19)           115.1297         -DE/DX =    0.0                 !
 ! A37   A(16,18,27)           123.6983         -DE/DX =    0.0                 !
 ! A38   A(19,18,27)           120.9873         -DE/DX =    0.0                 !
 ! A39   A(18,19,20)           102.2478         -DE/DX =    0.0                 !
 ! A40   A(18,19,23)           108.3996         -DE/DX =    0.0                 !
 ! A41   A(18,19,24)           109.5141         -DE/DX =    0.0                 !
 ! A42   A(20,19,23)           113.2486         -DE/DX =    0.0                 !
 ! A43   A(20,19,24)           114.2694         -DE/DX =    0.0                 !
 ! A44   A(23,19,24)           108.8216         -DE/DX =    0.0                 !
 ! A45   A(17,20,19)           104.246          -DE/DX =    0.0                 !
 ! A46   A(17,20,25)           109.898          -DE/DX =    0.0                 !
 ! A47   A(17,20,26)           112.3718         -DE/DX =    0.0                 !
 ! A48   A(19,20,25)           109.9309         -DE/DX =    0.0                 !
 ! A49   A(19,20,26)           111.9492         -DE/DX =    0.0                 !
 ! A50   A(25,20,26)           108.3982         -DE/DX =    0.0                 !
 ! A51   A(7,28,29)            110.1509         -DE/DX =    0.0                 !
 ! A52   A(7,28,30)            105.9675         -DE/DX =    0.0                 !
 ! A53   A(7,28,31)            110.8956         -DE/DX =    0.0                 !
 ! A54   A(29,28,30)           109.8925         -DE/DX =    0.0                 !
 ! A55   A(29,28,31)           110.0072         -DE/DX =    0.0                 !
 ! A56   A(30,28,31)           109.8532         -DE/DX =    0.0                 !
 ! D1    D(6,1,2,3)              0.3418         -DE/DX =    0.0                 !
 ! D2    D(6,1,2,8)           -179.8908         -DE/DX =    0.0                 !
 ! D3    D(11,1,2,3)          -179.2227         -DE/DX =    0.0                 !
 ! D4    D(11,1,2,8)             0.5447         -DE/DX =    0.0                 !
 ! D5    D(2,1,6,5)             -0.9114         -DE/DX =    0.0                 !
 ! D6    D(2,1,6,7)           -177.6091         -DE/DX =    0.0                 !
 ! D7    D(11,1,6,5)           178.6913         -DE/DX =    0.0                 !
 ! D8    D(11,1,6,7)             1.9936         -DE/DX =    0.0                 !
 ! D9    D(2,1,11,12)            0.4358         -DE/DX =    0.0                 !
 ! D10   D(6,1,11,12)         -179.1417         -DE/DX =    0.0                 !
 ! D11   D(1,2,3,4)              0.5214         -DE/DX =    0.0                 !
 ! D12   D(1,2,3,9)            179.7934         -DE/DX =    0.0                 !
 ! D13   D(8,2,3,4)           -179.2486         -DE/DX =    0.0                 !
 ! D14   D(8,2,3,9)              0.0234         -DE/DX =    0.0                 !
 ! D15   D(2,3,4,5)             -0.8094         -DE/DX =    0.0                 !
 ! D16   D(2,3,4,16)           178.6554         -DE/DX =    0.0                 !
 ! D17   D(9,3,4,5)            179.9332         -DE/DX =    0.0                 !
 ! D18   D(9,3,4,16)            -0.6019         -DE/DX =    0.0                 !
 ! D19   D(3,4,5,6)              0.232          -DE/DX =    0.0                 !
 ! D20   D(3,4,5,10)          -179.5279         -DE/DX =    0.0                 !
 ! D21   D(16,4,5,6)          -179.2179         -DE/DX =    0.0                 !
 ! D22   D(16,4,5,10)            1.0222         -DE/DX =    0.0                 !
 ! D23   D(3,4,16,17)            3.028          -DE/DX =    0.0                 !
 ! D24   D(3,4,16,18)         -175.1582         -DE/DX =    0.0                 !
 ! D25   D(5,4,16,17)         -177.5284         -DE/DX =    0.0                 !
 ! D26   D(5,4,16,18)            4.2855         -DE/DX =    0.0                 !
 ! D27   D(4,5,6,1)              0.6211         -DE/DX =    0.0                 !
 ! D28   D(4,5,6,7)            177.3016         -DE/DX =    0.0                 !
 ! D29   D(10,5,6,1)          -179.608          -DE/DX =    0.0                 !
 ! D30   D(10,5,6,7)            -2.9274         -DE/DX =    0.0                 !
 ! D31   D(1,6,7,28)           -86.2833         -DE/DX =    0.0                 !
 ! D32   D(5,6,7,28)            97.0127         -DE/DX =    0.0                 !
 ! D33   D(6,7,28,29)          -62.5022         -DE/DX =    0.0                 !
 ! D34   D(6,7,28,30)          178.6827         -DE/DX =    0.0                 !
 ! D35   D(6,7,28,31)           59.5165         -DE/DX =    0.0                 !
 ! D36   D(1,11,12,13)          60.8121         -DE/DX =    0.0                 !
 ! D37   D(1,11,12,14)         -61.9149         -DE/DX =    0.0                 !
 ! D38   D(1,11,12,15)         179.4319         -DE/DX =    0.0                 !
 ! D39   D(4,16,17,20)         167.9548         -DE/DX =    0.0                 !
 ! D40   D(4,16,17,21)          45.2762         -DE/DX =    0.0                 !
 ! D41   D(4,16,17,22)         -72.7258         -DE/DX =    0.0                 !
 ! D42   D(18,16,17,20)        -13.6194         -DE/DX =    0.0                 !
 ! D43   D(18,16,17,21)       -136.298          -DE/DX =    0.0                 !
 ! D44   D(18,16,17,22)        105.7001         -DE/DX =    0.0                 !
 ! D45   D(4,16,18,19)         177.6015         -DE/DX =    0.0                 !
 ! D46   D(4,16,18,27)           2.5092         -DE/DX =    0.0                 !
 ! D47   D(17,16,18,19)         -0.8418         -DE/DX =    0.0                 !
 ! D48   D(17,16,18,27)       -175.9341         -DE/DX =    0.0                 !
 ! D49   D(16,17,20,19)         21.7805         -DE/DX =    0.0                 !
 ! D50   D(16,17,20,25)        -95.99           -DE/DX =    0.0                 !
 ! D51   D(16,17,20,26)        143.2157         -DE/DX =    0.0                 !
 ! D52   D(21,17,20,19)        143.5122         -DE/DX =    0.0                 !
 ! D53   D(21,17,20,25)         25.7418         -DE/DX =    0.0                 !
 ! D54   D(21,17,20,26)        -95.0525         -DE/DX =    0.0                 !
 ! D55   D(22,17,20,19)        -94.578          -DE/DX =    0.0                 !
 ! D56   D(22,17,20,25)        147.6515         -DE/DX =    0.0                 !
 ! D57   D(22,17,20,26)         26.8572         -DE/DX =    0.0                 !
 ! D58   D(16,18,19,20)         14.8993         -DE/DX =    0.0                 !
 ! D59   D(16,18,19,23)       -104.961          -DE/DX =    0.0                 !
 ! D60   D(16,18,19,24)        136.4441         -DE/DX =    0.0                 !
 ! D61   D(27,18,19,20)       -169.8631         -DE/DX =    0.0                 !
 ! D62   D(27,18,19,23)         70.2765         -DE/DX =    0.0                 !
 ! D63   D(27,18,19,24)        -48.3183         -DE/DX =    0.0                 !
 ! D64   D(18,19,20,17)        -21.7712         -DE/DX =    0.0                 !
 ! D65   D(18,19,20,25)         95.9766         -DE/DX =    0.0                 !
 ! D66   D(18,19,20,26)       -143.4865         -DE/DX =    0.0                 !
 ! D67   D(23,19,20,17)         94.6392         -DE/DX =    0.0                 !
 ! D68   D(23,19,20,25)       -147.613          -DE/DX =    0.0                 !
 ! D69   D(23,19,20,26)        -27.076          -DE/DX =    0.0                 !
 ! D70   D(24,19,20,17)       -139.9895         -DE/DX =    0.0                 !
 ! D71   D(24,19,20,25)        -22.2417         -DE/DX =    0.0                 !
 ! D72   D(24,19,20,26)         98.2953         -DE/DX =    0.0                 !
 --------------------------------------------------------------------------------
 Largest change from initial coordinates is atom   31       0.070 Angstoms.
 GradGradGradGradGradGradGradGradGradGradGradGradGradGradGradGradGradGrad

 Leave Link  103 at Tue Jul 28 03:22:12 2026, MaxMem=  4026531840 cpu:               0.2 elap:               0.0
 (Enter /opt/packages/gaussian/g16RevC.01/g16/l202.exe)
                          Input orientation:                          
 ---------------------------------------------------------------------
 Center     Atomic      Atomic             Coordinates (Angstroms)
 Number     Number       Type             X           Y           Z
 ---------------------------------------------------------------------
      1          6           0        2.066357   -0.522136   -0.103618
      2          6           0        1.237745   -1.641749    0.066194
      3          6           0       -0.144024   -1.488063    0.099001
      4          6           0       -0.740865   -0.219998   -0.046778
      5          6           0        0.103282    0.905684   -0.211369
      6          6           0        1.476357    0.764367   -0.233415
      7          8           0        2.280398    1.862426   -0.450002
      8          1           0        1.665272   -2.632267    0.169055
      9          1           0       -0.758543   -2.372749    0.228202
     10          1           0       -0.293875    1.910476   -0.321164
     11          8           0        3.410636   -0.561928   -0.164242
     12          6           0        4.081717   -1.832198   -0.059398
     13          1           0        3.775823   -2.496382   -0.874263
     14          1           0        3.877883   -2.295923    0.911255
     15          1           0        5.144059   -1.601022   -0.146194
     16          6           0       -2.183234   -0.105849   -0.036204
     17          6           0       -3.156766   -1.235776    0.184434
     18          7           0       -2.849130    0.999436   -0.251994
     19          6           0       -4.317099    0.857873   -0.244308
     20          6           0       -4.508145   -0.521724    0.404761
     21          1           0       -2.860969   -1.871995    1.022103
     22          1           0       -3.159638   -1.861873   -0.718634
     23          1           0       -4.674304    0.902144   -1.279390
     24          1           0       -4.760346    1.683430    0.317071
     25          1           0       -4.698338   -0.406725    1.476532
     26          1           0       -5.343951   -1.068390   -0.036893
     27          1           0       -2.409560    1.886807   -0.486426
     28          6           0        2.808755    2.475714    0.747099
     29          1           0        1.990245    2.856550    1.369185
     30          1           0        3.434961    3.304124    0.408985
     31          1           0        3.412498    1.761896    1.317962
 ---------------------------------------------------------------------
                    Distance matrix (angstroms):
                    1          2          3          4          5
     1  C    0.000000
     2  C    1.403199   0.000000
     3  C    2.420714   1.390677   0.000000
     4  C    2.824007   2.439064   1.409064   0.000000
     5  C    2.429804   2.802403   2.426420   1.416627   0.000000
     6  C    1.421281   2.436411   2.794562   2.433080   1.380504
     7  O    2.419077   3.692266   4.171930   3.691491   2.390007
     8  H    2.165149   1.083737   2.141883   3.413960   3.886082
     9  H    3.393366   2.132081   1.084894   2.170314   3.418199
    10  H    3.396414   3.887699   3.427690   2.194084   1.085999
    11  O    1.346234   2.437329   3.682748   4.167214   3.618660
    12  C    2.404140   2.853108   4.242689   5.084943   4.831877
    13  H    2.722832   2.838433   4.162830   5.125146   5.049856
    14  H    2.730918   2.848228   4.181882   5.153651   5.075252
    15  H    3.261603   3.912296   5.294970   6.045613   5.630032
    16  C    4.270465   3.751343   2.467220   1.446918   2.506400
    17  C    5.279515   4.414807   3.024493   2.630940   3.920514
    18  N    5.147739   4.876438   3.691673   2.444160   2.954180
    19  C    6.532437   6.099247   4.799565   3.740358   4.420763
    20  C    6.594129   5.863816   4.480274   3.806223   4.866454
    21  H    5.231435   4.215001   2.895049   2.892481   4.245438
    22  H    5.429932   4.472291   3.146774   2.999602   4.308519
    23  H    6.989101   6.575280   5.304384   4.272058   4.895510
    24  H    7.186472   6.862715   5.605029   4.462248   4.953687
    25  H    6.947755   6.225064   4.879412   4.244636   5.256138
    26  H    7.430714   6.607427   5.218604   4.680627   5.796530
    27  H    5.097390   5.104795   4.106717   2.723318   2.711574
    28  C    3.203433   4.459283   4.985024   4.527350   3.271580
    29  H    3.686525   4.743284   5.004412   4.350754   3.140805
    30  H    4.095865   5.422816   5.989181   5.483126   4.151799
    31  H    3.008287   4.228626   4.969603   4.800088   3.744711
                    6          7          8          9         10
     6  C    0.000000
     7  O    1.378087   0.000000
     8  H    3.425609   4.578632   0.000000
     9  H    3.879351   5.256598   2.438386   0.000000
    10  H    2.110684   2.577943   4.971427   4.343239   0.000000
    11  O    2.346334   2.690092   2.728312   4.562361   4.456547
    12  C    3.682436   4.128870   2.555682   4.878834   5.763847
    13  H    4.041128   4.627689   2.358263   4.668103   6.024015
    14  H    4.054994   4.657987   2.357888   4.687100   6.051133
    15  H    4.365171   4.504257   3.642089   5.964599   6.475520
    16  C    3.766799   4.895850   4.608245   2.690444   2.777849
    17  C    5.063694   6.290001   5.020206   2.654449   4.283769
    18  N    4.331910   5.205384   5.809163   3.996595   2.713689
    19  C    5.794221   6.676706   6.938350   4.829441   4.159352
    20  C    6.154313   7.245627   6.528478   4.185330   4.919617
    21  H    5.228683   6.522779   4.668251   2.302440   4.764601
    22  H    5.350236   6.598223   4.966010   2.631112   4.754071
    23  H    6.240487   7.069505   7.401370   5.322682   4.595986
    24  H    6.328047   7.084667   7.741816   5.698677   4.517550
    25  H    6.513235   7.587050   6.867173   4.576633   5.291543
    26  H    7.065000   8.178694   7.184520   4.774683   5.870070
    27  H    4.052682   4.690163   6.120126   4.623891   2.122261
    28  C    2.380210   1.445108   5.266228   6.041726   3.329714
    29  H    2.685077   2.093303   5.627880   6.016913   2.994920
    30  H    3.270959   2.037000   6.199202   7.060102   4.047172
    31  H    2.674038   2.101775   4.866360   5.973311   4.055369
                   11         12         13         14         15
    11  O    0.000000
    12  C    1.440460   0.000000
    13  H    2.092750   1.094860   0.000000
    14  H    2.093263   1.094877   1.799632   0.000000
    15  H    2.021088   1.090663   1.789923   1.790052   0.000000
    16  C    5.613893   6.498495   6.475134   6.513927   7.479096
    17  C    6.611083   7.267105   7.125360   7.151117   8.315433
    18  N    6.452150   7.489452   7.516513   7.580584   8.406227
    19  C    7.857490   8.821042   8.783124   8.856607   9.775956
    20  C    7.939300   8.701639   8.611580   8.586605   9.727975
    21  H    6.515883   7.026530   6.930590   6.753083   8.094370
    22  H    6.720544   7.271362   6.966164   7.236825   8.327492
    23  H    8.291763   9.253805   9.116949   9.389700  10.195599
    24  H    8.487535   9.522786   9.578951   9.529287  10.445070
    25  H    8.274763   9.026651   9.039044   8.800010  10.046511
    26  H    8.770150   9.456592   9.268799   9.351366  10.502095
    27  H    6.322562   7.493332   7.590898   7.679888   8.326937
    28  C    3.228014   4.563877   5.318437   4.892698   4.782405
    29  H    4.006857   5.329115   6.072498   5.506437   5.666822
    30  H    3.908394   5.198026   5.950528   5.639945   5.223954
    31  H    2.756282   3.906723   4.803206   4.104618   4.056017
                   16         17         18         19         20
    16  C    0.000000
    17  C    1.507707   0.000000
    18  N    1.308296   2.298104   0.000000
    19  C    2.350627   2.431781   1.474799   0.000000
    20  C    2.402626   1.544228   2.344693   1.536579   0.000000
    21  H    2.167627   1.092684   3.141429   3.343095   2.217551
    22  H    2.121955   1.098880   2.915691   2.993613   2.208277
    23  H    2.960910   3.002733   2.096728   1.095879   2.211645
    24  H    3.157187   3.333291   2.108181   1.092318   2.221261
    25  H    2.950364   2.175612   2.895628   2.169295   1.094573
    26  H    3.304030   2.204718   3.247507   2.192700   1.092004
    27  H    2.055384   3.280076   1.017649   2.180833   3.316519
    28  C    5.674327   7.048347   5.932053   7.374150   7.914471
    29  H    5.307435   6.681504   5.431082   6.810335   7.387281
    30  H    6.587127   8.006996   6.725942   8.155083   8.816466
    31  H    6.052641   7.309320   6.500316   7.937545   8.293700
                   21         22         23         24         25
    21  H    0.000000
    22  H    1.766202   0.000000
    23  H    4.034960   3.201320   0.000000
    24  H    4.092157   4.025435   1.779466   0.000000
    25  H    2.393626   3.050214   3.051036   2.391013   0.000000
    26  H    2.816461   2.421902   2.423888   2.835208   1.773435
    27  H    4.075294   3.830031   2.593727   2.492622   3.788403
    28  C    7.150103   7.522283   7.910686   7.622593   8.074464
    29  H    6.783353   7.289979   7.433093   6.932073   7.442959
    30  H    8.173547   8.452679   8.624402   8.354529   9.003367
    31  H    7.255969   7.776400   8.537083   8.234278   8.397246
                   26         27         28         29         30
    26  H    0.000000
    27  H    4.188785   0.000000
    28  C    8.924233   5.394368   0.000000
    29  H    8.436388   4.872574   1.096351   0.000000
    30  H    9.817688   6.080212   1.092117   1.791511   0.000000
    31  H    9.301697   6.096539   1.095411   1.795465   1.790310
                   31
    31  H    0.000000
 Stoichiometry    C12H16NO2(1+)
 Framework group  C1[X(C12H16NO2)]
 Deg. of freedom    87
 Full point group                 C1      NOp   1
 RotChk:  IX=0 Diff= 3.84D-16
 Largest Abelian subgroup         C1      NOp   1
 Largest concise Abelian subgroup C1      NOp   1
                         Standard orientation:                         
 ---------------------------------------------------------------------
 Center     Atomic      Atomic             Coordinates (Angstroms)
 Number     Number       Type             X           Y           Z
 ---------------------------------------------------------------------
      1          6           0        2.065016   -0.515650   -0.102135
      2          6           0        1.238558   -1.636561    0.069599
      3          6           0       -0.143533   -1.485576    0.101352
      4          6           0       -0.742835   -0.219019   -0.047414
      5          6           0        0.099143    0.908003   -0.213930
      6          6           0        1.472509    0.769393   -0.234953
      7          8           0        2.274464    1.868602   -0.453429
      8          1           0        1.668014   -2.626001    0.174773
      9          1           0       -0.756347   -2.371217    0.232092
     10          1           0       -0.299968    1.911763   -0.326053
     11          8           0        3.409405   -0.552874   -0.161964
     12          6           0        4.082973   -1.821572   -0.054089
     13          1           0        3.778844   -2.488083   -0.867715
     14          1           0        3.879551   -2.283660    0.917431
     15          1           0        5.144896   -1.588451   -0.140811
     16          6           0       -2.185436   -0.107740   -0.037843
     17          6           0       -3.156820   -1.239149    0.184662
     18          7           0       -2.853430    0.995751   -0.256313
     19          6           0       -4.321116    0.851262   -0.249104
     20          6           0       -4.509744   -0.527344    0.402770
     21          1           0       -2.860195   -1.873008    1.023825
     22          1           0       -3.157956   -1.867150   -0.717087
     23          1           0       -4.677858    0.892638   -1.284466
     24          1           0       -4.766315    1.677111    0.310300
     25          1           0       -4.700737   -0.410470    1.474195
     26          1           0       -5.344217   -1.076614   -0.038173
     27          1           0       -2.415513    1.883506   -0.492382
     28          6           0        2.800954    2.485468    0.742656
     29          1           0        1.981352    2.865972    1.363506
     30          1           0        3.425680    3.314418    0.403128
     31          1           0        3.405822    1.774066    1.315341
 ---------------------------------------------------------------------
 Rotational constants (GHZ):           1.2819979           0.3046417           0.2528488
 Leave Link  202 at Tue Jul 28 03:22:12 2026, MaxMem=  4026531840 cpu:               0.0 elap:               0.0
 (Enter /opt/packages/gaussian/g16RevC.01/g16/l601.exe)
 Copying SCF densities to generalized density rwf, IOpCl= 0 IROHF=0.

 **********************************************************************

            Population analysis using the SCF Density.

 **********************************************************************

 Orbital symmetries:
       Occupied  (A) (A) (A) (A) (A) (A) (A) (A) (A) (A) (A) (A)
                 (A) (A) (A) (A) (A) (A) (A) (A) (A) (A) (A) (A)
                 (A) (A) (A) (A) (A) (A) (A) (A) (A) (A) (A) (A)
                 (A) (A) (A) (A) (A) (A) (A) (A) (A) (A) (A) (A)
                 (A) (A) (A) (A) (A) (A) (A)
       Virtual   (A) (A) (A) (A) (A) (A) (A) (A) (A) (A) (A) (A)
                 (A) (A) (A) (A) (A) (A) (A) (A) (A) (A) (A) (A)
                 (A) (A) (A) (A) (A) (A) (A) (A) (A) (A) (A) (A)
                 (A) (A) (A) (A) (A) (A) (A) (A) (A) (A) (A) (A)
                 (A) (A) (A) (A) (A) (A) (A) (A) (A) (A) (A) (A)
                 (A) (A) (A) (A) (A) (A) (A) (A) (A) (A) (A) (A)
                 (A) (A) (A) (A) (A) (A) (A) (A) (A) (A) (A) (A)
                 (A) (A) (A) (A) (A) (A) (A) (A) (A) (A) (A) (A)
                 (A) (A) (A) (A) (A) (A) (A) (A) (A) (A) (A) (A)
                 (A) (A) (A) (A) (A) (A) (A) (A) (A) (A) (A) (A)
                 (A) (A) (A) (A) (A) (A) (A) (A) (A) (A) (A) (A)
                 (A) (A) (A) (A) (A) (A) (A) (A) (A) (A) (A) (A)
                 (A) (A) (A) (A) (A) (A) (A) (A) (A) (A) (A) (A)
                 (A) (A) (A) (A) (A) (A) (A) (A) (A) (A) (A) (A)
                 (A) (A) (A) (A) (A) (A) (A) (A) (A) (A) (A) (A)
                 (A) (A) (A) (A) (A) (A) (A) (A) (A) (A) (A) (A)
                 (A) (A) (A) (A) (A) (A) (A) (A) (A) (A) (A) (A)
                 (A) (A) (A) (A) (A) (A) (A) (A) (A) (A) (A) (A)
                 (A) (A) (A) (A) (A) (A) (A) (A) (A) (A) (A) (A)
                 (A) (A) (A) (A) (A) (A) (A) (A) (A) (A) (A) (A)
                 (A) (A) (A) (A) (A) (A) (A) (A) (A) (A) (A) (A)
                 (A) (A) (A) (A) (A) (A) (A) (A)
 The electronic state is 1-A.
 Alpha  occ. eigenvalues --  -19.21071 -19.18667 -14.42230 -10.29952 -10.28334
 Alpha  occ. eigenvalues --  -10.26555 -10.24079 -10.23935 -10.23458 -10.22928
 Alpha  occ. eigenvalues --  -10.22258 -10.22081 -10.21250 -10.21119 -10.20125
 Alpha  occ. eigenvalues --   -1.09602  -1.06220  -1.01314  -0.88127  -0.80607
 Alpha  occ. eigenvalues --   -0.80267  -0.77482  -0.75408  -0.71535  -0.69567
 Alpha  occ. eigenvalues --   -0.63832  -0.63613  -0.61837  -0.61274  -0.56435
 Alpha  occ. eigenvalues --   -0.54176  -0.52136  -0.50892  -0.50308  -0.48588
 Alpha  occ. eigenvalues --   -0.47161  -0.46182  -0.45989  -0.45078  -0.43986
 Alpha  occ. eigenvalues --   -0.43262  -0.42734  -0.41492  -0.40921  -0.39011
 Alpha  occ. eigenvalues --   -0.38713  -0.38439  -0.37156  -0.36510  -0.34800
 Alpha  occ. eigenvalues --   -0.34507  -0.32185  -0.29316  -0.27285  -0.24675
 Alpha virt. eigenvalues --   -0.09027  -0.02768   0.00172   0.01445   0.01722
 Alpha virt. eigenvalues --    0.01833   0.02560   0.02941   0.03074   0.03784
 Alpha virt. eigenvalues --    0.04126   0.04789   0.05161   0.05558   0.06178
 Alpha virt. eigenvalues --    0.06688   0.07400   0.07557   0.07863   0.08970
 Alpha virt. eigenvalues --    0.09614   0.09674   0.10330   0.11088   0.11266
 Alpha virt. eigenvalues --    0.11740   0.11932   0.12376   0.12805   0.13118
 Alpha virt. eigenvalues --    0.13890   0.14132   0.14427   0.15047   0.15181
 Alpha virt. eigenvalues --    0.15611   0.16307   0.16706   0.16736   0.17064
 Alpha virt. eigenvalues --    0.17699   0.18435   0.18708   0.19254   0.19696
 Alpha virt. eigenvalues --    0.19968   0.20565   0.20845   0.21610   0.22026
 Alpha virt. eigenvalues --    0.22444   0.22836   0.23665   0.23925   0.24481
 Alpha virt. eigenvalues --    0.24749   0.25013   0.25199   0.26011   0.26092
 Alpha virt. eigenvalues --    0.26334   0.26905   0.27228   0.27907   0.28283
 Alpha virt. eigenvalues --    0.28785   0.29248   0.29985   0.30581   0.31061
 Alpha virt. eigenvalues --    0.31637   0.32084   0.32341   0.32683   0.33209
 Alpha virt. eigenvalues --    0.33361   0.33543   0.34440   0.35297   0.35863
 Alpha virt. eigenvalues --    0.36751   0.38314   0.38727   0.39759   0.40825
 Alpha virt. eigenvalues --    0.42444   0.43332   0.44351   0.45653   0.46213
 Alpha virt. eigenvalues --    0.47044   0.51127   0.57656   0.60308   0.62700
 Alpha virt. eigenvalues --    0.65034   0.65372   0.65938   0.67147   0.68124
 Alpha virt. eigenvalues --    0.68558   0.69092   0.69235   0.70002   0.70346
 Alpha virt. eigenvalues --    0.71287   0.72377   0.72712   0.73614   0.75316
 Alpha virt. eigenvalues --    0.75776   0.77078   0.77536   0.78443   0.78808
 Alpha virt. eigenvalues --    0.80348   0.82962   0.84419   0.85029   0.85597
 Alpha virt. eigenvalues --    0.89040   0.90046   0.92321   0.92565   0.93651
 Alpha virt. eigenvalues --    0.94131   0.95093   0.96643   0.97329   0.98655
 Alpha virt. eigenvalues --    0.98759   0.99363   1.03188   1.04448   1.05234
 Alpha virt. eigenvalues --    1.06056   1.07469   1.08130   1.08888   1.11187
 Alpha virt. eigenvalues --    1.11317   1.12480   1.13169   1.14610   1.15485
 Alpha virt. eigenvalues --    1.16627   1.19194   1.19668   1.20821   1.21381
 Alpha virt. eigenvalues --    1.23375   1.24014   1.24750   1.27116   1.27172
 Alpha virt. eigenvalues --    1.28965   1.29525   1.33978   1.34847   1.35899
 Alpha virt. eigenvalues --    1.37206   1.37937   1.40198   1.41006   1.43546
 Alpha virt. eigenvalues --    1.46142   1.48110   1.48979   1.50556   1.52225
 Alpha virt. eigenvalues --    1.53037   1.54802   1.57096   1.60100   1.63155
 Alpha virt. eigenvalues --    1.63487   1.71899   1.72626   1.74985   1.76650
 Alpha virt. eigenvalues --    1.79778   1.80191   1.81352   1.81820   1.83412
 Alpha virt. eigenvalues --    1.84764   1.88201   1.90861   1.91807   1.92701
 Alpha virt. eigenvalues --    1.94945   1.95703   1.97532   1.99156   2.01011
 Alpha virt. eigenvalues --    2.02793   2.03689   2.04964   2.06072   2.08521
 Alpha virt. eigenvalues --    2.09139   2.10539   2.12119   2.13233   2.15307
 Alpha virt. eigenvalues --    2.17381   2.18059   2.19048   2.21191   2.24016
 Alpha virt. eigenvalues --    2.25503   2.27516   2.28211   2.29964   2.30531
 Alpha virt. eigenvalues --    2.32729   2.35690   2.36848   2.39007   2.41375
 Alpha virt. eigenvalues --    2.45107   2.47690   2.48776   2.51206   2.54249
 Alpha virt. eigenvalues --    2.57316   2.60645   2.62759   2.63647   2.66004
 Alpha virt. eigenvalues --    2.66305   2.68479   2.75907   2.77553   2.80103
 Alpha virt. eigenvalues --    2.81191   2.85239   2.87829   2.91743   3.00671
 Alpha virt. eigenvalues --    3.04470   3.10518   3.14360   3.27795   3.44322
 Alpha virt. eigenvalues --    4.09330   4.19927   4.24145   4.26149   4.29272
 Alpha virt. eigenvalues --    4.33251   4.34495   4.36528   4.37857   4.42960
 Alpha virt. eigenvalues --    4.47596   4.54683   4.61114   4.69114   5.03151
          Condensed to atoms (all electrons):
               1          2          3          4          5          6
     1  C   16.871725   2.329233  -1.159575  -1.944789  -5.025010  -5.620553
     2  C    2.329233  10.342264  -1.696427  -1.805843   1.845021  -6.228482
     3  C   -1.159575  -1.696427  16.308777   3.900876  -9.421383   3.123727
     4  C   -1.944789  -1.805843   3.900876  14.311579  -6.661721   1.626837
     5  C   -5.025010   1.845021  -9.421383  -6.661721  24.956664  -4.992232
     6  C   -5.620553  -6.228482   3.123727   1.626837  -4.992232  20.788605
     7  O   -0.031239   0.098916  -0.061194  -0.013737  -0.294805   0.321132
     8  H   -0.097969   0.267326   0.072158   0.044122  -0.030076   0.059497
     9  H    0.032388   0.048670   0.197602  -0.045066   0.069195  -0.054028
    10  H    0.047199  -0.004304  -0.020114  -0.103391   0.335277  -0.032502
    11  O    0.485227   0.219995   0.038221  -0.016816   0.039403  -0.778933
    12  C   -0.240383  -0.259582  -0.062320  -0.009687   0.093486   0.263618
    13  H   -0.062377   0.047336   0.019657   0.000288  -0.004968  -0.013863
    14  H   -0.061681   0.036660   0.015258   0.003424  -0.001343  -0.001818
    15  H    0.024599  -0.066449  -0.011523  -0.001061   0.007041   0.050833
    16  C    0.041125   0.775746  -2.597697  -2.129217   3.991724  -1.718291
    17  C   -0.067654   0.128270  -0.924168  -1.208455   0.419187  -0.221852
    18  N   -0.015680  -0.050892  -0.108874   0.087039   0.065036   0.180141
    19  C   -0.005378  -0.005045  -0.000782  -0.009719  -0.106612  -0.006917
    20  C   -0.007761  -0.015436  -0.096685   0.035435   0.115031   0.040509
    21  H    0.000278  -0.002529   0.023484  -0.022591  -0.015032   0.004349
    22  H   -0.001281  -0.008653  -0.032036   0.015973   0.015717   0.006408
    23  H   -0.000169  -0.000804  -0.007451  -0.015737   0.009569   0.001626
    24  H    0.000029  -0.000079   0.001805   0.005353  -0.005793  -0.000292
    25  H    0.000001  -0.000649  -0.009551   0.000112   0.010447   0.000909
    26  H    0.000056   0.000610   0.002632  -0.000682  -0.001209  -0.000405
    27  H    0.005621  -0.003380  -0.050772  -0.129753   0.125367   0.045454
    28  C   -0.138644  -0.026493  -0.003216  -0.056752   0.043304  -0.054385
    29  H   -0.022036   0.011062  -0.013051  -0.038634   0.086089  -0.028433
    30  H    0.007617   0.000068   0.000045  -0.001971  -0.002536  -0.001376
    31  H   -0.009187  -0.021521   0.016294   0.019787  -0.064961   0.057962
               7          8          9         10         11         12
     1  C   -0.031239  -0.097969   0.032388   0.047199   0.485227  -0.240383
     2  C    0.098916   0.267326   0.048670  -0.004304   0.219995  -0.259582
     3  C   -0.061194   0.072158   0.197602  -0.020114   0.038221  -0.062320
     4  C   -0.013737   0.044122  -0.045066  -0.103391  -0.016816  -0.009687
     5  C   -0.294805  -0.030076   0.069195   0.335277   0.039403   0.093486
     6  C    0.321132   0.059497  -0.054028  -0.032502  -0.778933   0.263618
     7  O    8.454706  -0.000704   0.000129  -0.002429   0.019582   0.000074
     8  H   -0.000704   0.461696  -0.003629   0.000012  -0.011512  -0.004838
     9  H    0.000129  -0.003629   0.466982  -0.000104  -0.000677   0.001123
    10  H   -0.002429   0.000012  -0.000104   0.471421  -0.000460   0.000422
    11  O    0.019582  -0.011512  -0.000677  -0.000460   8.513215   0.041694
    12  C    0.000074  -0.004838   0.001123   0.000422   0.041694   5.343093
    13  H    0.000131  -0.000873   0.000003   0.000000  -0.034583   0.387327
    14  H    0.000009  -0.000927   0.000003   0.000000  -0.031473   0.383694
    15  H   -0.000316   0.000136  -0.000000  -0.000000  -0.054519   0.398647
    16  C    0.001166  -0.001107   0.041374   0.045891  -0.005021   0.006229
    17  C   -0.001691   0.003636   0.004122   0.018804  -0.000429   0.000157
    18  N    0.000067   0.000089   0.000001  -0.001917   0.000100  -0.000282
    19  C    0.000335   0.000046   0.001060   0.004260  -0.000008   0.000061
    20  C   -0.000280  -0.000049  -0.001501  -0.000840   0.000059  -0.000101
    21  H    0.000001   0.000001  -0.000022   0.000001  -0.000001  -0.000029
    22  H   -0.000001  -0.000000  -0.000948  -0.000003   0.000001  -0.000004
    23  H   -0.000000   0.000000  -0.000000  -0.000002   0.000000  -0.000000
    24  H    0.000000   0.000000   0.000000   0.000002  -0.000000  -0.000000
    25  H    0.000000   0.000000  -0.000006  -0.000001   0.000000  -0.000000
    26  H    0.000000   0.000000   0.000001   0.000000  -0.000000   0.000000
    27  H    0.000101   0.000000   0.000001   0.004755  -0.000002   0.000003
    28  C    0.090095  -0.000201  -0.000071   0.000695   0.009977  -0.003307
    29  H   -0.048066  -0.000000  -0.000000   0.000118   0.000362  -0.000024
    30  H   -0.044931  -0.000000   0.000000  -0.000034  -0.000431  -0.000800
    31  H   -0.049834   0.000008   0.000000   0.000018   0.001962   0.001291
              13         14         15         16         17         18
     1  C   -0.062377  -0.061681   0.024599   0.041125  -0.067654  -0.015680
     2  C    0.047336   0.036660  -0.066449   0.775746   0.128270  -0.050892
     3  C    0.019657   0.015258  -0.011523  -2.597697  -0.924168  -0.108874
     4  C    0.000288   0.003424  -0.001061  -2.129217  -1.208455   0.087039
     5  C   -0.004968  -0.001343   0.007041   3.991724   0.419187   0.065036
     6  C   -0.013863  -0.001818   0.050833  -1.718291  -0.221852   0.180141
     7  O    0.000131   0.000009  -0.000316   0.001166  -0.001691   0.000067
     8  H   -0.000873  -0.000927   0.000136  -0.001107   0.003636   0.000089
     9  H    0.000003   0.000003  -0.000000   0.041374   0.004122   0.000001
    10  H    0.000000   0.000000  -0.000000   0.045891   0.018804  -0.001917
    11  O   -0.034583  -0.031473  -0.054519  -0.005021  -0.000429   0.000100
    12  C    0.387327   0.383694   0.398647   0.006229   0.000157  -0.000282
    13  H    0.480845  -0.035970  -0.024723   0.000161  -0.000037  -0.000000
    14  H   -0.035970   0.478148  -0.025315   0.000330   0.000070  -0.000001
    15  H   -0.024723  -0.025315   0.464170  -0.000094  -0.000008   0.000000
    16  C    0.000161   0.000330  -0.000094   7.757001  -1.013618   0.307189
    17  C   -0.000037   0.000070  -0.000008  -1.013618   9.288842  -0.377875
    18  N   -0.000000  -0.000001   0.000000   0.307189  -0.377875   7.006657
    19  C    0.000001   0.000000  -0.000000  -0.508440   0.405538   0.091289
    20  C   -0.000003   0.000002  -0.000000   0.263239  -0.859090  -0.045421
    21  H   -0.000000   0.000000  -0.000000  -0.087451   0.418219   0.009191
    22  H    0.000000  -0.000000   0.000000  -0.021851   0.334145   0.005072
    23  H   -0.000000   0.000000   0.000000  -0.023810   0.024072  -0.034036
    24  H    0.000000  -0.000000   0.000000  -0.015081   0.042160  -0.037048
    25  H    0.000000  -0.000000   0.000000   0.035960  -0.123979   0.012555
    26  H   -0.000000   0.000000  -0.000000   0.023664  -0.072973   0.005958
    27  H   -0.000000   0.000000  -0.000000  -0.002439  -0.007847   0.251990
    28  C    0.000808  -0.001495  -0.000059  -0.001987  -0.002448   0.000836
    29  H    0.000000  -0.000000   0.000000   0.005140  -0.000078   0.000063
    30  H   -0.000000   0.000000  -0.000000  -0.000044  -0.000003  -0.000001
    31  H   -0.000001   0.000012  -0.000016  -0.002294   0.000056  -0.000001
              19         20         21         22         23         24
     1  C   -0.005378  -0.007761   0.000278  -0.001281  -0.000169   0.000029
     2  C   -0.005045  -0.015436  -0.002529  -0.008653  -0.000804  -0.000079
     3  C   -0.000782  -0.096685   0.023484  -0.032036  -0.007451   0.001805
     4  C   -0.009719   0.035435  -0.022591   0.015973  -0.015737   0.005353
     5  C   -0.106612   0.115031  -0.015032   0.015717   0.009569  -0.005793
     6  C   -0.006917   0.040509   0.004349   0.006408   0.001626  -0.000292
     7  O    0.000335  -0.000280   0.000001  -0.000001  -0.000000   0.000000
     8  H    0.000046  -0.000049   0.000001  -0.000000   0.000000   0.000000
     9  H    0.001060  -0.001501  -0.000022  -0.000948  -0.000000   0.000000
    10  H    0.004260  -0.000840   0.000001  -0.000003  -0.000002   0.000002
    11  O   -0.000008   0.000059  -0.000001   0.000001   0.000000  -0.000000
    12  C    0.000061  -0.000101  -0.000029  -0.000004  -0.000000  -0.000000
    13  H    0.000001  -0.000003  -0.000000   0.000000  -0.000000   0.000000
    14  H    0.000000   0.000002   0.000000  -0.000000   0.000000  -0.000000
    15  H   -0.000000  -0.000000  -0.000000   0.000000   0.000000   0.000000
    16  C   -0.508440   0.263239  -0.087451  -0.021851  -0.023810  -0.015081
    17  C    0.405538  -0.859090   0.418219   0.334145   0.024072   0.042160
    18  N    0.091289  -0.045421   0.009191   0.005072  -0.034036  -0.037048
    19  C    6.012839  -0.272994   0.024838   0.003030   0.416462   0.431393
    20  C   -0.272994   6.673105  -0.033302  -0.010501  -0.055593  -0.095203
    21  H    0.024838  -0.033302   0.438400  -0.024597  -0.000193  -0.000038
    22  H    0.003030  -0.010501  -0.024597   0.435128   0.001121  -0.000169
    23  H    0.416462  -0.055593  -0.000193   0.001121   0.459704  -0.031273
    24  H    0.431393  -0.095203  -0.000038  -0.000169  -0.031273   0.456669
    25  H   -0.091019   0.486473  -0.005515   0.003027   0.003048  -0.005724
    26  H   -0.059896   0.430406   0.001122  -0.004896  -0.003781   0.001552
    27  H   -0.027856   0.018933  -0.000095  -0.000230   0.000076  -0.000823
    28  C    0.000539  -0.000859   0.000004   0.000012  -0.000005   0.000001
    29  H   -0.000034   0.000009  -0.000000  -0.000000   0.000000   0.000000
    30  H   -0.000002   0.000002  -0.000000  -0.000000   0.000000  -0.000000
    31  H    0.000005   0.000001  -0.000000   0.000000  -0.000000   0.000000
              25         26         27         28         29         30
     1  C    0.000001   0.000056   0.005621  -0.138644  -0.022036   0.007617
     2  C   -0.000649   0.000610  -0.003380  -0.026493   0.011062   0.000068
     3  C   -0.009551   0.002632  -0.050772  -0.003216  -0.013051   0.000045
     4  C    0.000112  -0.000682  -0.129753  -0.056752  -0.038634  -0.001971
     5  C    0.010447  -0.001209   0.125367   0.043304   0.086089  -0.002536
     6  C    0.000909  -0.000405   0.045454  -0.054385  -0.028433  -0.001376
     7  O    0.000000   0.000000   0.000101   0.090095  -0.048066  -0.044931
     8  H    0.000000   0.000000   0.000000  -0.000201  -0.000000  -0.000000
     9  H   -0.000006   0.000001   0.000001  -0.000071  -0.000000   0.000000
    10  H   -0.000001   0.000000   0.004755   0.000695   0.000118  -0.000034
    11  O    0.000000  -0.000000  -0.000002   0.009977   0.000362  -0.000431
    12  C   -0.000000   0.000000   0.000003  -0.003307  -0.000024  -0.000800
    13  H    0.000000  -0.000000  -0.000000   0.000808   0.000000  -0.000000
    14  H   -0.000000   0.000000   0.000000  -0.001495  -0.000000   0.000000
    15  H    0.000000  -0.000000  -0.000000  -0.000059   0.000000  -0.000000
    16  C    0.035960   0.023664  -0.002439  -0.001987   0.005140  -0.000044
    17  C   -0.123979  -0.072973  -0.007847  -0.002448  -0.000078  -0.000003
    18  N    0.012555   0.005958   0.251990   0.000836   0.000063  -0.000001
    19  C   -0.091019  -0.059896  -0.027856   0.000539  -0.000034  -0.000002
    20  C    0.486473   0.430406   0.018933  -0.000859   0.000009   0.000002
    21  H   -0.005515   0.001122  -0.000095   0.000004  -0.000000  -0.000000
    22  H    0.003027  -0.004896  -0.000230   0.000012  -0.000000  -0.000000
    23  H    0.003048  -0.003781   0.000076  -0.000005   0.000000   0.000000
    24  H   -0.005724   0.001552  -0.000823   0.000001   0.000000  -0.000000
    25  H    0.460926  -0.025436  -0.000171   0.000003  -0.000000  -0.000000
    26  H   -0.025436   0.458420  -0.000073  -0.000000  -0.000000   0.000000
    27  H   -0.000171  -0.000073   0.278923   0.000099  -0.000002   0.000000
    28  C    0.000003  -0.000000   0.000099   5.365795   0.385515   0.392112
    29  H   -0.000000  -0.000000  -0.000002   0.385515   0.502893  -0.026488
    30  H   -0.000000   0.000000   0.000000   0.392112  -0.026488   0.477352
    31  H   -0.000000   0.000000   0.000000   0.390476  -0.037558  -0.025942
              31
     1  C   -0.009187
     2  C   -0.021521
     3  C    0.016294
     4  C    0.019787
     5  C   -0.064961
     6  C    0.057962
     7  O   -0.049834
     8  H    0.000008
     9  H    0.000000
    10  H    0.000018
    11  O    0.001962
    12  C    0.001291
    13  H   -0.000001
    14  H    0.000012
    15  H   -0.000016
    16  C   -0.002294
    17  C    0.000056
    18  N   -0.000001
    19  C    0.000005
    20  C    0.000001
    21  H   -0.000000
    22  H    0.000000
    23  H   -0.000000
    24  H    0.000000
    25  H   -0.000000
    26  H    0.000000
    27  H    0.000000
    28  C    0.390476
    29  H   -0.037558
    30  H   -0.025942
    31  H    0.497243
 Mulliken charges:
               1
     1  C    0.666267
     2  C    0.045391
     3  C   -1.443715
     4  C    0.164795
     5  C    0.400123
     6  C   -0.817247
     7  O   -0.437218
     8  H    0.243163
     9  H    0.243401
    10  H    0.237226
    11  O   -0.434933
    12  C   -0.339561
    13  H    0.240842
    14  H    0.242413
    15  H    0.238656
    16  C    0.832505
    17  C   -0.205074
    18  N   -0.351248
    19  C   -0.296994
    20  C   -0.567585
    21  H    0.271506
    22  H    0.285535
    23  H    0.257180
    24  H    0.252559
    25  H    0.248590
    26  H    0.244929
    27  H    0.492121
    28  C   -0.390348
    29  H    0.223154
    30  H    0.227362
    31  H    0.226203
 Sum of Mulliken charges =   1.00000
 Mulliken charges with hydrogens summed into heavy atoms:
               1
     1  C    0.666267
     2  C    0.288554
     3  C   -1.200314
     4  C    0.164795
     5  C    0.637350
     6  C   -0.817247
     7  O   -0.437218
    11  O   -0.434933
    12  C    0.382350
    16  C    0.832505
    17  C    0.351967
    18  N    0.140874
    19  C    0.212745
    20  C   -0.074066
    28  C    0.286370
 Electronic spatial extent (au):  <R**2>=           4260.1953
 Charge=              1.0000 electrons
 Dipole moment (field-independent basis, Debye):
    X=             -8.7415    Y=             -1.4213    Z=              1.5051  Tot=              8.9833
 Quadrupole moment (field-independent basis, Debye-Ang):
   XX=            -31.2439   YY=            -65.1038   ZZ=            -88.5068
   XY=            -13.1530   XZ=              7.7699   YZ=              1.9676
 Traceless Quadrupole moment (field-independent basis, Debye-Ang):
   XX=             30.3743   YY=             -3.4856   ZZ=            -26.8887
   XY=            -13.1530   XZ=              7.7699   YZ=              1.9676
 Octapole moment (field-independent basis, Debye-Ang**2):
  XXX=            -95.2757  YYY=              5.2599  ZZZ=              0.1257  XYY=              9.3045
  XXY=            -17.9085  XXZ=              8.9167  XZZ=             -5.3003  YZZ=              2.0455
  YYZ=              7.9549  XYZ=             15.6998
 Hexadecapole moment (field-independent basis, Debye-Ang**3):
 XXXX=          -3312.6956 YYYY=           -957.1196 ZZZZ=           -180.5748 XXXY=           -197.1349
 XXXZ=             70.2380 YYYX=            -34.7966 YYYZ=             10.6105 ZZZX=              3.5558
 ZZZY=             -0.7512 XXYY=           -691.7585 XXZZ=           -726.0995 YYZZ=           -209.6245
 XXYZ=             21.2832 YYXZ=             30.2863 ZZXY=             -4.3072
 N-N= 9.802632702600D+02 E-N=-3.505431499016D+03  KE= 6.654954796097D+02
 No NMR shielding tensors so no spin-rotation constants.
 Leave Link  601 at Tue Jul 28 03:22:12 2026, MaxMem=  4026531840 cpu:               0.6 elap:               0.1
 (Enter /opt/packages/gaussian/g16RevC.01/g16/l9999.exe)
 Unable to Open any file for archive entry.
 1\1\GINC-R049\FOpt\RB3LYP\6-31+G(d)\C12H16N1O2(1+)\ZLAB\28-Jul-2026\0\
 \#p B3LYP/6-31+G(d) Opt SCRF=(SMD,Solvent=Methanol)\\Ground-state geom
 etry optimization (S0)\\1,1\C,2.0663573821,-0.5221364958,-0.103618195\
 C,1.2377447025,-1.6417491413,0.0661941883\C,-0.14402438,-1.4880631551,
 0.0990010121\C,-0.7408645516,-0.2199975449,-0.0467777724\C,0.103282220
 5,0.9056842326,-0.2113685467\C,1.4763567531,0.7643673476,-0.2334147827
 \O,2.280397662,1.8624258858,-0.4500022622\H,1.6652718766,-2.6322669427
 ,0.1690551905\H,-0.7585426541,-2.3727485788,0.2282020781\H,-0.29387526
 75,1.9104755359,-0.3211642696\O,3.4106364777,-0.5619283593,-0.16424157
 19\C,4.0817171929,-1.8321976183,-0.0593976551\H,3.7758230156,-2.496382
 1939,-0.8742632545\H,3.8778831724,-2.2959225646,0.9112550558\H,5.14405
 93108,-1.6010220317,-0.1461943188\C,-2.1832344042,-0.1058494002,-0.036
 2044269\C,-3.1567660785,-1.235776332,0.184434301\N,-2.8491304836,0.999
 435772,-0.2519941265\C,-4.3170992158,0.8578725645,-0.2443075109\C,-4.5
 081454686,-0.5217237727,0.4047612209\H,-2.8609692884,-1.8719948143,1.0
 221030504\H,-3.1596380568,-1.8618727839,-0.7186339088\H,-4.6743041897,
 0.9021437414,-1.2793903308\H,-4.7603460693,1.6834303543,0.3170709585\H
 ,-4.698338263,-0.4067249247,1.4765320672\H,-5.3439510726,-1.0683902665
 ,-0.0368926247\H,-2.4095600288,1.88680732,-0.48642591\C,2.8087548704,2
 .4757138377,0.7470993768\H,1.9902449873,2.8565501545,1.369185471\H,3.4
 349614338,3.3041240233,0.4089853011\H,3.4124984147,1.761896151,1.31796
 21958\\Version=ES64L-G16RevC.01\State=1-A\HF=-671.9811833\RMSD=7.420e-
 09\RMSF=7.640e-06\Dipole=-3.439987,-0.5535391,0.5928004\Quadrupole=22.
 5493075,-2.5583738,-19.9909337,-9.8406291,5.7364586,1.4932051\PG=C01 [
 X(C12H16N1O2)]\\@
 The archive entry for this job was punched.


 O WAD SOME POWER THE GIFTIE GIE US       
 TO SEE OURSELS AS OTHERS SEE US.....     
 IT WOULD FRAE MONIE A BLUNDER FREE US,   
                     AND FOOLISH NOTION...
 WHAT AIRS IN DRESS AND GAIT WAD LEA'E US,
                     AND EV'N DEVOTION....
                                          
              (ROBERT BURNS 'TO A LOUSE') 
 Job cpu time:       0 days  0 hours 53 minutes  6.7 seconds.
 Elapsed time:       0 days  0 hours  6 minutes 51.2 seconds.
 File lengths (MBytes):  RWF=    229 Int=      0 D2E=      0 Chk=     12 Scr=      1
 Normal termination of Gaussian 16 at Tue Jul 28 03:22:13 2026.
