 Entering Gaussian System, Link 0=g16
 Initial command:
 /opt/packages/gaussian/g16RevC.01/g16/l1.exe "/ocean/projects/che200051p/zlab/tmp/Gau-72998.inp" -scrdir="/ocean/projects/che200051p/zlab/tmp/"
 Entering Link 1 = /opt/packages/gaussian/g16RevC.01/g16/l1.exe PID=     72999.
  
 Copyright (c) 1988-2019, Gaussian, Inc.  All Rights Reserved.
  
 This is part of the Gaussian(R) 16 program.  It is based on
 the Gaussian(R) 09 system (copyright 2009, Gaussian, Inc.),
 the Gaussian(R) 03 system (copyright 2003, Gaussian, Inc.),
 the Gaussian(R) 98 system (copyright 1998, Gaussian, Inc.),
 the Gaussian(R) 94 system (copyright 1995, Gaussian, Inc.),
 the Gaussian 92(TM) system (copyright 1992, Gaussian, Inc.),
 the Gaussian 90(TM) system (copyright 1990, Gaussian, Inc.),
 the Gaussian 88(TM) system (copyright 1988, Gaussian, Inc.),
 the Gaussian 86(TM) system (copyright 1986, Carnegie Mellon
 University), and the Gaussian 82(TM) system (copyright 1983,
 Carnegie Mellon University). Gaussian is a federally registered
 trademark of Gaussian, Inc.
  
 This software contains proprietary and confidential information,
 including trade secrets, belonging to Gaussian, Inc.
  
 This software is provided under written license and may be
 used, copied, transmitted, or stored only in accord with that
 written license.
  
 The following legend is applicable only to US Government
 contracts under FAR:
  
                    RESTRICTED RIGHTS LEGEND
  
 Use, reproduction and disclosure by the US Government is
 subject to restrictions as set forth in subparagraphs (a)
 and (c) of the Commercial Computer Software - Restricted
 Rights clause in FAR 52.227-19.
  
 Gaussian, Inc.
 340 Quinnipiac St., Bldg. 40, Wallingford CT 06492
  
  
 ---------------------------------------------------------------
 Warning -- This program may not be used in any manner that
 competes with the business of Gaussian, Inc. or will provide
 assistance to any competitor of Gaussian, Inc.  The licensee
 of this program is prohibited from giving any competitor of
 Gaussian, Inc. access to this program.  By using this program,
 the user acknowledges that Gaussian, Inc. is engaged in the
 business of creating and licensing software in the field of
 computational chemistry and represents and warrants to the
 licensee that it is not a competitor of Gaussian, Inc. and that
 it will not use this program in any manner prohibited above.
 ---------------------------------------------------------------
  

 Cite this work as:
 Gaussian 16, Revision C.01,
 M. J. Frisch, G. W. Trucks, H. B. Schlegel, G. E. Scuseria, 
 M. A. Robb, J. R. Cheeseman, G. Scalmani, V. Barone, 
 G. A. Petersson, H. Nakatsuji, X. Li, M. Caricato, A. V. Marenich, 
 J. Bloino, B. G. Janesko, R. Gomperts, B. Mennucci, H. P. Hratchian, 
 J. V. Ortiz, A. F. Izmaylov, J. L. Sonnenberg, D. Williams-Young, 
 F. Ding, F. Lipparini, F. Egidi, J. Goings, B. Peng, A. Petrone, 
 T. Henderson, D. Ranasinghe, V. G. Zakrzewski, J. Gao, N. Rega, 
 G. Zheng, W. Liang, M. Hada, M. Ehara, K. Toyota, R. Fukuda, 
 J. Hasegawa, M. Ishida, T. Nakajima, Y. Honda, O. Kitao, H. Nakai, 
 T. Vreven, K. Throssell, J. A. Montgomery, Jr., J. E. Peralta, 
 F. Ogliaro, M. J. Bearpark, J. J. Heyd, E. N. Brothers, K. N. Kudin, 
 V. N. Staroverov, T. A. Keith, R. Kobayashi, J. Normand, 
 K. Raghavachari, A. P. Rendell, J. C. Burant, S. S. Iyengar, 
 J. Tomasi, M. Cossi, J. M. Millam, M. Klene, C. Adamo, R. Cammi, 
 J. W. Ochterski, R. L. Martin, K. Morokuma, O. Farkas, 
 J. B. Foresman, and D. J. Fox, Gaussian, Inc., Wallingford CT, 2019.
 
 ******************************************
 Gaussian 16:  ES64L-G16RevC.01  3-Jul-2019
                29-Jul-2026 
 ******************************************
 %chk=iminium_singlet_abs.chk
 %mem=30GB
 %nprocshared=8
 Will use up to    8 processors via shared memory.
 -----------------------------------------------------------------
 #p TD(NStates=10) B3LYP/6-31+G(d) SCRF=(SMD,Solvent=Acetonitrile)
 -----------------------------------------------------------------
 1/38=1,172=1/1;
 2/12=2,17=6,18=5,40=1/2;
 3/5=1,6=6,7=11,11=9,25=1,30=1,70=32201,72=2,74=-5/1,2,3,8;
 4//1;
 5/5=2,38=5,53=2/2;
 8/6=1,10=2,108=10/1;
 9/41=10,42=1,70=2/14;
 6/7=2,8=2,9=2,10=2/1;
 99/5=1,9=1/99;
 Leave Link    1 at Wed Jul 29 14:35:51 2026, MaxMem=  4026531840 cpu:               0.3 elap:               0.0
 (Enter /opt/packages/gaussian/g16RevC.01/g16/l101.exe)
 --------------------------------------------------
 Vertical excitation energies (absorption spectrum)
 --------------------------------------------------
 Symbolic Z-matrix:
 Charge =  1 Multiplicity = 1
 C                     1.83207   0.12958  -0.21024 
 C                     1.1349   -1.09922  -0.16734 
 C                    -0.25549  -1.11481  -0.13236 
 C                    -1.00365   0.07671  -0.1148 
 C                    -0.3087    1.30716  -0.12452 
 C                     1.07267   1.33152  -0.16625 
 O                     1.72785   2.54071  -0.24618 
 O                     1.81598  -2.29859  -0.19161 
 H                    -0.74337  -2.08339  -0.11815 
 H                    -0.82128   2.26389  -0.11731 
 O                     3.16704   0.29162  -0.26496 
 C                     4.04792  -0.70499  -0.83521 
 H                     3.63166  -1.09691  -1.76609 
 H                     4.23776  -1.51258  -0.12604 
 H                     4.97374  -0.16313  -1.03872 
 C                    -2.45011  -0.00162  -0.09574 
 C                    -3.2634   -1.2711   -0.10058 
 N                    -3.25687   1.02683  -0.10589 
 C                    -4.69376   0.69529  -0.14276 
 C                    -4.69483  -0.79509   0.23053 
 H                    -2.878    -2.00729   0.60911 
 H                    -3.19216  -1.71344  -1.10404 
 H                    -5.06642   0.8884   -1.15511 
 H                    -5.23265   1.33526   0.55952 
 H                    -4.88771  -0.91152   1.30158 
 H                    -5.45573  -1.35282  -0.31939 
 H                    -2.9446    1.99417  -0.15383 
 C                     2.21272   3.0577    1.01291 
 H                     1.37325   3.24459   1.69296 
 H                     2.71642   3.99762   0.77723 
 H                     2.92143   2.36177   1.47436 
 C                     2.0552   -2.87751   1.10913 
 H                     2.65301  -2.19993   1.73007 
 H                     2.60643  -3.80318   0.93 
 H                     1.10614  -3.1009    1.61042 
 
 ITRead=  0  0  0  0  0  0  0  0  0  0  0  0  0  0  0  0  0  0  0  0
 ITRead=  0  0  0  0  0  0  0  0  0  0  0  0  0  0  0
 MicOpt= -1 -1 -1 -1 -1 -1 -1 -1 -1 -1 -1 -1 -1 -1 -1 -1 -1 -1 -1 -1
 MicOpt= -1 -1 -1 -1 -1 -1 -1 -1 -1 -1 -1 -1 -1 -1 -1
 NAtoms=     35 NQM=       35 NQMF=       0 NMMI=      0 NMMIF=      0
                NMic=       0 NMicF=      0.
                    Isotopes and Nuclear Properties:
 (Nuclear quadrupole moments (NQMom) in fm**2, nuclear magnetic moments (NMagM)
  in nuclear magnetons)

  Atom         1           2           3           4           5           6           7           8           9          10
 IAtWgt=          12          12          12          12          12          12          16          16           1           1
 AtmWgt=  12.0000000  12.0000000  12.0000000  12.0000000  12.0000000  12.0000000  15.9949146  15.9949146   1.0078250   1.0078250
 NucSpn=           0           0           0           0           0           0           0           0           1           1
 AtZEff=  -0.0000000  -0.0000000  -0.0000000  -0.0000000  -0.0000000  -0.0000000  -0.0000000  -0.0000000  -0.0000000  -0.0000000
 NQMom=    0.0000000   0.0000000   0.0000000   0.0000000   0.0000000   0.0000000   0.0000000   0.0000000   0.0000000   0.0000000
 NMagM=    0.0000000   0.0000000   0.0000000   0.0000000   0.0000000   0.0000000   0.0000000   0.0000000   2.7928460   2.7928460
 AtZNuc=   6.0000000   6.0000000   6.0000000   6.0000000   6.0000000   6.0000000   8.0000000   8.0000000   1.0000000   1.0000000

  Atom        11          12          13          14          15          16          17          18          19          20
 IAtWgt=          16          12           1           1           1          12          12          14          12          12
 AtmWgt=  15.9949146  12.0000000   1.0078250   1.0078250   1.0078250  12.0000000  12.0000000  14.0030740  12.0000000  12.0000000
 NucSpn=           0           0           1           1           1           0           0           2           0           0
 AtZEff=  -0.0000000  -0.0000000  -0.0000000  -0.0000000  -0.0000000  -0.0000000  -0.0000000  -0.0000000  -0.0000000  -0.0000000
 NQMom=    0.0000000   0.0000000   0.0000000   0.0000000   0.0000000   0.0000000   0.0000000   2.0440000   0.0000000   0.0000000
 NMagM=    0.0000000   0.0000000   2.7928460   2.7928460   2.7928460   0.0000000   0.0000000   0.4037610   0.0000000   0.0000000
 AtZNuc=   8.0000000   6.0000000   1.0000000   1.0000000   1.0000000   6.0000000   6.0000000   7.0000000   6.0000000   6.0000000

  Atom        21          22          23          24          25          26          27          28          29          30
 IAtWgt=           1           1           1           1           1           1           1          12           1           1
 AtmWgt=   1.0078250   1.0078250   1.0078250   1.0078250   1.0078250   1.0078250   1.0078250  12.0000000   1.0078250   1.0078250
 NucSpn=           1           1           1           1           1           1           1           0           1           1
 AtZEff=  -0.0000000  -0.0000000  -0.0000000  -0.0000000  -0.0000000  -0.0000000  -0.0000000  -0.0000000  -0.0000000  -0.0000000
 NQMom=    0.0000000   0.0000000   0.0000000   0.0000000   0.0000000   0.0000000   0.0000000   0.0000000   0.0000000   0.0000000
 NMagM=    2.7928460   2.7928460   2.7928460   2.7928460   2.7928460   2.7928460   2.7928460   0.0000000   2.7928460   2.7928460
 AtZNuc=   1.0000000   1.0000000   1.0000000   1.0000000   1.0000000   1.0000000   1.0000000   6.0000000   1.0000000   1.0000000

  Atom        31          32          33          34          35
 IAtWgt=           1          12           1           1           1
 AtmWgt=   1.0078250  12.0000000   1.0078250   1.0078250   1.0078250
 NucSpn=           1           0           1           1           1
 AtZEff=  -0.0000000  -0.0000000  -0.0000000  -0.0000000  -0.0000000
 NQMom=    0.0000000   0.0000000   0.0000000   0.0000000   0.0000000
 NMagM=    2.7928460   0.0000000   2.7928460   2.7928460   2.7928460
 AtZNuc=   1.0000000   6.0000000   1.0000000   1.0000000   1.0000000
 Leave Link  101 at Wed Jul 29 14:35:51 2026, MaxMem=  4026531840 cpu:               0.3 elap:               0.1
 (Enter /opt/packages/gaussian/g16RevC.01/g16/l202.exe)
                          Input orientation:                          
 ---------------------------------------------------------------------
 Center     Atomic      Atomic             Coordinates (Angstroms)
 Number     Number       Type             X           Y           Z
 ---------------------------------------------------------------------
      1          6           0        1.832070    0.129580   -0.210240
      2          6           0        1.134900   -1.099220   -0.167340
      3          6           0       -0.255490   -1.114810   -0.132360
      4          6           0       -1.003650    0.076710   -0.114800
      5          6           0       -0.308700    1.307160   -0.124520
      6          6           0        1.072670    1.331520   -0.166250
      7          8           0        1.727850    2.540710   -0.246180
      8          8           0        1.815980   -2.298590   -0.191610
      9          1           0       -0.743370   -2.083390   -0.118150
     10          1           0       -0.821280    2.263890   -0.117310
     11          8           0        3.167040    0.291620   -0.264960
     12          6           0        4.047920   -0.704990   -0.835210
     13          1           0        3.631660   -1.096910   -1.766090
     14          1           0        4.237760   -1.512580   -0.126040
     15          1           0        4.973740   -0.163130   -1.038720
     16          6           0       -2.450110   -0.001620   -0.095740
     17          6           0       -3.263400   -1.271100   -0.100580
     18          7           0       -3.256870    1.026830   -0.105890
     19          6           0       -4.693760    0.695290   -0.142760
     20          6           0       -4.694830   -0.795090    0.230530
     21          1           0       -2.878000   -2.007290    0.609110
     22          1           0       -3.192160   -1.713440   -1.104040
     23          1           0       -5.066420    0.888400   -1.155110
     24          1           0       -5.232650    1.335260    0.559520
     25          1           0       -4.887710   -0.911520    1.301580
     26          1           0       -5.455730   -1.352820   -0.319390
     27          1           0       -2.944600    1.994170   -0.153830
     28          6           0        2.212720    3.057700    1.012910
     29          1           0        1.373250    3.244590    1.692960
     30          1           0        2.716420    3.997620    0.777230
     31          1           0        2.921430    2.361770    1.474360
     32          6           0        2.055200   -2.877510    1.109130
     33          1           0        2.653010   -2.199930    1.730070
     34          1           0        2.606430   -3.803180    0.930000
     35          1           0        1.106140   -3.100900    1.610420
 ---------------------------------------------------------------------
                    Distance matrix (angstroms):
                    1          2          3          4          5
     1  C    0.000000
     2  C    1.413448   0.000000
     3  C    2.431559   1.390917   0.000000
     4  C    2.837818   2.441100   1.407044   0.000000
     5  C    2.444778   2.806507   2.422567   1.413173   0.000000
     6  C    1.422422   2.431537   2.783826   2.426582   1.382215
     7  O    2.413649   3.688753   4.160459   3.680985   2.384110
     8  O    2.428295   1.379474   2.386595   3.687582   4.185714
     9  H    3.396853   2.121063   1.084609   2.175727   3.418305
    10  H    3.406491   3.890971   3.425779   2.194771   1.085414
    11  O    1.345881   2.464459   3.702613   4.178922   3.623784
    12  C    2.448895   3.014491   4.379645   5.162209   4.851182
    13  H    2.676466   2.964763   4.216554   5.058680   4.899055
    14  H    2.913953   3.130545   4.510827   5.477075   5.349882
    15  H    3.262231   4.046265   5.391848   6.053127   5.558929
    16  C    4.285719   3.749953   2.461075   1.448705   2.509855
    17  C    5.285617   4.402163   3.012135   2.631210   3.921511
    18  N    5.168487   4.879704   3.687222   2.445365   2.961526
    19  C    6.550652   6.098700   4.793205   3.741702   4.427580
    20  C    6.606793   5.851201   4.465607   3.808425   4.876849
    21  H    5.236631   4.186984   2.867727   2.894873   4.257358
    22  H    5.425725   4.469689   3.150643   2.995465   4.289269
    23  H    7.004124   6.586554   5.310736   4.271672   4.886039
    24  H    7.208083   6.855706   5.590498   4.463530   4.971316
    25  H    6.965984   6.201999   4.853347   4.250724   5.284282
    26  H    7.437839   6.597260   5.209043   4.680430   5.797015
    27  H    5.128007   5.119723   4.110661   2.728638   2.724116
    28  C    3.196072   4.453613   4.981319   4.528031   3.273484
    29  H    3.679127   4.731407   4.998895   4.353517   3.144173
    30  H    4.088876   5.419520   5.983021   5.477972   4.147659
    31  H    3.001209   4.226739   4.976040   4.811775   3.755311
    32  C    3.291370   2.374583   3.160332   4.425154   4.961993
    33  H    3.140917   2.667655   3.620152   4.685915   4.950849
    34  H    4.167299   3.268173   4.067742   5.401651   5.977087
    35  H    3.778595   2.677308   2.972519   4.186264   4.943964
                    6          7          8          9         10
     6  C    0.000000
     7  O    1.377603   0.000000
     8  O    3.705516   4.840410   0.000000
     9  H    3.868065   5.244580   2.569432   0.000000
    10  H    2.111577   2.567353   5.270378   4.347978   0.000000
    11  O    2.340411   2.670211   2.922316   4.577503   4.451780
    12  C    3.667014   4.032896   2.816973   5.036926   5.747933
    13  H    3.873653   4.378002   2.686953   4.778047   5.817399
    14  H    4.255387   4.768987   2.546984   5.013735   6.313136
    15  H    4.267731   4.298217   3.905027   6.100836   6.349935
    16  C    3.767255   4.892997   4.846110   2.692068   2.790356
    17  C    5.057613   6.282012   5.183061   2.647768   4.296555
    18  N    4.340668   5.211425   6.066265   3.998912   2.731766
    19  C    5.801470   6.682316   7.165362   4.829829   4.178188
    20  C    6.159867   7.252974   6.695473   4.170771   4.948004
    21  H    5.230356   6.529141   4.770687   2.256401   4.795911
    22  H    5.323533   6.560504   5.124099   2.665598   4.734328
    23  H    6.233990   7.051127   7.645434   5.347484   4.581508
    24  H    6.346953   7.109910   7.965692   5.683312   4.558578
    25  H    6.535433   7.620964   7.006643   4.534806   5.350919
    26  H    7.060392   8.171215   7.334069   4.772899   5.882139
    27  H    4.071574   4.705212   6.410331   4.633916   2.140694
    28  C    2.381140   1.444882   5.504372   6.037265   3.333570
    29  H    2.684557   2.093192   5.871495   6.012285   3.009121
    30  H    3.271110   2.036474   6.433638   7.053406   4.039968
    31  H    2.677859   2.101645   5.071137   5.977148   4.068276
    32  C    4.506428   5.594741   1.443710   3.157346   6.017665
    33  H    4.308671   5.218731   2.098382   3.868449   5.950562
    34  H    5.469856   6.511547   2.036323   3.908639   7.046658
    35  H    4.775356   5.971704   2.096398   2.728364   5.956591
                   11         12         13         14         15
    11  O    0.000000
    12  C    1.447192   0.000000
    13  H    2.096969   1.092434   0.000000
    14  H    2.102588   1.091404   1.797193   0.000000
    15  H    2.017342   1.091866   1.789467   1.787643   0.000000
    16  C    5.627344   6.577685   6.401379   6.856495   7.485242
    17  C    6.619643   7.369909   7.095500   7.505089   8.364101
    18  N    6.467802   7.542617   7.397187   7.913184   8.368340
    19  C    7.872106   8.880160   8.669475   9.200381   9.746804
    20  C    7.952072   8.807928   8.567848   8.968450   9.771981
    21  H    6.526216   7.193776   6.988994   7.170720   8.232016
    22  H    6.720398   7.314916   6.883527   7.496702   8.312018
    23  H    8.302914   9.258100   8.942670   9.663925  10.095745
    24  H    8.504337   9.604003   9.481556   9.913065  10.438867
    25  H    8.293406   9.189886   9.056745   9.256002  10.162937
    26  H    8.778343   9.539660   9.205384   9.696734  10.521722
    27  H    6.345327   7.526293   7.443209   7.992769   8.254519
    28  C    3.192942   4.576171   5.195865   5.126934   4.712342
    29  H    3.971293   5.398582   5.992834   5.843359   5.660226
    30  H    3.876036   5.146591   5.767181   5.787286   5.070011
    31  H    2.714973   4.001014   4.792433   4.393699   4.111285
    32  C    3.628732   3.531463   3.731307   2.855214   4.527581
    33  H    3.232985   3.280439   3.794410   2.535553   4.147353
    34  H    4.302278   3.846120   3.955236   3.003882   4.767597
    35  H    4.390165   4.513930   4.668517   3.917282   5.532338
                   16         17         18         19         20
    16  C    0.000000
    17  C    1.507662   0.000000
    18  N    1.307163   2.297945   0.000000
    19  C    2.349864   2.431954   1.475104   0.000000
    20  C    2.403084   1.544413   2.345272   1.536418   0.000000
    21  H    2.168551   1.092780   3.140167   3.341591   2.216669
    22  H    2.120763   1.098941   2.917117   2.996805   2.209629
    23  H    2.959642   3.004389   2.096305   1.095910   2.211835
    24  H    3.155811   3.332685   2.107512   1.092319   2.221683
    25  H    2.953357   2.175714   2.897898   2.169233   1.094489
    26  H    3.302955   2.204737   3.247045   2.192385   1.091991
    27  H    2.056957   3.281228   1.017623   2.178709   3.315269
    28  C    5.685994   7.068682   5.940754   7.390265   7.947978
    29  H    5.324980   6.716157   5.439883   6.832087   7.435006
    30  H    6.591588   8.017993   6.729464   8.164713   8.842826
    31  H    6.074888   7.343725   6.515416   7.961366   8.337883
    32  C    5.479076   5.686076   6.703598   7.738255   7.118379
    33  H    5.848759   6.262421   6.979213   8.115714   7.629741
    34  H    6.408791   6.475216   7.666835   8.641749   7.927563
    35  H    5.016317   5.036722   6.246578   7.150073   6.393130
                   21         22         23         24         25
    21  H    0.000000
    22  H    1.766332   0.000000
    23  H    4.035675   3.207028   0.000000
    24  H    4.088946   4.028102   1.779683   0.000000
    25  H    2.391477   3.050405   3.050734   2.391162   0.000000
    26  H    2.816937   2.422699   2.423439   2.836904   1.773397
    27  H    4.074088   3.835434   2.593725   2.485599   3.786414
    28  C    7.192538   7.513853   7.898864   7.655449   8.139665
    29  H    6.843252   7.297139   7.425125   6.969085   7.525028
    30  H    8.208821   8.430107   8.600801   8.385897   9.066278
    31  H    7.312368   7.786621   8.537604   8.269200   8.469176
    32  C    5.034259   5.812742   8.368174   8.435773   7.218459
    33  H    5.646745   6.514205   8.800662   8.720745   7.661988
    34  H    5.779893   6.490607   9.232076   9.380405   8.041263
    35  H    4.251115   5.269604   7.852590   7.807955   6.388662
                   26         27         28         29         30
    26  H    0.000000
    27  H    4.187544   0.000000
    28  C    8.946107   5.393545   0.000000
    29  H    8.474709   4.859837   1.096406   0.000000
    30  H    9.829233   6.076827   1.092112   1.791569   0.000000
    31  H    9.337694   6.098888   1.095228   1.795555   1.789979
    32  C    7.796116   7.094106   5.938080   6.187570   6.914823
    33  H    8.406518   7.243811   5.324551   5.593028   6.270690
    34  H    8.518431   8.099252   6.872667   7.195408   7.803071
    35  H    7.059610   6.743946   6.285689   6.351646   7.326404
                   31         32         33         34         35
    31  H    0.000000
    32  C    5.322951   0.000000
    33  H    4.576739   1.096384   0.000000
    34  H    6.196948   1.092157   1.792398   0.000000
    35  H    5.757999   1.096316   1.794121   1.790821   0.000000
 Stoichiometry    C13H18NO3(1+)
 Framework group  C1[X(C13H18NO3)]
 Deg. of freedom    99
 Full point group                 C1      NOp   1
 Largest Abelian subgroup         C1      NOp   1
 Largest concise Abelian subgroup C1      NOp   1
                         Standard orientation:                         
 ---------------------------------------------------------------------
 Center     Atomic      Atomic             Coordinates (Angstroms)
 Number     Number       Type             X           Y           Z
 ---------------------------------------------------------------------
      1          6           0        1.832070    0.129580   -0.210240
      2          6           0        1.134900   -1.099220   -0.167340
      3          6           0       -0.255490   -1.114811   -0.132360
      4          6           0       -1.003650    0.076709   -0.114800
      5          6           0       -0.308701    1.307159   -0.124520
      6          6           0        1.072669    1.331520   -0.166250
      7          8           0        1.727849    2.540710   -0.246180
      8          8           0        1.815980   -2.298590   -0.191610
      9          1           0       -0.743370   -2.083391   -0.118150
     10          1           0       -0.821281    2.263889   -0.117310
     11          8           0        3.167040    0.291620   -0.264960
     12          6           0        4.047920   -0.704990   -0.835210
     13          1           0        3.631660   -1.096910   -1.766090
     14          1           0        4.237760   -1.512580   -0.126040
     15          1           0        4.973740   -0.163129   -1.038720
     16          6           0       -2.450110   -0.001621   -0.095740
     17          6           0       -3.263400   -1.271101   -0.100580
     18          7           0       -3.256870    1.026829   -0.105890
     19          6           0       -4.693760    0.695289   -0.142760
     20          6           0       -4.694830   -0.795091    0.230530
     21          1           0       -2.878000   -2.007291    0.609110
     22          1           0       -3.192160   -1.713441   -1.104040
     23          1           0       -5.066420    0.888398   -1.155110
     24          1           0       -5.232651    1.335258    0.559520
     25          1           0       -4.887710   -0.911521    1.301580
     26          1           0       -5.455730   -1.352822   -0.319390
     27          1           0       -2.944601    1.994169   -0.153830
     28          6           0        2.212719    3.057700    1.012910
     29          1           0        1.373249    3.244590    1.692960
     30          1           0        2.716419    3.997620    0.777230
     31          1           0        2.921429    2.361770    1.474360
     32          6           0        2.055200   -2.877510    1.109130
     33          1           0        2.653010   -2.199930    1.730070
     34          1           0        2.606431   -3.803180    0.930000
     35          1           0        1.106140   -3.100900    1.610420
 ---------------------------------------------------------------------
 Rotational constants (GHZ):           0.7442575           0.2783113           0.2132639
 Leave Link  202 at Wed Jul 29 14:35:51 2026, MaxMem=  4026531840 cpu:               0.0 elap:               0.0
 (Enter /opt/packages/gaussian/g16RevC.01/g16/l301.exe)
 Standard basis: 6-31+G(d) (6D, 7F)
 Ernie: Thresh=  0.10000D-02 Tol=  0.10000D-05 Strict=F.
 There are   359 symmetry adapted cartesian basis functions of A   symmetry.
 There are   359 symmetry adapted basis functions of A   symmetry.
   359 basis functions,   616 primitive gaussians,   359 cartesian basis functions
    63 alpha electrons       63 beta electrons
       nuclear repulsion energy      1234.5554224770 Hartrees.
 IExCor=  402 DFT=T Ex+Corr=B3LYP ExCW=0 ScaHFX=  0.200000
 ScaDFX=  0.800000  0.720000  1.000000  0.810000 ScalE2=  1.000000  1.000000
 IRadAn=      5 IRanWt=     -1 IRanGd=            0 ICorTp=0 IEmpDi=  4
 NAtoms=   35 NActive=   35 NUniq=   35 SFac= 1.00D+00 NAtFMM=   60 NAOKFM=F Big=F
 Integral buffers will be    131072 words long.
 Regular integral format.
 Two-electron integral symmetry is turned on.
 ------------------------------------------------------------------------------
 Polarizable Continuum Model (PCM)
 =================================
 Model                : PCM.
 Atomic radii         : SMD-Coulomb.
 Polarization charges : Total charges.
 Charge compensation  : None.
 Solution method      : On-the-fly selection.
 Cavity type          : VdW (van der Waals Surface) (Alpha=1.000).
 Cavity algorithm     : GePol (No added spheres)
                        Default sphere list used, NSphG=   35.
                        Lebedev-Laikov grids with approx.  5.0 points / Ang**2.
                        Smoothing algorithm: York/Karplus (Gamma=1.0000).
                        Polarization charges: spherical gaussians, with
                                              point-specific exponents (IZeta= 3).
                        Self-potential: point-specific (ISelfS= 7).
                        Self-field    : sphere-specific E.n sum rule (ISelfD= 2).
 Solvent              : Acetonitrile, Eps=  35.688000 Eps(inf)=   1.806874
 ------------------------------------------------------------------------------
 GePol: Number of generator spheres                  =      35
 GePol: Total number of spheres                      =      35
 GePol: Number of exposed spheres                    =      35 (100.00%)
 GePol: Number of points                             =    2459
 GePol: Average weight of points                     =       0.12
 GePol: Minimum weight of points                     =   0.29D-09
 GePol: Maximum weight of points                     =    0.21559
 GePol: Number of points with low weight             =     165
 GePol: Fraction of low-weight points (<1% of avg)   =       6.71%
 GePol: Cavity surface area                          =    282.790 Ang**2
 GePol: Cavity volume                                =    272.226 Ang**3
 ------------------------------------------------------------------------------
 Atomic radii for non-electrostatic terms: SMD-CDS.
 ------------------------------------------------------------------------------
 PCM non-electrostatic energy =        -0.0014706304 Hartrees.
 Nuclear repulsion after PCM non-electrostatic terms =     1234.5539518465 Hartrees.
 Leave Link  301 at Wed Jul 29 14:35:51 2026, MaxMem=  4026531840 cpu:               0.4 elap:               0.1
 (Enter /opt/packages/gaussian/g16RevC.01/g16/l302.exe)
 NPDir=0 NMtPBC=     1 NCelOv=     1 NCel=       1 NClECP=     1 NCelD=      1
         NCelK=      1 NCelE2=     1 NClLst=     1 CellRange=     0.0.
 One-electron integrals computed using PRISM.
 One-electron integral symmetry used in STVInt
 NBasis=   359 RedAO= T EigKep=  1.22D-06  NBF=   359
 NBsUse=   357 1.00D-06 EigRej=  5.16D-07 NBFU=   357
 Precomputing XC quadrature grid using
 IXCGrd= 4 IRadAn=           5 IRanWt=          -1 IRanGd=           0 AccXCQ= 0.00D+00.
 Generated NRdTot=       0 NPtTot=           0 NUsed=           0 NTot=          32
 NSgBfM=   358   358   358   358   358 MxSgAt=    35 MxSgA2=    35.
 Leave Link  302 at Wed Jul 29 14:35:51 2026, MaxMem=  4026531840 cpu:               2.3 elap:               0.3
 (Enter /opt/packages/gaussian/g16RevC.01/g16/l303.exe)
 DipDrv:  MaxL=1.
 Leave Link  303 at Wed Jul 29 14:35:51 2026, MaxMem=  4026531840 cpu:               0.2 elap:               0.0
 (Enter /opt/packages/gaussian/g16RevC.01/g16/l308.exe)
 Leave Link  308 at Wed Jul 29 14:35:51 2026, MaxMem=  4026531840 cpu:               0.2 elap:               0.0
 (Enter /opt/packages/gaussian/g16RevC.01/g16/l401.exe)
 ExpMin= 4.38D-02 ExpMax= 5.48D+03 ExpMxC= 8.25D+02 IAcc=3 IRadAn=         5 AccDes= 0.00D+00
 Harris functional with IExCor=  402 and IRadAn=       5 diagonalized for initial guess.
 HarFok:  IExCor=  402 AccDes= 0.00D+00 IRadAn=         5 IDoV= 1 UseB2=F ITyADJ=14
 ICtDFT=  3500011 ScaDFX=  1.000000  1.000000  1.000000  1.000000
 FoFCou: FMM=F IPFlag=           0 FMFlag=      100000 FMFlg1=           0
         NFxFlg=           0 DoJE=T BraDBF=F KetDBF=T FulRan=T
         wScrn=  0.000000 ICntrl=       500 IOpCl=  0 I1Cent=   200000004 NGrid=           0
         NMat0=    1 NMatS0=      1 NMatT0=    0 NMatD0=    1 NMtDS0=    0 NMtDT0=    0
 Petite list used in FoFCou.
 Harris En= -786.385512142453    
 JPrj=0 DoOrth=F DoCkMO=F.
 Leave Link  401 at Wed Jul 29 14:35:53 2026, MaxMem=  4026531840 cpu:              16.6 elap:               2.2
 (Enter /opt/packages/gaussian/g16RevC.01/g16/l502.exe)
 Integral symmetry usage will be decided dynamically.
 Closed shell SCF:
 Using DIIS extrapolation, IDIIS=  1040.
 NGot=  4026531840 LenX=  4026266516 LenY=  4026137194
 Requested convergence on RMS density matrix=1.00D-08 within 128 cycles.
 Requested convergence on MAX density matrix=1.00D-06.
 Requested convergence on             energy=1.00D-06.
 No special actions if energy rises.
 Fock matrices will be formed incrementally for  20 cycles.

 Cycle   1  Pass 1  IDiag  1:
 FoFJK:  IHMeth= 1 ICntrl=       0 DoSepK=F KAlg= 0 I1Cent=           0 FoldK=F
 IRaf= 860000000 NMat=       1 IRICut=       1 DoRegI=T DoRafI=F ISym2E= 0 IDoP0=0 IntGTp=1.
 FoFCou: FMM=F IPFlag=           0 FMFlag=      100000 FMFlg1=           0
         NFxFlg=           0 DoJE=F BraDBF=F KetDBF=F FulRan=T
         wScrn=  0.000000 ICntrl=         0 IOpCl=  0 I1Cent=           0 NGrid=           0
         NMat0=    1 NMatS0=      1 NMatT0=    0 NMatD0=    1 NMtDS0=    0 NMtDT0=    0
 Symmetry not used in FoFCou.
 Inv3:  Mode=1 IEnd=    18140043.
 Iteration    1 A*A^-1 deviation from unit magnitude is 3.55D-15 for    387.
 Iteration    1 A*A^-1 deviation from orthogonality  is 1.79D-15 for   1760    639.
 Iteration    1 A^-1*A deviation from unit magnitude is 3.55D-15 for    387.
 Iteration    1 A^-1*A deviation from orthogonality  is 7.16D-14 for   1062   1025.
 E= -786.217454235752    
 DIIS: error= 1.74D-02 at cycle   1 NSaved=   1.
 NSaved= 1 IEnMin= 1 EnMin= -786.217454235752     IErMin= 1 ErrMin= 1.74D-02
 ErrMax= 1.74D-02  0.00D+00 EMaxC= 1.00D-01 BMatC= 2.84D-01 BMatP= 2.84D-01
 IDIUse=3 WtCom= 8.26D-01 WtEn= 1.74D-01
 Coeff-Com:  0.100D+01
 Coeff-En:   0.100D+01
 Coeff:      0.100D+01
 Gap=     0.147 Goal=   None    Shift=    0.000
 GapD=    0.147 DampG=1.000 DampE=0.500 DampFc=0.5000 IDamp=-1.
 Damping current iteration by 5.00D-01
 RMSDP=3.63D-02 MaxDP=4.58D+00              OVMax= 1.63D-01

 Cycle   2  Pass 1  IDiag  1:
 RMSU=  1.81D-02    CP:  9.84D-01
 E= -786.346642523039     Delta-E=       -0.129188287287 Rises=F Damp=T
 DIIS: error= 5.89D-03 at cycle   2 NSaved=   2.
 NSaved= 2 IEnMin= 2 EnMin= -786.346642523039     IErMin= 2 ErrMin= 5.89D-03
 ErrMax= 5.89D-03  0.00D+00 EMaxC= 1.00D-01 BMatC= 2.13D-02 BMatP= 2.84D-01
 IDIUse=3 WtCom= 9.41D-01 WtEn= 5.89D-02
 Coeff-Com:  0.124D-01 0.988D+00
 Coeff-En:   0.190D-01 0.981D+00
 Coeff:      0.128D-01 0.987D+00
 Gap=     0.178 Goal=   None    Shift=    0.000
 RMSDP=3.10D-02 MaxDP=4.45D+00 DE=-1.29D-01 OVMax= 1.14D-01

 Cycle   3  Pass 1  IDiag  1:
 RMSU=  1.14D-02    CP:  7.37D-01  7.63D-01
 E= -786.484750730264     Delta-E=       -0.138108207225 Rises=F Damp=F
 DIIS: error= 2.73D-03 at cycle   3 NSaved=   3.
 NSaved= 3 IEnMin= 3 EnMin= -786.484750730264     IErMin= 3 ErrMin= 2.73D-03
 ErrMax= 2.73D-03  0.00D+00 EMaxC= 1.00D-01 BMatC= 1.13D-02 BMatP= 2.13D-02
 IDIUse=3 WtCom= 9.73D-01 WtEn= 2.73D-02
 Coeff-Com: -0.592D-01 0.423D+00 0.636D+00
 Coeff-En:   0.000D+00 0.000D+00 0.100D+01
 Coeff:     -0.576D-01 0.412D+00 0.646D+00
 Gap=     0.154 Goal=   None    Shift=    0.000
 RMSDP=2.30D-03 MaxDP=2.00D-01 DE=-1.38D-01 OVMax= 3.74D-02

 Cycle   4  Pass 1  IDiag  1:
 RMSU=  2.00D-03    CP:  7.31D-01  7.29D-01  1.05D+00
 E= -786.492337224027     Delta-E=       -0.007586493763 Rises=F Damp=F
 DIIS: error= 1.40D-03 at cycle   4 NSaved=   4.
 NSaved= 4 IEnMin= 4 EnMin= -786.492337224027     IErMin= 4 ErrMin= 1.40D-03
 ErrMax= 1.40D-03  0.00D+00 EMaxC= 1.00D-01 BMatC= 2.71D-03 BMatP= 1.13D-02
 IDIUse=3 WtCom= 9.86D-01 WtEn= 1.40D-02
 Coeff-Com: -0.303D-01 0.123D+00 0.368D+00 0.540D+00
 Coeff-En:   0.000D+00 0.000D+00 0.193D+00 0.807D+00
 Coeff:     -0.299D-01 0.121D+00 0.365D+00 0.544D+00
 Gap=     0.151 Goal=   None    Shift=    0.000
 RMSDP=1.69D-03 MaxDP=1.08D-01 DE=-7.59D-03 OVMax= 1.39D-02

 Cycle   5  Pass 1  IDiag  1:
 RMSU=  8.04D-04    CP:  7.31D-01  7.28D-01  9.51D-01  5.40D-01
 E= -786.494696953358     Delta-E=       -0.002359729330 Rises=F Damp=F
 DIIS: error= 3.64D-04 at cycle   5 NSaved=   5.
 NSaved= 5 IEnMin= 5 EnMin= -786.494696953358     IErMin= 5 ErrMin= 3.64D-04
 ErrMax= 3.64D-04  0.00D+00 EMaxC= 1.00D-01 BMatC= 1.34D-04 BMatP= 2.71D-03
 IDIUse=3 WtCom= 9.96D-01 WtEn= 3.64D-03
 Coeff-Com: -0.101D-01 0.264D-01 0.129D+00 0.264D+00 0.591D+00
 Coeff-En:   0.000D+00 0.000D+00 0.000D+00 0.000D+00 0.100D+01
 Coeff:     -0.101D-01 0.263D-01 0.129D+00 0.263D+00 0.592D+00
 Gap=     0.152 Goal=   None    Shift=    0.000
 RMSDP=3.65D-04 MaxDP=3.13D-02 DE=-2.36D-03 OVMax= 4.32D-03

 Cycle   6  Pass 1  IDiag  1:
 RMSU=  2.10D-04    CP:  7.33D-01  7.30D-01  9.50D-01  5.60D-01  8.10D-01
 E= -786.494811957633     Delta-E=       -0.000115004275 Rises=F Damp=F
 DIIS: error= 1.47D-04 at cycle   6 NSaved=   6.
 NSaved= 6 IEnMin= 6 EnMin= -786.494811957633     IErMin= 6 ErrMin= 1.47D-04
 ErrMax= 1.47D-04  0.00D+00 EMaxC= 1.00D-01 BMatC= 1.53D-05 BMatP= 1.34D-04
 IDIUse=3 WtCom= 9.99D-01 WtEn= 1.47D-03
 Coeff-Com: -0.351D-02 0.617D-02 0.451D-01 0.106D+00 0.334D+00 0.512D+00
 Coeff-En:   0.000D+00 0.000D+00 0.000D+00 0.000D+00 0.491D-01 0.951D+00
 Coeff:     -0.350D-02 0.616D-02 0.450D-01 0.106D+00 0.333D+00 0.513D+00
 Gap=     0.152 Goal=   None    Shift=    0.000
 RMSDP=1.22D-04 MaxDP=1.18D-02 DE=-1.15D-04 OVMax= 1.25D-03

 Cycle   7  Pass 1  IDiag  1:
 RMSU=  4.91D-05    CP:  7.33D-01  7.30D-01  9.57D-01  5.59D-01  8.04D-01
                    CP:  7.41D-01
 E= -786.494827081716     Delta-E=       -0.000015124083 Rises=F Damp=F
 DIIS: error= 2.51D-05 at cycle   7 NSaved=   7.
 NSaved= 7 IEnMin= 7 EnMin= -786.494827081716     IErMin= 7 ErrMin= 2.51D-05
 ErrMax= 2.51D-05  0.00D+00 EMaxC= 1.00D-01 BMatC= 8.38D-07 BMatP= 1.53D-05
 IDIUse=1 WtCom= 1.00D+00 WtEn= 0.00D+00
 Coeff-Com: -0.132D-02 0.191D-02 0.171D-01 0.429D-01 0.153D+00 0.274D+00
 Coeff-Com:  0.512D+00
 Coeff:     -0.132D-02 0.191D-02 0.171D-01 0.429D-01 0.153D+00 0.274D+00
 Coeff:      0.512D+00
 Gap=     0.152 Goal=   None    Shift=    0.000
 RMSDP=4.01D-05 MaxDP=5.76D-03 DE=-1.51D-05 OVMax= 2.45D-04

 Cycle   8  Pass 1  IDiag  1:
 RMSU=  1.56D-05    CP:  7.33D-01  7.29D-01  9.58D-01  5.64D-01  8.01D-01
                    CP:  7.53D-01  8.91D-01
 E= -786.494827751836     Delta-E=       -0.000000670120 Rises=F Damp=F
 DIIS: error= 7.56D-06 at cycle   8 NSaved=   8.
 NSaved= 8 IEnMin= 8 EnMin= -786.494827751836     IErMin= 8 ErrMin= 7.56D-06
 ErrMax= 7.56D-06  0.00D+00 EMaxC= 1.00D-01 BMatC= 7.64D-08 BMatP= 8.38D-07
 IDIUse=1 WtCom= 1.00D+00 WtEn= 0.00D+00
 Coeff-Com: -0.132D-03-0.202D-04 0.150D-02 0.479D-02 0.251D-01 0.510D-01
 Coeff-Com:  0.252D+00 0.665D+00
 Coeff:     -0.132D-03-0.202D-04 0.150D-02 0.479D-02 0.251D-01 0.510D-01
 Coeff:      0.252D+00 0.665D+00
 Gap=     0.152 Goal=   None    Shift=    0.000
 RMSDP=6.42D-06 MaxDP=2.57D-04 DE=-6.70D-07 OVMax= 8.07D-05

 Cycle   9  Pass 1  IDiag  1:
 RMSU=  3.75D-06    CP:  7.33D-01  7.29D-01  9.58D-01  5.64D-01  8.05D-01
                    CP:  7.51D-01  8.88D-01  8.85D-01
 E= -786.494827805942     Delta-E=       -0.000000054107 Rises=F Damp=F
 DIIS: error= 3.11D-06 at cycle   9 NSaved=   9.
 NSaved= 9 IEnMin= 9 EnMin= -786.494827805942     IErMin= 9 ErrMin= 3.11D-06
 ErrMax= 3.11D-06  0.00D+00 EMaxC= 1.00D-01 BMatC= 1.18D-08 BMatP= 7.64D-08
 IDIUse=1 WtCom= 1.00D+00 WtEn= 0.00D+00
 Coeff-Com:  0.326D-04-0.163D-03-0.545D-03-0.824D-03 0.176D-02 0.519D-02
 Coeff-Com:  0.991D-01 0.370D+00 0.525D+00
 Coeff:      0.326D-04-0.163D-03-0.545D-03-0.824D-03 0.176D-02 0.519D-02
 Coeff:      0.991D-01 0.370D+00 0.525D+00
 Gap=     0.152 Goal=   None    Shift=    0.000
 RMSDP=3.19D-06 MaxDP=2.88D-04 DE=-5.41D-08 OVMax= 3.11D-05

 Cycle  10  Pass 1  IDiag  1:
 RMSU=  1.55D-06    CP:  7.33D-01  7.29D-01  9.57D-01  5.63D-01  8.06D-01
                    CP:  7.51D-01  9.02D-01  8.46D-01  7.59D-01
 E= -786.494827817104     Delta-E=       -0.000000011162 Rises=F Damp=F
 DIIS: error= 5.88D-07 at cycle  10 NSaved=  10.
 NSaved=10 IEnMin=10 EnMin= -786.494827817104     IErMin=10 ErrMin= 5.88D-07
 ErrMax= 5.88D-07  0.00D+00 EMaxC= 1.00D-01 BMatC= 4.38D-10 BMatP= 1.18D-08
 IDIUse=1 WtCom= 1.00D+00 WtEn= 0.00D+00
 Coeff-Com:  0.251D-04-0.537D-04-0.363D-03-0.830D-03-0.201D-02-0.358D-02
 Coeff-Com:  0.110D-01 0.569D-01 0.196D+00 0.743D+00
 Coeff:      0.251D-04-0.537D-04-0.363D-03-0.830D-03-0.201D-02-0.358D-02
 Coeff:      0.110D-01 0.569D-01 0.196D+00 0.743D+00
 Gap=     0.152 Goal=   None    Shift=    0.000
 RMSDP=5.00D-07 MaxDP=3.47D-05 DE=-1.12D-08 OVMax= 8.56D-06

 Cycle  11  Pass 1  IDiag  1:
 RMSU=  2.66D-07    CP:  7.33D-01  7.29D-01  9.57D-01  5.63D-01  8.06D-01
                    CP:  7.51D-01  9.06D-01  8.54D-01  7.98D-01  8.94D-01
 E= -786.494827817476     Delta-E=       -0.000000000371 Rises=F Damp=F
 DIIS: error= 2.81D-07 at cycle  11 NSaved=  11.
 NSaved=11 IEnMin=11 EnMin= -786.494827817476     IErMin=11 ErrMin= 2.81D-07
 ErrMax= 2.81D-07  0.00D+00 EMaxC= 1.00D-01 BMatC= 7.08D-11 BMatP= 4.38D-10
 IDIUse=1 WtCom= 1.00D+00 WtEn= 0.00D+00
 Coeff-Com:  0.133D-04-0.245D-04-0.189D-03-0.454D-03-0.126D-02-0.235D-02
 Coeff-Com:  0.182D-02 0.151D-01 0.892D-01 0.429D+00 0.469D+00
 Coeff:      0.133D-04-0.245D-04-0.189D-03-0.454D-03-0.126D-02-0.235D-02
 Coeff:      0.182D-02 0.151D-01 0.892D-01 0.429D+00 0.469D+00
 Gap=     0.152 Goal=   None    Shift=    0.000
 RMSDP=1.78D-07 MaxDP=1.53D-05 DE=-3.71D-10 OVMax= 3.94D-06

 Cycle  12  Pass 1  IDiag  1:
 RMSU=  1.15D-07    CP:  7.33D-01  7.29D-01  9.57D-01  5.63D-01  8.06D-01
                    CP:  7.51D-01  9.06D-01  8.53D-01  7.99D-01  8.98D-01
                    CP:  7.00D-01
 E= -786.494827817547     Delta-E=       -0.000000000072 Rises=F Damp=F
 DIIS: error= 7.19D-08 at cycle  12 NSaved=  12.
 NSaved=12 IEnMin=12 EnMin= -786.494827817547     IErMin=12 ErrMin= 7.19D-08
 ErrMax= 7.19D-08  0.00D+00 EMaxC= 1.00D-01 BMatC= 4.57D-12 BMatP= 7.08D-11
 IDIUse=1 WtCom= 1.00D+00 WtEn= 0.00D+00
 Coeff-Com:  0.157D-05-0.128D-05-0.196D-04-0.580D-04-0.201D-03-0.429D-03
 Coeff-Com: -0.123D-02-0.399D-02 0.419D-02 0.577D-01 0.219D+00 0.726D+00
 Coeff:      0.157D-05-0.128D-05-0.196D-04-0.580D-04-0.201D-03-0.429D-03
 Coeff:     -0.123D-02-0.399D-02 0.419D-02 0.577D-01 0.219D+00 0.726D+00
 Gap=     0.152 Goal=   None    Shift=    0.000
 RMSDP=9.22D-08 MaxDP=1.03D-05 DE=-7.16D-11 OVMax= 9.19D-07

 Cycle  13  Pass 1  IDiag  1:
 RMSU=  3.05D-08    CP:  7.33D-01  7.29D-01  9.57D-01  5.63D-01  8.06D-01
                    CP:  7.51D-01  9.06D-01  8.52D-01  8.02D-01  9.16D-01
                    CP:  7.81D-01  7.90D-01
 E= -786.494827817527     Delta-E=        0.000000000020 Rises=F Damp=F
 DIIS: error= 1.54D-08 at cycle  13 NSaved=  13.
 NSaved=13 IEnMin=12 EnMin= -786.494827817547     IErMin=13 ErrMin= 1.54D-08
 ErrMax= 1.54D-08  0.00D+00 EMaxC= 1.00D-01 BMatC= 3.35D-13 BMatP= 4.57D-12
 IDIUse=1 WtCom= 1.00D+00 WtEn= 0.00D+00
 Coeff-Com:  0.146D-06 0.427D-06-0.980D-06-0.784D-05-0.319D-04-0.909D-04
 Coeff-Com: -0.534D-03-0.216D-02-0.934D-03 0.102D-01 0.806D-01 0.333D+00
 Coeff-Com:  0.580D+00
 Coeff:      0.146D-06 0.427D-06-0.980D-06-0.784D-05-0.319D-04-0.909D-04
 Coeff:     -0.534D-03-0.216D-02-0.934D-03 0.102D-01 0.806D-01 0.333D+00
 Coeff:      0.580D+00
 Gap=     0.152 Goal=   None    Shift=    0.000
 RMSDP=1.72D-08 MaxDP=1.54D-06 DE= 2.00D-11 OVMax= 3.74D-07

 Cycle  14  Pass 1  IDiag  1:
 RMSU=  1.02D-08    CP:  7.33D-01  7.29D-01  9.57D-01  5.63D-01  8.06D-01
                    CP:  7.51D-01  9.06D-01  8.52D-01  8.03D-01  9.13D-01
                    CP:  7.87D-01  7.98D-01  9.26D-01
 E= -786.494827817562     Delta-E=       -0.000000000035 Rises=F Damp=F
 DIIS: error= 7.78D-09 at cycle  14 NSaved=  14.
 NSaved=14 IEnMin=14 EnMin= -786.494827817562     IErMin=14 ErrMin= 7.78D-09
 ErrMax= 7.78D-09  0.00D+00 EMaxC= 1.00D-01 BMatC= 6.76D-14 BMatP= 3.35D-13
 IDIUse=1 WtCom= 1.00D+00 WtEn= 0.00D+00
 Coeff-Com: -0.135D-06 0.423D-06 0.236D-05 0.384D-05 0.107D-04 0.754D-05
 Coeff-Com: -0.154D-03-0.731D-03-0.132D-02-0.405D-02 0.110D-01 0.729D-01
 Coeff-Com:  0.332D+00 0.590D+00
 Coeff:     -0.135D-06 0.423D-06 0.236D-05 0.384D-05 0.107D-04 0.754D-05
 Coeff:     -0.154D-03-0.731D-03-0.132D-02-0.405D-02 0.110D-01 0.729D-01
 Coeff:      0.332D+00 0.590D+00
 Gap=     0.152 Goal=   None    Shift=    0.000
 RMSDP=1.34D-08 MaxDP=1.57D-06 DE=-3.46D-11 OVMax= 1.12D-07

 Cycle  15  Pass 1  IDiag  1:
 RMSU=  3.38D-09    CP:  7.33D-01  7.29D-01  9.57D-01  5.63D-01  8.06D-01
                    CP:  7.51D-01  9.06D-01  8.52D-01  8.03D-01  9.15D-01
                    CP:  7.87D-01  8.16D-01  9.73D-01  7.51D-01
 E= -786.494827817546     Delta-E=        0.000000000016 Rises=F Damp=F
 DIIS: error= 2.60D-09 at cycle  15 NSaved=  15.
 NSaved=15 IEnMin=14 EnMin= -786.494827817562     IErMin=15 ErrMin= 2.60D-09
 ErrMax= 2.60D-09  0.00D+00 EMaxC= 1.00D-01 BMatC= 4.82D-15 BMatP= 6.76D-14
 IDIUse=1 WtCom= 1.00D+00 WtEn= 0.00D+00
 Coeff-Com: -0.887D-07 0.198D-06 0.145D-05 0.284D-05 0.876D-05 0.114D-04
 Coeff-Com: -0.481D-04-0.250D-03-0.664D-03-0.317D-02-0.580D-03 0.127D-01
 Coeff-Com:  0.138D+00 0.309D+00 0.545D+00
 Coeff:     -0.887D-07 0.198D-06 0.145D-05 0.284D-05 0.876D-05 0.114D-04
 Coeff:     -0.481D-04-0.250D-03-0.664D-03-0.317D-02-0.580D-03 0.127D-01
 Coeff:      0.138D+00 0.309D+00 0.545D+00
 Gap=     0.152 Goal=   None    Shift=    0.000
 RMSDP=1.63D-09 MaxDP=1.07D-07 DE= 1.61D-11 OVMax= 2.55D-08

 Error on total polarization charges =  0.04968
 SCF Done:  E(RB3LYP) =  -786.494827818     A.U. after   15 cycles
            NFock= 15  Conv=0.16D-08     -V/T= 2.0096
 KE= 7.789981040415D+02 PE=-4.280717368324D+03 EE= 1.480670484619D+03
 SMD-CDS (non-electrostatic) energy       (kcal/mol) =      -0.92
 (included in total energy above)
 Leave Link  502 at Wed Jul 29 14:36:50 2026, MaxMem=  4026531840 cpu:             447.0 elap:              56.4
 (Enter /opt/packages/gaussian/g16RevC.01/g16/l801.exe)
 DoSCS=F DFT=T ScalE2(SS,OS)=  1.000000  1.000000
 ExpMin= 4.38D-02 ExpMax= 5.48D+03 ExpMxC= 8.25D+02 IAcc=3 IRadAn=         5 AccDes= 0.00D+00
 HarFok:  IExCor=  205 AccDes= 0.00D+00 IRadAn=         5 IDoV=-2 UseB2=F ITyADJ=14
 ICtDFT= 12500011 ScaDFX=  1.000000  1.000000  1.000000  1.000000
 Largest valence mixing into a core orbital is  5.48D-05
 Largest core mixing into a valence orbital is  1.17D-05
 Range of M.O.s used for correlation:    18   357
 NBasis=   359 NAE=    63 NBE=    63 NFC=    17 NFV=     0
 NROrb=    340 NOA=    46 NOB=    46 NVA=   294 NVB=   294

 **** Warning!!: The largest alpha MO coefficient is  0.14544071D+03

 Leave Link  801 at Wed Jul 29 14:36:50 2026, MaxMem=  4026531840 cpu:               0.8 elap:               0.1
 (Enter /opt/packages/gaussian/g16RevC.01/g16/l914.exe)
 RHF ground state
 Two-electron integrals replicated using symmetry.
 MDV=  4026531840 DFT=T DoStab=F Mixed=T DoRPA=T DoScal=F NonHer=T
 NEqPCM:  Using non-equilibrium solvation (IEInf=1, Eps=  35.6880, EpsInf=   1.8069)
 Inv3:  Mode=1 IEnd=    18140043.
 Iteration    1 A*A^-1 deviation from unit magnitude is 3.44D-15 for    226.
 Iteration    1 A*A^-1 deviation from orthogonality  is 1.83D-15 for   1982   1544.
 Iteration    1 A^-1*A deviation from unit magnitude is 3.22D-15 for    226.
 Iteration    1 A^-1*A deviation from orthogonality  is 3.43D-14 for   1131   1025.
 Making orbital integer symmetry assigments:
 Orbital symmetries:
       Occupied  (A) (A) (A) (A) (A) (A) (A) (A) (A) (A) (A) (A)
                 (A) (A) (A) (A) (A) (A) (A) (A) (A) (A) (A) (A)
                 (A) (A) (A) (A) (A) (A) (A) (A) (A) (A) (A) (A)
                 (A) (A) (A) (A) (A) (A) (A) (A) (A) (A) (A) (A)
                 (A) (A) (A) (A) (A) (A) (A) (A) (A) (A) (A) (A)
                 (A) (A) (A)
       Virtual   (A) (A) (A) (A) (A) (A) (A) (A) (A) (A) (A) (A)
                 (A) (A) (A) (A) (A) (A) (A) (A) (A) (A) (A) (A)
                 (A) (A) (A) (A) (A) (A) (A) (A) (A) (A) (A) (A)
                 (A) (A) (A) (A) (A) (A) (A) (A) (A) (A) (A) (A)
                 (A) (A) (A) (A) (A) (A) (A) (A) (A) (A) (A) (A)
                 (A) (A) (A) (A) (A) (A) (A) (A) (A) (A) (A) (A)
                 (A) (A) (A) (A) (A) (A) (A) (A) (A) (A) (A) (A)
                 (A) (A) (A) (A) (A) (A) (A) (A) (A) (A) (A) (A)
                 (A) (A) (A) (A) (A) (A) (A) (A) (A) (A) (A) (A)
                 (A) (A) (A) (A) (A) (A) (A) (A) (A) (A) (A) (A)
                 (A) (A) (A) (A) (A) (A) (A) (A) (A) (A) (A) (A)
                 (A) (A) (A) (A) (A) (A) (A) (A) (A) (A) (A) (A)
                 (A) (A) (A) (A) (A) (A) (A) (A) (A) (A) (A) (A)
                 (A) (A) (A) (A) (A) (A) (A) (A) (A) (A) (A) (A)
                 (A) (A) (A) (A) (A) (A) (A) (A) (A) (A) (A) (A)
                 (A) (A) (A) (A) (A) (A) (A) (A) (A) (A) (A) (A)
                 (A) (A) (A) (A) (A) (A) (A) (A) (A) (A) (A) (A)
                 (A) (A) (A) (A) (A) (A) (A) (A) (A) (A) (A) (A)
                 (A) (A) (A) (A) (A) (A) (A) (A) (A) (A) (A) (A)
                 (A) (A) (A) (A) (A) (A) (A) (A) (A) (A) (A) (A)
                 (A) (A) (A) (A) (A) (A) (A) (A) (A) (A) (A) (A)
                 (A) (A) (A) (A) (A) (A) (A) (A) (A) (A) (A) (A)
                 (A) (A) (A) (A) (A) (A) (A) (A) (A) (A) (A) (A)
                 (A) (A) (A) (A) (A) (A) (A) (A) (A) (A) (A) (A)
                 (A) (A) (A) (A) (A) (A)
    40 initial guesses have been made.
 Convergence on wavefunction:    0.001000000000000
 Davidson Disk Diagonalization:  ConvIn= 1.00D-03 SkipCon=T Conv= 1.00D-03.
 Max sub-space:  2000 roots to seek:    40 dimension of matrix:        27048
 Iteration     1 Dimension    40 NMult     0 NNew     40
 CISAX will form    40 AO SS matrices at one time.
 NMat=    40 NSing=    40 JSym2X= 0.
 FoFJK:  IHMeth= 1 ICntrl=       0 DoSepK=F KAlg= 0 I1Cent=           0 FoldK=F
 IRaf= 860000000 NMat=      80 IRICut=     100 DoRegI=T DoRafI=T ISym2E= 0 IDoP0=0 IntGTp=1.
 New state      1 was old state      2
 New state      2 was old state      1
 New state      6 was old state      8
 New state      7 was old state     12
 New state      8 was old state      9
 New state      9 was old state      6
 New state     10 was old state     16
 Excitation Energies [eV] at current iteration:
 Root      1 :     4.202778510617337
 Root      2 :     4.335150934335709
 Root      3 :     4.547645032156686
 Root      4 :     4.699625673945634
 Root      5 :     5.560450577086593
 Root      6 :     5.913491029349551
 Root      7 :     5.986849532876669
 Root      8 :     6.010521715026991
 Root      9 :     6.063842927729597
 Root     10 :     6.171443306692845
 Root     11 :     6.238838270168467
 Root     12 :     6.386696377060725
 Root     13 :     6.397368516721693
 Root     14 :     6.550813740337084
 Root     15 :     6.563213821731808
 Root     16 :     6.611730327513042
 Root     17 :     6.669106237445106
 Root     18 :     6.691826197001551
 Root     19 :     6.753267552473615
 Root     20 :     6.844517521613777
 Root     21 :     6.866136284544572
 Root     22 :     6.876677861956749
 Root     23 :     6.956691222823062
 Root     24 :     6.999930191641294
 Root     25 :     7.027794283157933
 Root     26 :     7.044131266537239
 Root     27 :     7.075046970406874
 Root     28 :     7.108782002056699
 Root     29 :     7.144677025017056
 Root     30 :     7.237565087296202
 Root     31 :     7.271491971313779
 Root     32 :     7.286224933553537
 Root     33 :     7.315435816597376
 Root     34 :     7.380447646734565
 Root     35 :     7.417711797644975
 Root     36 :     7.436151283893607
 Root     37 :     7.473486045806381
 Root     38 :     7.556247123819218
 Root     39 :     7.881880877747957
 Root     40 :     8.258287596138523
 Iteration     2 Dimension    60 NMult    40 NNew     20
 CISAX will form    20 AO SS matrices at one time.
 NMat=    20 NSing=    20 JSym2X= 0.
 New state      1 was old state      2
 Root      1 not converged, maximum delta is    0.350615208458471
 New state      2 was old state      1
 Root      2 not converged, maximum delta is    0.303317930629665
 Root      3 not converged, maximum delta is    0.224260067660089
 Root      4 not converged, maximum delta is    0.048742361271528
 Root      5 not converged, maximum delta is    0.098641034853545
 New state      6 was old state      9
 Root      6 not converged, maximum delta is    0.194784541726692
 New state      7 was old state      6
 Root      7 not converged, maximum delta is    0.146581902359054
 New state      8 was old state      7
 Root      8 not converged, maximum delta is    0.234031146734812
 New state      9 was old state      8
 Root      9 not converged, maximum delta is    0.163819983671420
 Root     10 not converged, maximum delta is    0.142157688884677
 Excitation Energies [eV] at current iteration:
 Root      1 :     3.883148990132268   Change is   -0.452001944203441
 Root      2 :     3.971706060644780   Change is   -0.231072449972558
 Root      3 :     4.469272896167334   Change is   -0.078372135989351
 Root      4 :     4.666128301002891   Change is   -0.033497372942742
 Root      5 :     5.302195957977990   Change is   -0.258254619108604
 Root      6 :     5.660524345688923   Change is   -0.403318582040674
 Root      7 :     5.883183078265406   Change is   -0.030307951084144
 Root      8 :     5.917449207879995   Change is   -0.069400324996673
 Root      9 :     5.927591554036693   Change is   -0.082930160990298
 Root     10 :     6.077857641564441   Change is   -0.093585665128404
 Iteration     3 Dimension    80 NMult    60 NNew     20
 CISAX will form    20 AO SS matrices at one time.
 NMat=    20 NSing=    20 JSym2X= 0.
 Root      1 not converged, maximum delta is    0.021758867700562
 Root      2 not converged, maximum delta is    0.020699503582720
 Root      3 not converged, maximum delta is    0.003800199213820
 Root      4 not converged, maximum delta is    0.001875925452107
 Root      5 not converged, maximum delta is    0.005230198899587
 Root      6 not converged, maximum delta is    0.033706765083033
 Root      7 not converged, maximum delta is    0.060047679813928
 Root      8 not converged, maximum delta is    0.147907385117330
 Root      9 not converged, maximum delta is    0.149120450526805
 Root     10 not converged, maximum delta is    0.130121802662074
 Excitation Energies [eV] at current iteration:
 Root      1 :     3.862949365832827   Change is   -0.020199624299442
 Root      2 :     3.962841149610458   Change is   -0.008864911034322
 Root      3 :     4.467664402221536   Change is   -0.001608493945798
 Root      4 :     4.664833903732583   Change is   -0.001294397270308
 Root      5 :     5.291156514025143   Change is   -0.011039443952846
 Root      6 :     5.628906515553727   Change is   -0.031617830135197
 Root      7 :     5.880011228494953   Change is   -0.003171849770454
 Root      8 :     5.908354334176545   Change is   -0.009094873703451
 Root      9 :     5.920479329339144   Change is   -0.007112224697550
 Root     10 :     6.042423246973196   Change is   -0.035434394591245
 Iteration     4 Dimension   100 NMult    80 NNew     20
 CISAX will form    20 AO SS matrices at one time.
 NMat=    20 NSing=    20 JSym2X= 0.
 Root      1 not converged, maximum delta is    0.001551955208408
 Root      2 not converged, maximum delta is    0.001470484254586
 Root      3 has converged.
 Root      4 has converged.
 Root      5 not converged, maximum delta is    0.001221379996574
 Root      6 not converged, maximum delta is    0.003696349288339
 Root      7 not converged, maximum delta is    0.013360317356393
 Root      8 not converged, maximum delta is    0.020603461235971
 Root      9 not converged, maximum delta is    0.020533598140997
 Root     10 not converged, maximum delta is    0.028017821254981
 Excitation Energies [eV] at current iteration:
 Root      1 :     3.861430168899551   Change is   -0.001519196933276
 Root      2 :     3.962365998784394   Change is   -0.000475150826064
 Root      3 :     4.467515341076259   Change is   -0.000149061145277
 Root      4 :     4.664730433275913   Change is   -0.000103470456670
 Root      5 :     5.289785656415616   Change is   -0.001370857609527
 Root      6 :     5.625907566097019   Change is   -0.002998949456709
 Root      7 :     5.879375072025664   Change is   -0.000636156469288
 Root      8 :     5.906968199024950   Change is   -0.001386135151594
 Root      9 :     5.919756343822766   Change is   -0.000722985516377
 Root     10 :     6.036618637429453   Change is   -0.005804609543743
 Iteration     5 Dimension   116 NMult   100 NNew     16
 CISAX will form    16 AO SS matrices at one time.
 NMat=    16 NSing=    16 JSym2X= 0.
 Root      1 has converged.
 Root      2 has converged.
 Root      3 has converged.
 Root      4 has converged.
 Root      5 has converged.
 Root      6 has converged.
 Root      7 not converged, maximum delta is    0.001298455263533
 Root      8 not converged, maximum delta is    0.001731689369830
 Root      9 has converged.
 Root     10 not converged, maximum delta is    0.003404696299688
 Excitation Energies [eV] at current iteration:
 Root      1 :     3.861357364348707   Change is   -0.000072804550844
 Root      2 :     3.962324069863711   Change is   -0.000041928920683
 Root      3 :     4.467509733093135   Change is   -0.000005607983124
 Root      4 :     4.664728020720220   Change is   -0.000002412555693
 Root      5 :     5.289661232082430   Change is   -0.000124424333186
 Root      6 :     5.625619356729750   Change is   -0.000288209367268
 Root      7 :     5.879313617153909   Change is   -0.000061454871756
 Root      8 :     5.906816243073843   Change is   -0.000151955951108
 Root      9 :     5.919682988790833   Change is   -0.000073355031934
 Root     10 :     6.035979093991521   Change is   -0.000639543437933
 Iteration     6 Dimension   122 NMult   116 NNew      6
 CISAX will form     6 AO SS matrices at one time.
 NMat=     6 NSing=     6 JSym2X= 0.
 Root      1 has converged.
 Root      2 has converged.
 Root      3 has converged.
 Root      4 has converged.
 Root      5 has converged.
 Root      6 has converged.
 Root      7 has converged.
 Root      8 has converged.
 Root      9 has converged.
 Root     10 has converged.
 Excitation Energies [eV] at current iteration:
 Root      1 :     3.861357099980233   Change is   -0.000000264368474
 Root      2 :     3.962323918524497   Change is   -0.000000151339213
 Root      3 :     4.467509537377474   Change is   -0.000000195715661
 Root      4 :     4.664727721336236   Change is   -0.000000299383984
 Root      5 :     5.289660209437241   Change is   -0.000001022645188
 Root      6 :     5.625612864857904   Change is   -0.000006491871847
 Root      7 :     5.879306223278795   Change is   -0.000007393875114
 Root      8 :     5.906797914629786   Change is   -0.000018328444057
 Root      9 :     5.919681938481088   Change is   -0.000001050309745
 Root     10 :     6.035906445090767   Change is   -0.000072648900755
 Convergence achieved on expansion vectors.
 ***********************************************************************
 Excited states from <AA,BB:AA,BB> singles matrix:
 ***********************************************************************
 
 1PDM for each excited state written to RWF  633
 Ground to excited state transition densities written to RWF  633
 Ground to excited state transition electric dipole moments (Au):
       state          X           Y           Z        Dip. S.      Osc.
         1        -2.3987      0.0200      0.0798      5.7606      0.5450
         2        -0.6387      0.4903      0.0226      0.6489      0.0630
         3         0.4411     -0.0306     -0.0095      0.1956      0.0214
         4         0.0827      0.0343      0.0125      0.0082      0.0009
         5         0.0582     -0.9844     -0.0084      0.9725      0.1260
         6        -0.9698      0.5824     -0.0647      1.2839      0.1770
         7         0.3950     -0.0060      0.1486      0.1781      0.0257
         8         0.4386      0.2640      0.0016      0.2621      0.0379
         9        -0.2381      0.1343      0.0032      0.0747      0.0108
        10        -1.1185     -0.1657     -0.1177      1.2924      0.1911
 Ground to excited state transition velocity dipole moments (Au):
       state          X           Y           Z        Dip. S.      Osc.
         1         0.3289     -0.0020     -0.0112      0.1083      0.5088
         2         0.0884     -0.0701     -0.0046      0.0127      0.0583
         3        -0.0707      0.0023      0.0011      0.0050      0.0203
         4        -0.0124     -0.0055      0.0039      0.0002      0.0008
         5        -0.0085      0.1882     -0.0020      0.0355      0.1218
         6         0.1989     -0.1157      0.0151      0.0532      0.1715
         7        -0.0848      0.0005     -0.0311      0.0082      0.0252
         8        -0.0976     -0.0558     -0.0093      0.0127      0.0390
         9         0.0522     -0.0269     -0.0034      0.0035      0.0106
        10         0.2395      0.0363      0.0262      0.0594      0.1785
 Ground to excited state transition magnetic dipole moments (Au):
       state          X           Y           Z
         1        -0.0684     -0.0289      0.0184
         2        -0.0330      0.0050     -0.3175
         3        -0.1907      0.0260     -0.1152
         4        -0.1007     -0.0464     -0.0764
         5         0.1692      0.1111      0.0643
         6        -0.0244     -0.1436      0.1751
         7         0.0508      0.4266      0.0201
         8        -0.0877      0.5663      0.0718
         9        -0.2116     -0.0039     -0.0624
        10         0.2239      0.0987     -0.0619
 Ground to excited state transition velocity quadrupole moments (Au):
       state          XX          YY          ZZ          XY          XZ          YZ
         1        -0.5819      0.0456      0.0282      0.1035     -0.1773      0.0228
         2        -0.1124     -0.0134      0.0013      0.0095     -0.0454      0.0063
         3         0.2305     -0.0177     -0.0123      0.0086      0.0442     -0.0074
         4         0.1676     -0.0410     -0.0065     -0.0245     -0.0174     -0.0056
         5        -0.2144      0.1094     -0.0124      0.5959      0.0078      0.0966
         6        -1.7209      0.2839      0.0506      0.6886     -0.0205      0.0453
         7         0.2541     -0.3664     -0.0009      0.0071     -0.2290      0.0396
         8        -0.0969     -0.1662     -0.0458      0.0225      0.0078     -0.0048
         9         0.4007      0.0429     -0.0053      0.0582     -0.0870      0.0059
        10        -0.1985      0.5360      0.0695      0.0668      0.0099      0.0355
 <0|del|b> * <b|rxdel|0> + <0|del|b> * <b|delr+rdel|0>
 Rotatory Strengths (R) in cgs (10**-40 erg-esu-cm/Gauss)
       state          XX          YY          ZZ    R(velocity)    E-M Angle
         1        -4.1221    -34.9846    -73.7183    -37.6083      154.06
         2        -5.1731     -2.1076     -1.5617     -2.9475       92.90
         3        -0.3369     29.8718     28.2451     19.2600       32.26
         4        -0.4748      2.3114      3.1592      1.6653       50.43
         5        32.9303     -2.1653     39.5941     23.4530       61.10
         6        46.6629     -6.1852      8.7676     16.4151       74.09
         7        -0.7966    -13.2074     -1.3748     -5.1263       96.95
         8       -52.1452     13.9518    -38.9634    -25.7190      111.33
         9        -3.6056    -16.7758    -14.4783    -11.6199      145.76
        10         5.3475     93.6926     78.2259     59.0887       25.33
 1/2[<0|r|b>*<b|rxdel|0> + (<0|rxdel|b>*<b|r|0>)*]
 Rotatory Strengths (R) in cgs (10**-40 erg-esu-cm/Gauss)
       state          XX          YY          ZZ     R(length)
         1      -116.0015      0.4100     -1.0379    -38.8765
         2       -14.9044     -1.7467      5.0664     -3.8616
         3        59.4883      0.5631     -0.7714     19.7600
         4         5.8861      1.1240      0.6738      2.5613
         5        -6.9640     77.3614      0.3828     23.5934
         6       -16.7638     59.1299      8.0066     16.7909
         7       -14.1785      1.8230     -2.1097     -4.8217
         8        27.2075   -105.7363     -0.0830    -26.2040
         9       -35.6398      0.3666      0.1414    -11.7106
        10       177.1322     11.5724     -5.1526     61.1840
  1/2[<0|del|b>*<b|r|0> + (<0|r|b>*<b|del|0>)*] (Au)
       state          X           Y           Z        Dip. S.   Osc.(frdel)
         1        -0.7889     -0.0000     -0.0009      0.7899      0.5266
         2        -0.0564     -0.0344     -0.0001      0.0909      0.0606
         3        -0.0312     -0.0001     -0.0000      0.0313      0.0208
         4        -0.0010     -0.0002      0.0000      0.0012      0.0008
         5        -0.0005     -0.1853      0.0000      0.1858      0.1238
         6        -0.1929     -0.0674     -0.0010      0.2613      0.1742
         7        -0.0335     -0.0000     -0.0046      0.0381      0.0254
         8        -0.0428     -0.0147     -0.0000      0.0575      0.0384
         9        -0.0124     -0.0036     -0.0000      0.0160      0.0107
        10        -0.2679     -0.0060     -0.0031      0.2770      0.1847

 Excitation energies and oscillator strengths:
 
 Excited State   1:      Singlet-A      3.8614 eV  321.09 nm  f=0.5450  <S**2>=0.000
      62 -> 64        -0.14989
      63 -> 64         0.68332
 This state for optimization and/or second-order correction.
 Total Energy, E(TD-HF/TD-DFT) =  -786.352925555    
 Copying the excited state density for this state as the 1-particle RhoCI density.
 
 Excited State   2:      Singlet-A      3.9623 eV  312.91 nm  f=0.0630  <S**2>=0.000
      62 -> 64         0.67415
      63 -> 64         0.14825
      63 -> 65         0.14327
 
 Excited State   3:      Singlet-A      4.4675 eV  277.52 nm  f=0.0214  <S**2>=0.000
      61 -> 64         0.70215
 
 Excited State   4:      Singlet-A      4.6647 eV  265.79 nm  f=0.0009  <S**2>=0.000
      60 -> 64         0.70331
 
 Excited State   5:      Singlet-A      5.2897 eV  234.39 nm  f=0.1260  <S**2>=0.000
      62 -> 64        -0.13342
      62 -> 68        -0.12717
      63 -> 65         0.66131
 
 Excited State   6:      Singlet-A      5.6256 eV  220.39 nm  f=0.1770  <S**2>=0.000
      59 -> 64         0.67901
      62 -> 65         0.12030
 
 Excited State   7:      Singlet-A      5.8793 eV  210.88 nm  f=0.0257  <S**2>=0.000
      61 -> 65         0.14056
      62 -> 65        -0.17960
      63 -> 66         0.62274
      63 -> 67         0.17862
      63 -> 68         0.10708
 
 Excited State   8:      Singlet-A      5.9068 eV  209.90 nm  f=0.0379  <S**2>=0.000
      58 -> 64         0.13591
      61 -> 65         0.55657
      62 -> 65        -0.29391
      63 -> 66        -0.19659
      63 -> 68        -0.13479
 
 Excited State   9:      Singlet-A      5.9197 eV  209.44 nm  f=0.0108  <S**2>=0.000
      58 -> 64         0.67409
      61 -> 65        -0.11339
      62 -> 65         0.10137
 
 Excited State  10:      Singlet-A      6.0359 eV  205.41 nm  f=0.1911  <S**2>=0.000
      57 -> 64         0.11493
      60 -> 65        -0.39273
      61 -> 65         0.33257
      62 -> 65         0.41244
      63 -> 68         0.16660
 SavETr:  write IOETrn=   770 NScale= 10 NData=  16 NLR=1 NState=   10 LETran=     190.
 Leave Link  914 at Wed Jul 29 14:40:21 2026, MaxMem=  4026531840 cpu:            1677.7 elap:             210.7
 (Enter /opt/packages/gaussian/g16RevC.01/g16/l601.exe)
 Copying SCF densities to generalized density rwf, IOpCl= 0 IROHF=0.

 **********************************************************************

            Population analysis using the SCF Density.

 **********************************************************************

 Orbital symmetries:
       Occupied  (A) (A) (A) (A) (A) (A) (A) (A) (A) (A) (A) (A)
                 (A) (A) (A) (A) (A) (A) (A) (A) (A) (A) (A) (A)
                 (A) (A) (A) (A) (A) (A) (A) (A) (A) (A) (A) (A)
                 (A) (A) (A) (A) (A) (A) (A) (A) (A) (A) (A) (A)
                 (A) (A) (A) (A) (A) (A) (A) (A) (A) (A) (A) (A)
                 (A) (A) (A)
       Virtual   (A) (A) (A) (A) (A) (A) (A) (A) (A) (A) (A) (A)
                 (A) (A) (A) (A) (A) (A) (A) (A) (A) (A) (A) (A)
                 (A) (A) (A) (A) (A) (A) (A) (A) (A) (A) (A) (A)
                 (A) (A) (A) (A) (A) (A) (A) (A) (A) (A) (A) (A)
                 (A) (A) (A) (A) (A) (A) (A) (A) (A) (A) (A) (A)
                 (A) (A) (A) (A) (A) (A) (A) (A) (A) (A) (A) (A)
                 (A) (A) (A) (A) (A) (A) (A) (A) (A) (A) (A) (A)
                 (A) (A) (A) (A) (A) (A) (A) (A) (A) (A) (A) (A)
                 (A) (A) (A) (A) (A) (A) (A) (A) (A) (A) (A) (A)
                 (A) (A) (A) (A) (A) (A) (A) (A) (A) (A) (A) (A)
                 (A) (A) (A) (A) (A) (A) (A) (A) (A) (A) (A) (A)
                 (A) (A) (A) (A) (A) (A) (A) (A) (A) (A) (A) (A)
                 (A) (A) (A) (A) (A) (A) (A) (A) (A) (A) (A) (A)
                 (A) (A) (A) (A) (A) (A) (A) (A) (A) (A) (A) (A)
                 (A) (A) (A) (A) (A) (A) (A) (A) (A) (A) (A) (A)
                 (A) (A) (A) (A) (A) (A) (A) (A) (A) (A) (A) (A)
                 (A) (A) (A) (A) (A) (A) (A) (A) (A) (A) (A) (A)
                 (A) (A) (A) (A) (A) (A) (A) (A) (A) (A) (A) (A)
                 (A) (A) (A) (A) (A) (A) (A) (A) (A) (A) (A) (A)
                 (A) (A) (A) (A) (A) (A) (A) (A) (A) (A) (A) (A)
                 (A) (A) (A) (A) (A) (A) (A) (A) (A) (A) (A) (A)
                 (A) (A) (A) (A) (A) (A) (A) (A) (A) (A) (A) (A)
                 (A) (A) (A) (A) (A) (A) (A) (A) (A) (A) (A) (A)
                 (A) (A) (A) (A) (A) (A) (A) (A) (A) (A) (A) (A)
                 (A) (A) (A) (A) (A) (A)
 The electronic state is 1-A.
 Alpha  occ. eigenvalues --  -19.20267 -19.18112 -19.17925 -14.42275 -10.29998
 Alpha  occ. eigenvalues --  -10.28208 -10.26578 -10.26441 -10.23921 -10.23749
 Alpha  occ. eigenvalues --  -10.23443 -10.23228 -10.23088 -10.21883 -10.21789
 Alpha  occ. eigenvalues --  -10.21248 -10.20103  -1.09048  -1.06131  -1.05360
 Alpha  occ. eigenvalues --   -1.01351  -0.87910  -0.80593  -0.80224  -0.77209
 Alpha  occ. eigenvalues --   -0.75415  -0.71724  -0.69722  -0.68808  -0.64121
 Alpha  occ. eigenvalues --   -0.63001  -0.61877  -0.60688  -0.56027  -0.53832
 Alpha  occ. eigenvalues --   -0.52920  -0.51151  -0.50640  -0.48983  -0.48678
 Alpha  occ. eigenvalues --   -0.46943  -0.45932  -0.45913  -0.45282  -0.44223
 Alpha  occ. eigenvalues --   -0.43748  -0.43218  -0.43112  -0.41815  -0.41155
 Alpha  occ. eigenvalues --   -0.39875  -0.38477  -0.38372  -0.37111  -0.36350
 Alpha  occ. eigenvalues --   -0.35794  -0.34644  -0.33643  -0.31940  -0.29048
 Alpha  occ. eigenvalues --   -0.28334  -0.26167  -0.24329
 Alpha virt. eigenvalues --   -0.09109  -0.02502   0.00012   0.01070   0.01580
 Alpha virt. eigenvalues --    0.02033   0.02480   0.02733   0.02971   0.03531
 Alpha virt. eigenvalues --    0.03826   0.04058   0.04558   0.05073   0.05533
 Alpha virt. eigenvalues --    0.06292   0.06460   0.07250   0.07408   0.07623
 Alpha virt. eigenvalues --    0.08578   0.08626   0.09360   0.09776   0.09959
 Alpha virt. eigenvalues --    0.10255   0.10820   0.11384   0.11562   0.12366
 Alpha virt. eigenvalues --    0.12509   0.13357   0.13418   0.13693   0.13993
 Alpha virt. eigenvalues --    0.14890   0.14943   0.15035   0.15360   0.15956
 Alpha virt. eigenvalues --    0.16347   0.16660   0.17177   0.17441   0.18080
 Alpha virt. eigenvalues --    0.18653   0.18770   0.19007   0.19932   0.20247
 Alpha virt. eigenvalues --    0.20591   0.20885   0.21185   0.21623   0.22120
 Alpha virt. eigenvalues --    0.22813   0.23179   0.23395   0.23948   0.24506
 Alpha virt. eigenvalues --    0.24675   0.25090   0.25400   0.25838   0.26241
 Alpha virt. eigenvalues --    0.26527   0.27160   0.27255   0.27310   0.28137
 Alpha virt. eigenvalues --    0.28350   0.29186   0.29324   0.29463   0.30155
 Alpha virt. eigenvalues --    0.30563   0.31149   0.31673   0.32072   0.32593
 Alpha virt. eigenvalues --    0.32677   0.33530   0.33951   0.34493   0.34860
 Alpha virt. eigenvalues --    0.35429   0.35775   0.36268   0.37818   0.38175
 Alpha virt. eigenvalues --    0.38690   0.39471   0.39839   0.40110   0.40917
 Alpha virt. eigenvalues --    0.42111   0.43201   0.43545   0.43664   0.45512
 Alpha virt. eigenvalues --    0.46989   0.47148   0.48610   0.49496   0.58365
 Alpha virt. eigenvalues --    0.61079   0.62993   0.65467   0.66196   0.66641
 Alpha virt. eigenvalues --    0.67182   0.67907   0.68714   0.69366   0.70064
 Alpha virt. eigenvalues --    0.70366   0.70908   0.71440   0.72768   0.73208
 Alpha virt. eigenvalues --    0.73553   0.75144   0.76252   0.76752   0.77967
 Alpha virt. eigenvalues --    0.78442   0.79269   0.80088   0.80525   0.82923
 Alpha virt. eigenvalues --    0.83859   0.85223   0.86720   0.87543   0.90408
 Alpha virt. eigenvalues --    0.90972   0.93050   0.93547   0.95305   0.95484
 Alpha virt. eigenvalues --    0.95988   0.96996   0.97581   0.98367   0.99376
 Alpha virt. eigenvalues --    0.99498   0.99945   1.00471   1.02709   1.04597
 Alpha virt. eigenvalues --    1.05456   1.08027   1.08371   1.08894   1.10574
 Alpha virt. eigenvalues --    1.11071   1.11602   1.12509   1.14023   1.14777
 Alpha virt. eigenvalues --    1.15627   1.15749   1.17350   1.18361   1.19258
 Alpha virt. eigenvalues --    1.21631   1.22081   1.23843   1.24812   1.25528
 Alpha virt. eigenvalues --    1.26410   1.26906   1.27879   1.29279   1.30542
 Alpha virt. eigenvalues --    1.32635   1.33214   1.34849   1.35845   1.37572
 Alpha virt. eigenvalues --    1.38149   1.39324   1.41322   1.43117   1.44786
 Alpha virt. eigenvalues --    1.46968   1.49327   1.49898   1.51197   1.52108
 Alpha virt. eigenvalues --    1.53352   1.54047   1.55807   1.60021   1.60088
 Alpha virt. eigenvalues --    1.62713   1.63040   1.65707   1.71719   1.73509
 Alpha virt. eigenvalues --    1.75022   1.75685   1.77010   1.79223   1.80991
 Alpha virt. eigenvalues --    1.81532   1.82084   1.83285   1.84729   1.86288
 Alpha virt. eigenvalues --    1.88798   1.89637   1.91245   1.92806   1.93284
 Alpha virt. eigenvalues --    1.95279   1.98183   1.98423   2.00309   2.01486
 Alpha virt. eigenvalues --    2.03515   2.03825   2.04459   2.05835   2.07752
 Alpha virt. eigenvalues --    2.09319   2.09733   2.11235   2.11784   2.15297
 Alpha virt. eigenvalues --    2.15647   2.17643   2.18474   2.19068   2.20955
 Alpha virt. eigenvalues --    2.23932   2.24984   2.26607   2.27959   2.28759
 Alpha virt. eigenvalues --    2.28910   2.32316   2.33912   2.34284   2.36503
 Alpha virt. eigenvalues --    2.39208   2.39460   2.41043   2.43556   2.45430
 Alpha virt. eigenvalues --    2.47197   2.47974   2.51848   2.54813   2.56106
 Alpha virt. eigenvalues --    2.57975   2.61123   2.62858   2.63668   2.66120
 Alpha virt. eigenvalues --    2.67157   2.70961   2.75764   2.78724   2.79394
 Alpha virt. eigenvalues --    2.83380   2.85054   2.86821   2.91380   2.93547
 Alpha virt. eigenvalues --    2.98302   3.07970   3.09280   3.13855   3.15526
 Alpha virt. eigenvalues --    3.31980   3.45730   4.09692   4.20061   4.24549
 Alpha virt. eigenvalues --    4.27259   4.29799   4.33607   4.35174   4.36389
 Alpha virt. eigenvalues --    4.37426   4.40023   4.43683   4.44163   4.54679
 Alpha virt. eigenvalues --    4.61411   4.67684   4.70839   5.15481
          Condensed to atoms (all electrons):
               1          2          3          4          5          6
     1  C   22.715254   0.906026  -4.740846  -0.904899  -7.999215  -4.559786
     2  C    0.906026  17.508523  -7.310050  -1.557152   3.652304  -8.753359
     3  C   -4.740846  -7.310050  28.536076   3.319601 -12.015608   4.886618
     4  C   -0.904899  -1.557152   3.319601  14.403754  -6.413340   0.227922
     5  C   -7.999215   3.652304 -12.015608  -6.413340  28.760246  -5.195692
     6  C   -4.559786  -8.753359   4.886618   0.227922  -5.195692  21.272211
     7  O   -0.041834   0.090450  -0.069865   0.025892  -0.506494   0.574259
     8  O   -0.173963   0.261387  -0.055632   0.049482  -0.025066   0.012038
     9  H    0.045270   0.113931   0.138167  -0.020693   0.042086  -0.049377
    10  H    0.018432  -0.011666  -0.006338  -0.048232   0.297260  -0.014587
    11  O    0.319737   0.076568   0.005362  -0.030566   0.155127  -0.510352
    12  C    0.106686  -0.489550  -0.226835  -0.006659   0.126377   0.291518
    13  H    0.025898  -0.008444   0.004187  -0.000675  -0.011990  -0.018666
    14  H   -0.073677   0.042170   0.016917   0.004623   0.004439   0.012879
    15  H    0.011885  -0.034078  -0.008558  -0.001724   0.004989   0.024379
    16  C   -0.329293   1.266682  -3.476445  -1.914166   4.203305  -1.526802
    17  C   -0.094985   0.171309  -1.022360  -1.040073   0.299477  -0.122415
    18  N    0.018424  -0.029008  -0.115448   0.001149   0.112368   0.154146
    19  C   -0.017997  -0.036546  -0.028609   0.050549  -0.132757   0.020030
    20  C   -0.003588   0.050984  -0.047274  -0.033554   0.097046  -0.015909
    21  H    0.002957   0.005757   0.015281  -0.032627  -0.009159   0.002027
    22  H   -0.001479  -0.013603  -0.023290   0.010149   0.013555   0.006298
    23  H    0.000017  -0.000862  -0.006156  -0.017231   0.008956   0.001066
    24  H   -0.000093  -0.000373  -0.000462   0.003685  -0.003307   0.000499
    25  H   -0.000009  -0.000696  -0.008820  -0.000762   0.009433   0.000851
    26  H    0.000068   0.001271   0.002955  -0.000270  -0.001474  -0.000511
    27  H    0.007218  -0.001906  -0.052760  -0.135989   0.123168   0.048382
    28  C   -0.084348  -0.112644  -0.022051  -0.049679   0.103296  -0.052218
    29  H   -0.060141   0.013427  -0.013032  -0.037471   0.114411  -0.022152
    30  H    0.013869   0.002447  -0.000637  -0.003212  -0.004901  -0.006439
    31  H    0.035184  -0.025927   0.021255   0.018266  -0.079334   0.029783
    32  C    0.048880  -0.379585   0.145627  -0.063010  -0.026054   0.076523
    33  H   -0.029355   0.040687  -0.025315   0.020221   0.010589  -0.016790
    34  H    0.007782  -0.033073   0.026397  -0.005615  -0.001373   0.008635
    35  H   -0.004099   0.001612   0.045807  -0.031462  -0.006878   0.005695
               7          8          9         10         11         12
     1  C   -0.041834  -0.173963   0.045270   0.018432   0.319737   0.106686
     2  C    0.090450   0.261387   0.113931  -0.011666   0.076568  -0.489550
     3  C   -0.069865  -0.055632   0.138167  -0.006338   0.005362  -0.226835
     4  C    0.025892   0.049482  -0.020693  -0.048232  -0.030566  -0.006659
     5  C   -0.506494  -0.025066   0.042086   0.297260   0.155127   0.126377
     6  C    0.574259   0.012038  -0.049377  -0.014587  -0.510352   0.291518
     7  O    8.367260  -0.000394   0.000085  -0.002138   0.000139   0.000831
     8  O   -0.000394   8.444329   0.000250   0.000082  -0.010293  -0.012113
     9  H    0.000085   0.000250   0.463587  -0.000098  -0.000532   0.001180
    10  H   -0.002138   0.000082  -0.000098   0.472547  -0.000489   0.000287
    11  O    0.000139  -0.010293  -0.000532  -0.000489   8.493138   0.014396
    12  C    0.000831  -0.012113   0.001180   0.000287   0.014396   5.366943
    13  H    0.000709  -0.003554   0.000002   0.000000  -0.043116   0.392250
    14  H   -0.000400  -0.008954   0.000001  -0.000000  -0.034594   0.384014
    15  H    0.000075   0.001759  -0.000000  -0.000000  -0.053897   0.396076
    16  C   -0.010880   0.000059   0.021178   0.034444   0.006247   0.003189
    17  C   -0.001749   0.005226  -0.002071   0.017453   0.000405  -0.000292
    18  N    0.000083   0.000322   0.000280  -0.000751   0.000097  -0.000091
    19  C    0.000104  -0.000252  -0.000062   0.003715   0.000002  -0.000095
    20  C   -0.000397   0.000274  -0.000332  -0.000344   0.000209   0.000333
    21  H    0.000001  -0.000025   0.000401   0.000001  -0.000000  -0.000014
    22  H   -0.000000   0.000008  -0.000845  -0.000003   0.000001  -0.000002
    23  H   -0.000000  -0.000000  -0.000000  -0.000004   0.000000   0.000000
    24  H    0.000000   0.000000   0.000000   0.000003  -0.000000  -0.000000
    25  H    0.000000   0.000000  -0.000007  -0.000000   0.000000  -0.000000
    26  H    0.000000  -0.000000   0.000001   0.000000   0.000000   0.000000
    27  H    0.000099   0.000002   0.000000   0.004403  -0.000003   0.000002
    28  C    0.086985   0.001078  -0.000127   0.001862   0.003143   0.001132
    29  H   -0.050962  -0.000005   0.000000   0.000119   0.000538   0.000037
    30  H   -0.045784  -0.000003   0.000000  -0.000036  -0.000326  -0.000668
    31  H   -0.047815   0.000000   0.000000   0.000011  -0.000212   0.000339
    32  C    0.000460   0.087841   0.001250  -0.000022   0.013517  -0.023459
    33  H    0.000023  -0.059238   0.000035   0.000000   0.003098  -0.000751
    34  H   -0.000004  -0.048150  -0.000051   0.000000  -0.000387  -0.001703
    35  H   -0.000007  -0.044539   0.000394  -0.000000  -0.000742  -0.000184
              13         14         15         16         17         18
     1  C    0.025898  -0.073677   0.011885  -0.329293  -0.094985   0.018424
     2  C   -0.008444   0.042170  -0.034078   1.266682   0.171309  -0.029008
     3  C    0.004187   0.016917  -0.008558  -3.476445  -1.022360  -0.115448
     4  C   -0.000675   0.004623  -0.001724  -1.914166  -1.040073   0.001149
     5  C   -0.011990   0.004439   0.004989   4.203305   0.299477   0.112368
     6  C   -0.018666   0.012879   0.024379  -1.526802  -0.122415   0.154146
     7  O    0.000709  -0.000400   0.000075  -0.010880  -0.001749   0.000083
     8  O   -0.003554  -0.008954   0.001759   0.000059   0.005226   0.000322
     9  H    0.000002   0.000001  -0.000000   0.021178  -0.002071   0.000280
    10  H    0.000000  -0.000000  -0.000000   0.034444   0.017453  -0.000751
    11  O   -0.043116  -0.034594  -0.053897   0.006247   0.000405   0.000097
    12  C    0.392250   0.384014   0.396076   0.003189  -0.000292  -0.000091
    13  H    0.482671  -0.032515  -0.027014  -0.000113  -0.000039   0.000000
    14  H   -0.032515   0.484396  -0.030056   0.000568   0.000045  -0.000000
    15  H   -0.027014  -0.030056   0.487058  -0.000188  -0.000014   0.000000
    16  C   -0.000113   0.000568  -0.000188   7.887159  -0.957920   0.354049
    17  C   -0.000039   0.000045  -0.000014  -0.957920   9.071871  -0.391327
    18  N    0.000000  -0.000000   0.000000   0.354049  -0.391327   6.999886
    19  C    0.000001   0.000000  -0.000000  -0.531400   0.387524   0.082772
    20  C   -0.000004   0.000000  -0.000000   0.242055  -0.761220  -0.049943
    21  H   -0.000000   0.000000  -0.000000  -0.076512   0.403526   0.008978
    22  H    0.000000  -0.000000   0.000000  -0.025986   0.350532   0.005433
    23  H   -0.000000   0.000000  -0.000000  -0.028324   0.032389  -0.033817
    24  H    0.000000  -0.000000   0.000000  -0.015742   0.039700  -0.036381
    25  H    0.000000  -0.000000   0.000000   0.032185  -0.111560   0.012411
    26  H    0.000000   0.000000  -0.000000   0.026937  -0.083575   0.006000
    27  H    0.000000  -0.000000  -0.000000   0.003507  -0.006534   0.251771
    28  C    0.000959  -0.001051   0.000501  -0.005485  -0.003141   0.001044
    29  H    0.000000  -0.000000   0.000000   0.005569  -0.000050   0.000076
    30  H   -0.000000   0.000000  -0.000000   0.000049  -0.000006  -0.000001
    31  H   -0.000002   0.000005  -0.000018  -0.002220   0.000064  -0.000002
    32  C    0.004121  -0.007794  -0.000031  -0.026701  -0.004762   0.000283
    33  H    0.000032   0.000792  -0.000030   0.003993   0.000448  -0.000000
    34  H   -0.000016   0.000014  -0.000004  -0.000103   0.000088  -0.000000
    35  H   -0.000016   0.000005   0.000001  -0.006956  -0.001030   0.000005
              19         20         21         22         23         24
     1  C   -0.017997  -0.003588   0.002957  -0.001479   0.000017  -0.000093
     2  C   -0.036546   0.050984   0.005757  -0.013603  -0.000862  -0.000373
     3  C   -0.028609  -0.047274   0.015281  -0.023290  -0.006156  -0.000462
     4  C    0.050549  -0.033554  -0.032627   0.010149  -0.017231   0.003685
     5  C   -0.132757   0.097046  -0.009159   0.013555   0.008956  -0.003307
     6  C    0.020030  -0.015909   0.002027   0.006298   0.001066   0.000499
     7  O    0.000104  -0.000397   0.000001  -0.000000  -0.000000   0.000000
     8  O   -0.000252   0.000274  -0.000025   0.000008  -0.000000   0.000000
     9  H   -0.000062  -0.000332   0.000401  -0.000845  -0.000000   0.000000
    10  H    0.003715  -0.000344   0.000001  -0.000003  -0.000004   0.000003
    11  O    0.000002   0.000209  -0.000000   0.000001   0.000000  -0.000000
    12  C   -0.000095   0.000333  -0.000014  -0.000002   0.000000  -0.000000
    13  H    0.000001  -0.000004  -0.000000   0.000000  -0.000000   0.000000
    14  H    0.000000   0.000000   0.000000  -0.000000   0.000000  -0.000000
    15  H   -0.000000  -0.000000  -0.000000   0.000000  -0.000000   0.000000
    16  C   -0.531400   0.242055  -0.076512  -0.025986  -0.028324  -0.015742
    17  C    0.387524  -0.761220   0.403526   0.350532   0.032389   0.039700
    18  N    0.082772  -0.049943   0.008978   0.005433  -0.033817  -0.036381
    19  C    6.073362  -0.267041   0.022103   0.007386   0.424816   0.432752
    20  C   -0.267041   6.646652  -0.023544  -0.022813  -0.066637  -0.092939
    21  H    0.022103  -0.023544   0.438754  -0.024465  -0.000193  -0.000037
    22  H    0.007386  -0.022813  -0.024465   0.433786   0.001091  -0.000170
    23  H    0.424816  -0.066637  -0.000193   0.001091   0.458660  -0.031234
    24  H    0.432752  -0.092939  -0.000037  -0.000170  -0.031234   0.456021
    25  H   -0.089001   0.477049  -0.005564   0.003022   0.003056  -0.005731
    26  H   -0.065947   0.442732   0.001132  -0.004805  -0.003773   0.001581
    27  H   -0.028578   0.016869  -0.000093  -0.000226   0.000058  -0.000792
    28  C   -0.000272   0.000211  -0.000004   0.000016  -0.000003  -0.000000
    29  H   -0.000031   0.000018   0.000000  -0.000000   0.000000  -0.000000
    30  H   -0.000000   0.000000  -0.000000  -0.000000   0.000000  -0.000000
    31  H    0.000007  -0.000001  -0.000000   0.000000  -0.000000   0.000000
    32  C   -0.000811  -0.000953   0.000087   0.000031  -0.000003   0.000001
    33  H    0.000006   0.000029   0.000000  -0.000000   0.000000  -0.000000
    34  H    0.000001   0.000006   0.000000   0.000000   0.000000  -0.000000
    35  H   -0.000024  -0.000120  -0.000002   0.000000   0.000000  -0.000000
              25         26         27         28         29         30
     1  C   -0.000009   0.000068   0.007218  -0.084348  -0.060141   0.013869
     2  C   -0.000696   0.001271  -0.001906  -0.112644   0.013427   0.002447
     3  C   -0.008820   0.002955  -0.052760  -0.022051  -0.013032  -0.000637
     4  C   -0.000762  -0.000270  -0.135989  -0.049679  -0.037471  -0.003212
     5  C    0.009433  -0.001474   0.123168   0.103296   0.114411  -0.004901
     6  C    0.000851  -0.000511   0.048382  -0.052218  -0.022152  -0.006439
     7  O    0.000000   0.000000   0.000099   0.086985  -0.050962  -0.045784
     8  O    0.000000  -0.000000   0.000002   0.001078  -0.000005  -0.000003
     9  H   -0.000007   0.000001   0.000000  -0.000127   0.000000   0.000000
    10  H   -0.000000   0.000000   0.004403   0.001862   0.000119  -0.000036
    11  O    0.000000   0.000000  -0.000003   0.003143   0.000538  -0.000326
    12  C   -0.000000   0.000000   0.000002   0.001132   0.000037  -0.000668
    13  H    0.000000   0.000000   0.000000   0.000959   0.000000  -0.000000
    14  H   -0.000000   0.000000  -0.000000  -0.001051  -0.000000   0.000000
    15  H    0.000000  -0.000000  -0.000000   0.000501   0.000000  -0.000000
    16  C    0.032185   0.026937   0.003507  -0.005485   0.005569   0.000049
    17  C   -0.111560  -0.083575  -0.006534  -0.003141  -0.000050  -0.000006
    18  N    0.012411   0.006000   0.251771   0.001044   0.000076  -0.000001
    19  C   -0.089001  -0.065947  -0.028578  -0.000272  -0.000031  -0.000000
    20  C    0.477049   0.442732   0.016869   0.000211   0.000018   0.000000
    21  H   -0.005564   0.001132  -0.000093  -0.000004   0.000000  -0.000000
    22  H    0.003022  -0.004805  -0.000226   0.000016  -0.000000  -0.000000
    23  H    0.003056  -0.003773   0.000058  -0.000003   0.000000   0.000000
    24  H   -0.005731   0.001581  -0.000792  -0.000000  -0.000000  -0.000000
    25  H    0.460896  -0.025504  -0.000170   0.000003  -0.000000  -0.000000
    26  H   -0.025504   0.457805  -0.000073  -0.000000  -0.000000   0.000000
    27  H   -0.000170  -0.000073   0.277522   0.000071  -0.000002   0.000000
    28  C    0.000003  -0.000000   0.000071   5.345550   0.385181   0.393746
    29  H   -0.000000  -0.000000  -0.000002   0.385181   0.510600  -0.027244
    30  H   -0.000000   0.000000   0.000000   0.393746  -0.027244   0.482258
    31  H   -0.000000   0.000000   0.000000   0.388732  -0.038862  -0.026355
    32  C   -0.000001   0.000002   0.000003   0.000257  -0.000026  -0.000003
    33  H    0.000000   0.000000   0.000000  -0.000047   0.000000   0.000000
    34  H    0.000000  -0.000000   0.000000   0.000015  -0.000000  -0.000000
    35  H    0.000000  -0.000000  -0.000000  -0.000078   0.000000   0.000000
              31         32         33         34         35
     1  C    0.035184   0.048880  -0.029355   0.007782  -0.004099
     2  C   -0.025927  -0.379585   0.040687  -0.033073   0.001612
     3  C    0.021255   0.145627  -0.025315   0.026397   0.045807
     4  C    0.018266  -0.063010   0.020221  -0.005615  -0.031462
     5  C   -0.079334  -0.026054   0.010589  -0.001373  -0.006878
     6  C    0.029783   0.076523  -0.016790   0.008635   0.005695
     7  O   -0.047815   0.000460   0.000023  -0.000004  -0.000007
     8  O    0.000000   0.087841  -0.059238  -0.048150  -0.044539
     9  H    0.000000   0.001250   0.000035  -0.000051   0.000394
    10  H    0.000011  -0.000022   0.000000   0.000000  -0.000000
    11  O   -0.000212   0.013517   0.003098  -0.000387  -0.000742
    12  C    0.000339  -0.023459  -0.000751  -0.001703  -0.000184
    13  H   -0.000002   0.004121   0.000032  -0.000016  -0.000016
    14  H    0.000005  -0.007794   0.000792   0.000014   0.000005
    15  H   -0.000018  -0.000031  -0.000030  -0.000004   0.000001
    16  C   -0.002220  -0.026701   0.003993  -0.000103  -0.006956
    17  C    0.000064  -0.004762   0.000448   0.000088  -0.001030
    18  N   -0.000002   0.000283  -0.000000  -0.000000   0.000005
    19  C    0.000007  -0.000811   0.000006   0.000001  -0.000024
    20  C   -0.000001  -0.000953   0.000029   0.000006  -0.000120
    21  H   -0.000000   0.000087   0.000000   0.000000  -0.000002
    22  H    0.000000   0.000031  -0.000000   0.000000   0.000000
    23  H   -0.000000  -0.000003   0.000000   0.000000   0.000000
    24  H    0.000000   0.000001  -0.000000  -0.000000  -0.000000
    25  H   -0.000000  -0.000001   0.000000   0.000000   0.000000
    26  H    0.000000   0.000002   0.000000  -0.000000  -0.000000
    27  H    0.000000   0.000003   0.000000   0.000000  -0.000000
    28  C    0.388732   0.000257  -0.000047   0.000015  -0.000078
    29  H   -0.038862  -0.000026   0.000000  -0.000000   0.000000
    30  H   -0.026355  -0.000003   0.000000  -0.000000   0.000000
    31  H    0.503755  -0.000240  -0.000001   0.000000   0.000000
    32  C   -0.000240   5.362057   0.384242   0.394712   0.379748
    33  H   -0.000001   0.384242   0.502230  -0.027035  -0.037383
    34  H    0.000000   0.394712  -0.027035   0.477986  -0.026432
    35  H    0.000000   0.379748  -0.037383  -0.026432   0.503394
 Mulliken charges:
               1
     1  C    0.836021
     2  C    0.592988
     3  C   -1.887858
     4  C    0.213767
     5  C    0.294212
     6  C   -0.790704
     7  O   -0.368732
     8  O   -0.421956
     9  H    0.246100
    10  H    0.234092
    11  O   -0.406214
    12  C   -0.323175
    13  H    0.235334
    14  H    0.238173
    15  H    0.228889
    16  C    0.844061
    17  C   -0.174936
    18  N   -0.352808
    19  C   -0.305708
    20  C   -0.587856
    21  H    0.271234
    22  H    0.286381
    23  H    0.258128
    24  H    0.253019
    25  H    0.248919
    26  H    0.245448
    27  H    0.494051
    28  C   -0.382635
    29  H    0.220000
    30  H    0.223245
    31  H    0.223587
    32  C   -0.366187
    33  H    0.229520
    34  H    0.228312
    35  H    0.223290
 Sum of Mulliken charges =   1.00000
 Mulliken charges with hydrogens summed into heavy atoms:
               1
     1  C    0.836021
     2  C    0.592988
     3  C   -1.641758
     4  C    0.213767
     5  C    0.528304
     6  C   -0.790704
     7  O   -0.368732
     8  O   -0.421956
    11  O   -0.406214
    12  C    0.379221
    16  C    0.844061
    17  C    0.382678
    18  N    0.141242
    19  C    0.205439
    20  C   -0.093488
    28  C    0.284197
    32  C    0.314935
 Electronic spatial extent (au):  <R**2>=           5096.0471
 Charge=              1.0000 electrons
 Dipole moment (field-independent basis, Debye):
    X=            -10.0488    Y=             -0.2827    Z=              2.1754  Tot=             10.2854
 Quadrupole moment (field-independent basis, Debye-Ang):
   XX=            -34.1936   YY=            -81.5259   ZZ=            -97.1467
   XY=            -10.5207   XZ=              5.5347   YZ=              0.7241
 Traceless Quadrupole moment (field-independent basis, Debye-Ang):
   XX=             36.7618   YY=            -10.5705   ZZ=            -26.1913
   XY=            -10.5207   XZ=              5.5347   YZ=              0.7241
 Octapole moment (field-independent basis, Debye-Ang**2):
  XXX=           -137.7803  YYY=             10.4597  ZZZ=              0.0514  XYY=            -10.2587
  XXY=              1.2543  XXZ=             -7.6643  XZZ=              5.8966  YZZ=             -3.0150
  YYZ=             31.1864  XYZ=              4.4010
 Hexadecapole moment (field-independent basis, Debye-Ang**3):
 XXXX=          -3420.5808 YYYY=          -1542.8996 ZZZZ=           -295.7141 XXXY=           -157.7729
 XXXZ=             -9.1646 YYYX=            -36.1044 YYYZ=              2.9149 ZZZX=             -1.1384
 ZZZY=              1.0388 XXYY=           -890.8063 XXZZ=           -771.0775 YYZZ=           -318.6777
 XXYZ=             14.6201 YYXZ=             67.2571 ZZXY=             -5.5804
 N-N= 1.234553951847D+03 E-N=-4.280717368563D+03  KE= 7.789981040415D+02
 Leave Link  601 at Wed Jul 29 14:40:21 2026, MaxMem=  4026531840 cpu:               0.3 elap:               0.1
 (Enter /opt/packages/gaussian/g16RevC.01/g16/l9999.exe)
 Electronic transition elements 
                 1             2             3             4             5 
      1  -0.786353D+03 -0.786349D+03 -0.786331D+03 -0.786323D+03 -0.786300D+03
      2  -0.239872D+01 -0.638715D+00  0.441080D+00  0.826767D-01  0.582057D-01
      3   0.200364D-01  0.490293D+00 -0.305679D-01  0.342786D-01 -0.984420D+00
      4   0.797535D-01  0.225644D-01 -0.947153D-02  0.124726D-01 -0.841365D-02
      5   0.328904D+00  0.883608D-01 -0.706717D-01 -0.124338D-01 -0.853691D-02
      6  -0.198911D-02 -0.701056D-01  0.229825D-02 -0.547292D-02  0.188213D+00
      7  -0.111504D-01 -0.456108D-02  0.107567D-02  0.385493D-02 -0.202865D-02
      8  -0.683854D-01 -0.329979D-01 -0.190719D+00 -0.100675D+00  0.169188D+00
      9  -0.289398D-01  0.503784D-02  0.260478D-01 -0.463694D-01  0.111128D+00
     10   0.184026D-01 -0.317505D+00 -0.115172D+00 -0.763970D-01  0.643423D-01
     11  -0.581907D+00 -0.112354D+00  0.230532D+00  0.167648D+00 -0.214395D+00
     12   0.456043D-01 -0.133510D-01 -0.177347D-01 -0.409740D-01  0.109362D+00
     13   0.282322D-01  0.127394D-02 -0.123201D-01 -0.646598D-02 -0.123870D-01
     14   0.103493D+00  0.950536D-02  0.857992D-02 -0.244672D-01  0.595911D+00
     15  -0.177312D+00 -0.453889D-01  0.442327D-01 -0.173877D-01  0.782112D-02
     16   0.228127D-01  0.629508D-02 -0.742842D-02 -0.555353D-02  0.965728D-01
                 6             7             8             9            10 
      1  -0.786288D+03 -0.786279D+03 -0.786278D+03 -0.786277D+03 -0.786273D+03
      2  -0.969844D+00  0.394968D+00  0.438644D+00 -0.238130D+00 -0.111851D+01
      3   0.582362D+00 -0.604280D-02  0.264011D+00  0.134263D+00 -0.165748D+00
      4  -0.646592D-01  0.148601D+00  0.163618D-02  0.320668D-02 -0.117699D+00
      5   0.198921D+00 -0.848431D-01 -0.975542D-01  0.521711D-01  0.239533D+00
      6  -0.115710D+00  0.542968D-03 -0.557544D-01 -0.268691D-01  0.363085D-01
      7   0.151070D-01 -0.310546D-01 -0.925768D-02 -0.343030D-02  0.262259D-01
      8  -0.244428D-01  0.507630D-01 -0.877111D-01 -0.211641D+00  0.223942D+00
      9  -0.143580D+00  0.426611D+00  0.566344D+00 -0.386126D-02  0.987310D-01
     10   0.175105D+00  0.200762D-01  0.717675D-01 -0.623733D-01 -0.619064D-01
     11  -0.172090D+01  0.254135D+00 -0.969116D-01  0.400658D+00 -0.198498D+00
     12   0.283941D+00 -0.366417D+00 -0.166191D+00  0.429082D-01  0.535980D+00
     13   0.505705D-01 -0.876643D-03 -0.457693D-01 -0.533645D-02  0.695108D-01
     14   0.688578D+00  0.706216D-02  0.225031D-01  0.582071D-01  0.667861D-01
     15  -0.205492D-01 -0.229032D+00  0.782067D-02 -0.869547D-01  0.986249D-02
     16   0.452580D-01  0.395966D-01 -0.476369D-02  0.587439D-02  0.355290D-01
 Unable to Open any file for archive entry.
 1\1\GINC-R064\SP\RB3LYP TD-FC\6-31+G(d)\C13H18N1O3(1+)\ZLAB\29-Jul-202
 6\0\\#p TD(NStates=10) B3LYP/6-31+G(d) SCRF=(SMD,Solvent=Acetonitrile)
 \\Vertical excitation energies (absorption spectrum)\\1,1\C,0,1.83207,
 0.12958,-0.21024\C,0,1.1349,-1.09922,-0.16734\C,0,-0.25549,-1.11481,-0
 .13236\C,0,-1.00365,0.07671,-0.1148\C,0,-0.3087,1.30716,-0.12452\C,0,1
 .07267,1.33152,-0.16625\O,0,1.72785,2.54071,-0.24618\O,0,1.81598,-2.29
 859,-0.19161\H,0,-0.74337,-2.08339,-0.11815\H,0,-0.82128,2.26389,-0.11
 731\O,0,3.16704,0.29162,-0.26496\C,0,4.04792,-0.70499,-0.83521\H,0,3.6
 3166,-1.09691,-1.76609\H,0,4.23776,-1.51258,-0.12604\H,0,4.97374,-0.16
 313,-1.03872\C,0,-2.45011,-0.00162,-0.09574\C,0,-3.2634,-1.2711,-0.100
 58\N,0,-3.25687,1.02683,-0.10589\C,0,-4.69376,0.69529,-0.14276\C,0,-4.
 69483,-0.79509,0.23053\H,0,-2.878,-2.00729,0.60911\H,0,-3.19216,-1.713
 44,-1.10404\H,0,-5.06642,0.8884,-1.15511\H,0,-5.23265,1.33526,0.55952\
 H,0,-4.88771,-0.91152,1.30158\H,0,-5.45573,-1.35282,-0.31939\H,0,-2.94
 46,1.99417,-0.15383\C,0,2.21272,3.0577,1.01291\H,0,1.37325,3.24459,1.6
 9296\H,0,2.71642,3.99762,0.77723\H,0,2.92143,2.36177,1.47436\C,0,2.055
 2,-2.87751,1.10913\H,0,2.65301,-2.19993,1.73007\H,0,2.60643,-3.80318,0
 .93\H,0,1.10614,-3.1009,1.61042\\Version=ES64L-G16RevC.01\State=1-A\HF
 =-786.4948278\RMSD=1.629e-09\PG=C01 [X(C13H18N1O3)]\\@
 The archive entry for this job was punched.


 MUD THROWN IS GROUND LOST -- FROM A TEA BAG
 Job cpu time:       0 days  0 hours 35 minutes 47.5 seconds.
 Elapsed time:       0 days  0 hours  4 minutes 30.2 seconds.
 File lengths (MBytes):  RWF=   1134 Int=      0 D2E=      0 Chk=     91 Scr=      1
 Normal termination of Gaussian 16 at Wed Jul 29 14:40:21 2026.
