 Entering Gaussian System, Link 0=g16
 Initial command:
 /opt/packages/gaussian/g16RevC.01/g16/l1.exe "/ocean/projects/che200051p/zlab/tmp/Gau-5947.inp" -scrdir="/ocean/projects/che200051p/zlab/tmp/"
 Entering Link 1 = /opt/packages/gaussian/g16RevC.01/g16/l1.exe PID=      5948.
  
 Copyright (c) 1988-2019, Gaussian, Inc.  All Rights Reserved.
  
 This is part of the Gaussian(R) 16 program.  It is based on
 the Gaussian(R) 09 system (copyright 2009, Gaussian, Inc.),
 the Gaussian(R) 03 system (copyright 2003, Gaussian, Inc.),
 the Gaussian(R) 98 system (copyright 1998, Gaussian, Inc.),
 the Gaussian(R) 94 system (copyright 1995, Gaussian, Inc.),
 the Gaussian 92(TM) system (copyright 1992, Gaussian, Inc.),
 the Gaussian 90(TM) system (copyright 1990, Gaussian, Inc.),
 the Gaussian 88(TM) system (copyright 1988, Gaussian, Inc.),
 the Gaussian 86(TM) system (copyright 1986, Carnegie Mellon
 University), and the Gaussian 82(TM) system (copyright 1983,
 Carnegie Mellon University). Gaussian is a federally registered
 trademark of Gaussian, Inc.
  
 This software contains proprietary and confidential information,
 including trade secrets, belonging to Gaussian, Inc.
  
 This software is provided under written license and may be
 used, copied, transmitted, or stored only in accord with that
 written license.
  
 The following legend is applicable only to US Government
 contracts under FAR:
  
                    RESTRICTED RIGHTS LEGEND
  
 Use, reproduction and disclosure by the US Government is
 subject to restrictions as set forth in subparagraphs (a)
 and (c) of the Commercial Computer Software - Restricted
 Rights clause in FAR 52.227-19.
  
 Gaussian, Inc.
 340 Quinnipiac St., Bldg. 40, Wallingford CT 06492
  
  
 ---------------------------------------------------------------
 Warning -- This program may not be used in any manner that
 competes with the business of Gaussian, Inc. or will provide
 assistance to any competitor of Gaussian, Inc.  The licensee
 of this program is prohibited from giving any competitor of
 Gaussian, Inc. access to this program.  By using this program,
 the user acknowledges that Gaussian, Inc. is engaged in the
 business of creating and licensing software in the field of
 computational chemistry and represents and warrants to the
 licensee that it is not a competitor of Gaussian, Inc. and that
 it will not use this program in any manner prohibited above.
 ---------------------------------------------------------------
  

 Cite this work as:
 Gaussian 16, Revision C.01,
 M. J. Frisch, G. W. Trucks, H. B. Schlegel, G. E. Scuseria, 
 M. A. Robb, J. R. Cheeseman, G. Scalmani, V. Barone, 
 G. A. Petersson, H. Nakatsuji, X. Li, M. Caricato, A. V. Marenich, 
 J. Bloino, B. G. Janesko, R. Gomperts, B. Mennucci, H. P. Hratchian, 
 J. V. Ortiz, A. F. Izmaylov, J. L. Sonnenberg, D. Williams-Young, 
 F. Ding, F. Lipparini, F. Egidi, J. Goings, B. Peng, A. Petrone, 
 T. Henderson, D. Ranasinghe, V. G. Zakrzewski, J. Gao, N. Rega, 
 G. Zheng, W. Liang, M. Hada, M. Ehara, K. Toyota, R. Fukuda, 
 J. Hasegawa, M. Ishida, T. Nakajima, Y. Honda, O. Kitao, H. Nakai, 
 T. Vreven, K. Throssell, J. A. Montgomery, Jr., J. E. Peralta, 
 F. Ogliaro, M. J. Bearpark, J. J. Heyd, E. N. Brothers, K. N. Kudin, 
 V. N. Staroverov, T. A. Keith, R. Kobayashi, J. Normand, 
 K. Raghavachari, A. P. Rendell, J. C. Burant, S. S. Iyengar, 
 J. Tomasi, M. Cossi, J. M. Millam, M. Klene, C. Adamo, R. Cammi, 
 J. W. Ochterski, R. L. Martin, K. Morokuma, O. Farkas, 
 J. B. Foresman, and D. J. Fox, Gaussian, Inc., Wallingford CT, 2019.
 
 ******************************************
 Gaussian 16:  ES64L-G16RevC.01  3-Jul-2019
                14-Jul-2026 
 ******************************************
 %chk=tmp_cam_abs.chk
 %mem=30GB
 %nprocshared=8
 Will use up to    8 processors via shared memory.
 ----------------------------------------------------------------------
 #p TD(NStates=10,Root=1) CAM-B3LYP/6-31+G(d) SCRF=(SMD,Solvent=Methano
 l)
 ----------------------------------------------------------------------
 1/38=1,172=1/1;
 2/12=2,17=6,18=5,40=1/2;
 3/5=1,6=6,7=11,11=9,25=1,30=1,70=32201,72=3,74=-40/1,2,3,8;
 4//1;
 5/5=2,38=5,53=3/2;
 8/6=1,10=2,107=1,108=10/1;
 9/8=1,41=10,42=1,70=2/14;
 6/7=2,8=2,9=2,10=2/1;
 99/5=1,9=1/99;
 Leave Link    1 at Tue Jul 14 00:29:13 2026, MaxMem=  4026531840 cpu:              24.2 elap:               3.5
 (Enter /opt/packages/gaussian/g16RevC.01/g16/l101.exe)
 --------------------------------------------------
 Vertical excitation energies (absorption spectrum)
 --------------------------------------------------
 Symbolic Z-matrix:
 Charge =  1 Multiplicity = 1
 C                     2.38537   0.32894   0.26663 
 C                     1.76235  -0.94073   0.25145 
 C                     0.37993  -1.04031   0.13784 
 C                    -0.4377    0.10401   0.08185 
 C                     0.17989   1.37473   0.14359 
 C                     1.55525   1.487     0.23527 
 O                     2.12214   2.73731   0.19396 
 O                     2.52462  -2.0877    0.30134 
 H                    -0.04799  -2.03622   0.10031 
 H                    -0.38588   2.30018   0.08851 
 O                     3.70544   0.56952   0.32343 
 C                     4.70254  -0.37788  -0.12811 
 H                     4.41131  -0.8287   -1.07932 
 H                     4.88241  -1.14775   0.62499 
 H                     5.60483   0.2222   -0.26482 
 C                    -1.87028  -0.05791  -0.0342 
 C                    -2.59782  -1.36581  -0.23752 
 N                    -2.74178   0.9182    0.00283 
 C                    -4.15254   0.51463  -0.1744 
 C                    -4.08441  -1.01171   0.00307 
 H                    -2.23743  -2.14739   0.43651 
 H                    -2.40739  -1.7136   -1.26317 
 H                    -4.48303   0.82768  -1.17195 
 H                    -4.77002   1.02725   0.56844 
 H                    -4.37251  -1.28429   1.02353 
 H                    -4.75217  -1.53473  -0.68541 
 H                    -2.51026   1.8992    0.12124 
 C                     2.71628   3.21005   1.4239 
 H                     1.95519   3.27008   2.21115 
 H                     3.09653   4.20984   1.20359 
 H                     3.53815   2.56208   1.73997 
 C                     2.56355  -2.73927   1.58814 
 H                     2.93559  -2.05644   2.36156 
 H                     3.24854  -3.58208   1.47436 
 H                     1.57208  -3.10961   1.87388 
 
 ITRead=  0  0  0  0  0  0  0  0  0  0  0  0  0  0  0  0  0  0  0  0
 ITRead=  0  0  0  0  0  0  0  0  0  0  0  0  0  0  0
 MicOpt= -1 -1 -1 -1 -1 -1 -1 -1 -1 -1 -1 -1 -1 -1 -1 -1 -1 -1 -1 -1
 MicOpt= -1 -1 -1 -1 -1 -1 -1 -1 -1 -1 -1 -1 -1 -1 -1
 NAtoms=     35 NQM=       35 NQMF=       0 NMMI=      0 NMMIF=      0
                NMic=       0 NMicF=      0.
                    Isotopes and Nuclear Properties:
 (Nuclear quadrupole moments (NQMom) in fm**2, nuclear magnetic moments (NMagM)
  in nuclear magnetons)

  Atom         1           2           3           4           5           6           7           8           9          10
 IAtWgt=          12          12          12          12          12          12          16          16           1           1
 AtmWgt=  12.0000000  12.0000000  12.0000000  12.0000000  12.0000000  12.0000000  15.9949146  15.9949146   1.0078250   1.0078250
 NucSpn=           0           0           0           0           0           0           0           0           1           1
 AtZEff=  -0.0000000  -0.0000000  -0.0000000  -0.0000000  -0.0000000  -0.0000000  -0.0000000  -0.0000000  -0.0000000  -0.0000000
 NQMom=    0.0000000   0.0000000   0.0000000   0.0000000   0.0000000   0.0000000   0.0000000   0.0000000   0.0000000   0.0000000
 NMagM=    0.0000000   0.0000000   0.0000000   0.0000000   0.0000000   0.0000000   0.0000000   0.0000000   2.7928460   2.7928460
 AtZNuc=   6.0000000   6.0000000   6.0000000   6.0000000   6.0000000   6.0000000   8.0000000   8.0000000   1.0000000   1.0000000

  Atom        11          12          13          14          15          16          17          18          19          20
 IAtWgt=          16          12           1           1           1          12          12          14          12          12
 AtmWgt=  15.9949146  12.0000000   1.0078250   1.0078250   1.0078250  12.0000000  12.0000000  14.0030740  12.0000000  12.0000000
 NucSpn=           0           0           1           1           1           0           0           2           0           0
 AtZEff=  -0.0000000  -0.0000000  -0.0000000  -0.0000000  -0.0000000  -0.0000000  -0.0000000  -0.0000000  -0.0000000  -0.0000000
 NQMom=    0.0000000   0.0000000   0.0000000   0.0000000   0.0000000   0.0000000   0.0000000   2.0440000   0.0000000   0.0000000
 NMagM=    0.0000000   0.0000000   2.7928460   2.7928460   2.7928460   0.0000000   0.0000000   0.4037610   0.0000000   0.0000000
 AtZNuc=   8.0000000   6.0000000   1.0000000   1.0000000   1.0000000   6.0000000   6.0000000   7.0000000   6.0000000   6.0000000

  Atom        21          22          23          24          25          26          27          28          29          30
 IAtWgt=           1           1           1           1           1           1           1          12           1           1
 AtmWgt=   1.0078250   1.0078250   1.0078250   1.0078250   1.0078250   1.0078250   1.0078250  12.0000000   1.0078250   1.0078250
 NucSpn=           1           1           1           1           1           1           1           0           1           1
 AtZEff=  -0.0000000  -0.0000000  -0.0000000  -0.0000000  -0.0000000  -0.0000000  -0.0000000  -0.0000000  -0.0000000  -0.0000000
 NQMom=    0.0000000   0.0000000   0.0000000   0.0000000   0.0000000   0.0000000   0.0000000   0.0000000   0.0000000   0.0000000
 NMagM=    2.7928460   2.7928460   2.7928460   2.7928460   2.7928460   2.7928460   2.7928460   0.0000000   2.7928460   2.7928460
 AtZNuc=   1.0000000   1.0000000   1.0000000   1.0000000   1.0000000   1.0000000   1.0000000   6.0000000   1.0000000   1.0000000

  Atom        31          32          33          34          35
 IAtWgt=           1          12           1           1           1
 AtmWgt=   1.0078250  12.0000000   1.0078250   1.0078250   1.0078250
 NucSpn=           1           0           1           1           1
 AtZEff=  -0.0000000  -0.0000000  -0.0000000  -0.0000000  -0.0000000
 NQMom=    0.0000000   0.0000000   0.0000000   0.0000000   0.0000000
 NMagM=    2.7928460   0.0000000   2.7928460   2.7928460   2.7928460
 AtZNuc=   1.0000000   6.0000000   1.0000000   1.0000000   1.0000000
 Leave Link  101 at Tue Jul 14 00:29:14 2026, MaxMem=  4026531840 cpu:               0.4 elap:               0.2
 (Enter /opt/packages/gaussian/g16RevC.01/g16/l202.exe)
                          Input orientation:                          
 ---------------------------------------------------------------------
 Center     Atomic      Atomic             Coordinates (Angstroms)
 Number     Number       Type             X           Y           Z
 ---------------------------------------------------------------------
      1          6           0        2.385370    0.328940    0.266630
      2          6           0        1.762350   -0.940730    0.251450
      3          6           0        0.379930   -1.040310    0.137840
      4          6           0       -0.437700    0.104010    0.081850
      5          6           0        0.179890    1.374730    0.143590
      6          6           0        1.555250    1.487000    0.235270
      7          8           0        2.122140    2.737310    0.193960
      8          8           0        2.524620   -2.087700    0.301340
      9          1           0       -0.047990   -2.036220    0.100310
     10          1           0       -0.385880    2.300180    0.088510
     11          8           0        3.705440    0.569520    0.323430
     12          6           0        4.702540   -0.377880   -0.128110
     13          1           0        4.411310   -0.828700   -1.079320
     14          1           0        4.882410   -1.147750    0.624990
     15          1           0        5.604830    0.222200   -0.264820
     16          6           0       -1.870280   -0.057910   -0.034200
     17          6           0       -2.597820   -1.365810   -0.237520
     18          7           0       -2.741780    0.918200    0.002830
     19          6           0       -4.152540    0.514630   -0.174400
     20          6           0       -4.084410   -1.011710    0.003070
     21          1           0       -2.237430   -2.147390    0.436510
     22          1           0       -2.407390   -1.713600   -1.263170
     23          1           0       -4.483030    0.827680   -1.171950
     24          1           0       -4.770020    1.027250    0.568440
     25          1           0       -4.372510   -1.284290    1.023530
     26          1           0       -4.752170   -1.534730   -0.685410
     27          1           0       -2.510260    1.899200    0.121240
     28          6           0        2.716280    3.210050    1.423900
     29          1           0        1.955190    3.270080    2.211150
     30          1           0        3.096530    4.209840    1.203590
     31          1           0        3.538150    2.562080    1.739970
     32          6           0        2.563550   -2.739270    1.588140
     33          1           0        2.935590   -2.056440    2.361560
     34          1           0        3.248540   -3.582080    1.474360
     35          1           0        1.572080   -3.109610    1.873880
 ---------------------------------------------------------------------
                    Distance matrix (angstroms):
                    1          2          3          4          5
     1  C    0.000000
     2  C    1.414371   0.000000
     3  C    2.431712   1.390650   0.000000
     4  C    2.838038   2.441407   1.407523   0.000000
     5  C    2.443964   2.806629   2.423317   1.414199   0.000000
     6  C    1.425197   2.436601   2.788936   2.430648   1.382977
     7  O    2.423802   3.696043   4.160392   3.674183   2.373077
     8  O    2.420897   1.378073   2.392374   3.691491   4.184622
     9  H    3.397482   2.121385   1.084602   2.175500   3.418828
    10  H    3.405487   3.891650   3.427502   2.196791   1.086088
    11  O    1.343015   2.462039   3.699326   4.176203   3.620802
    12  C    2.454525   3.017546   4.381153   5.167046   4.857965
    13  H    2.693723   2.966562   4.216430   5.072589   4.924990
    14  H    2.923054   3.149153   4.530031   5.492310   5.358017
    15  H    3.264775   4.047665   5.390329   6.053620   5.561034
    16  C    4.283773   3.749262   2.461331   1.446365   2.507442
    17  C    5.287582   4.408046   3.018914   2.632202   3.920648
    18  N    5.167638   4.878998   3.687691   2.444981   2.960471
    19  C    6.555399   6.106173   4.801939   3.746239   4.428413
    20  C    6.612478   5.852464   4.466465   3.814385   4.888670
    21  H    5.247032   4.181927   2.857517   2.904068   4.281888
    22  H    5.429807   4.503125   3.191442   2.998744   4.267408
    23  H    7.035138   6.645157   5.371528   4.296558   4.875729
    24  H    7.195716   6.829735   5.566166   4.456247   4.980246
    25  H    6.988873   6.192790   4.840419   4.277484   5.345000
    26  H    7.438019   6.608291   5.221172   4.678548   5.785967
    27  H    5.143350   5.131993   4.122401   2.742219   2.740890
    28  C    3.122430   4.417420   5.017773   4.625600   3.382435
    29  H    3.551974   4.648498   5.035824   4.503758   3.319465
    30  H    4.055247   5.405088   6.006647   5.532352   4.203360
    31  H    2.913168   4.199861   5.051573   4.959723   3.903350
    32  C    3.345452   2.379792   3.123785   4.400074   4.969261
    33  H    3.222035   2.659674   3.536785   4.609090   4.928103
    34  H    4.183270   3.268180   4.059040   5.395805   5.979760
    35  H    3.881793   2.715239   2.952467   4.192605   5.004138
                    6          7          8          9         10
     6  C    0.000000
     7  O    1.373443   0.000000
     8  O    3.704392   4.842958   0.000000
     9  H    3.873199   5.244504   2.580966   0.000000
    10  H    2.109689   2.548012   5.269706   4.349560   0.000000
    11  O    2.339414   2.687548   2.907859   4.574702   4.448513
    12  C    3.676310   4.057906   2.802008   5.036845   5.754211
    13  H    3.904829   4.424700   2.655353   4.768122   5.845233
    14  H    4.261899   4.785245   2.558794   5.037213   6.319091
    15  H    4.271874   4.320346   3.891512   6.098209   6.350705
    16  C    3.767442   4.879009   4.852606   2.693055   2.789102
    17  C    5.060637   6.268955   5.201047   2.658047   4.294002
    18  N    4.340741   5.196481   6.071204   3.999325   2.732668
    19  C    5.804498   6.666904   7.182125   4.840417   4.176726
    20  C    6.172782   7.253472   6.702686   4.165545   4.965384
    21  H    5.256778   6.551715   4.764342   2.217890   4.830137
    22  H    5.309584   6.515402   5.187713   2.744072   4.692970
    23  H    6.235046   7.010040   7.731571   5.430483   4.532511
    24  H    6.350702   7.111006   7.936374   5.648147   4.590356
    25  H    6.590883   7.683875   6.981220   4.485444   5.442050
    26  H    7.054222   8.141238   7.364178   4.795639   5.862591
    27  H    4.087944   4.708168   6.424782   4.642278   2.162139
    28  C    2.393686   1.445420   5.418766   6.075889   3.497789
    29  H    2.691362   2.093029   5.716418   6.051875   3.305588
    30  H    3.275217   2.033994   6.387499   7.079442   4.125213
    31  H    2.711422   2.103791   4.971655   6.057495   4.265434
    32  C    4.550636   5.668466   1.442884   3.086755   6.028605
    33  H    4.356881   5.323554   2.101043   3.743716   5.931194
    34  H    5.486178   6.545448   2.033029   3.891633   7.051991
    35  H    4.879974   6.108287   2.103453   2.631035   6.023868
                   11         12         13         14         15
    11  O    0.000000
    12  C    1.447641   0.000000
    13  H    2.102612   1.092179   0.000000
    14  H    2.103619   1.091885   1.796775   0.000000
    15  H    2.018502   1.092206   1.786698   1.786173   0.000000
    16  C    5.622297   6.581274   6.414419   6.871761   7.483911
    17  C    6.617496   7.367716   7.079902   7.532949   8.354998
    18  N    6.464596   7.557438   7.442406   7.923604   8.379854
    19  C    7.873925   8.900065   8.715672   9.221326   9.762170
    20  C    7.955167   8.810757   8.566348   8.989391   9.771165
    21  H    6.535449   7.184229   6.945677   7.192143   8.222400
    22  H    6.715402   7.322815   6.878337   7.551590   8.302993
    23  H    8.327896   9.322965   9.047732   9.738726  10.146645
    24  H    8.491347   9.601508   9.510861   9.894606  10.439346
    25  H    8.317453   9.192627   9.043508   9.264503  10.172348
    26  H    8.773642   9.541511   9.199077   9.730983  10.513379
    27  H    6.359548   7.567810   7.535975   8.011819   8.295544
    28  C    3.026858   4.384884   5.044873   4.931612   4.485838
    29  H    3.730936   5.131051   5.801699   5.531884   5.360958
    30  H    3.794388   5.039828   5.685702   5.676964   4.934478
    31  H    2.450483   3.672723   4.495352   4.100372   3.710174
    32  C    3.721760   3.618972   3.765613   2.972828   4.631754
    33  H    3.412083   3.483982   3.940146   2.762517   4.383482
    34  H    4.332341   3.866384   3.931211   3.052364   4.800979
    35  H    4.526712   4.611951   4.688834   4.045603   5.651378
                   16         17         18         19         20
    16  C    0.000000
    17  C    1.510383   0.000000
    18  N    1.309074   2.301129   0.000000
    19  C    2.357153   2.440736   1.478013   0.000000
    20  C    2.411119   1.547004   2.351001   1.538132   0.000000
    21  H    2.173084   1.093190   3.136924   3.335747   2.211103
    22  H    2.130766   1.099627   2.939548   3.032487   2.215493
    23  H    2.984159   3.039502   2.102440   1.096508   2.218767
    24  H    3.154241   3.330880   2.108451   1.093559   2.224199
    25  H    2.980597   2.178627   2.924392   2.172449   1.094824
    26  H    3.303084   2.206890   3.245336   2.195578   1.092455
    27  H    2.064949   3.285828   1.014881   2.168299   3.311391
    28  C    5.817401   7.206835   6.087893   7.549870   8.129662
    29  H    5.545389   6.943872   5.698205   7.112504   7.725679
    30  H    6.664459   8.098783   6.809007   8.252421   8.959449
    31  H    6.266031   7.549100   6.719934   8.185571   8.596058
    32  C    5.429597   5.644393   6.636024   7.668134   7.049275
    33  H    5.729762   6.152301   6.829687   7.955066   7.478926
    34  H    6.395142   6.482462   7.635565   8.618435   7.908454
    35  H    4.980310   4.988679   6.191403   7.078265   6.316407
                   21         22         23         24         25
    21  H    0.000000
    22  H    1.762377   0.000000
    23  H    4.059668   3.282485   0.000000
    24  H    4.063220   4.055746   1.775148   0.000000
    25  H    2.376573   3.045489   3.048404   2.389213   0.000000
    26  H    2.820988   2.421527   2.426961   2.852402   1.768428
    27  H    4.068012   3.870336   2.590814   2.463087   3.796934
    28  C    7.363175   7.597017   8.015247   7.844815   8.402995
    29  H    7.076467   7.479309   7.672116   7.277172   7.886223
    30  H    8.333902   8.453708   8.633187   8.509695   9.273858
    31  H    7.565411   7.915159   8.707856   8.529588   8.825327
    32  C    4.972523   5.821702   8.366332   8.307088   7.109478
    33  H    5.520346   6.465574   8.708603   8.491222   7.469596
    34  H    5.764663   6.555519   9.285802   9.293219   7.972671
    35  H    4.183810   5.256054   7.838603   7.683750   6.276387
                   26         27         28         29         30
    26  H    0.000000
    27  H    4.179560   0.000000
    28  C    9.096146   5.543642   0.000000
    29  H    8.744423   5.117351   1.096642   0.000000
    30  H    9.908103   6.160084   1.092111   1.789129   0.000000
    31  H    9.560111   6.296266   1.093268   1.796952   1.788252
    32  C    7.754979   7.029278   5.953546   6.072111   6.980120
    33  H    8.286004   7.093899   5.353804   5.418083   6.374407
    34  H    8.536253   8.064685   6.813140   7.011969   7.798105
    35  H    7.001882   6.695179   6.438150   6.400076   7.506503
                   31         32         33         34         35
    31  H    0.000000
    32  C    5.392329   0.000000
    33  H    4.698955   1.096745   0.000000
    34  H    6.156714   1.092010   1.792384   0.000000
    35  H    6.004284   1.096272   1.790575   1.786998   0.000000
 Stoichiometry    C13H18NO3(1+)
 Framework group  C1[X(C13H18NO3)]
 Deg. of freedom    99
 Full point group                 C1      NOp   1
 Largest Abelian subgroup         C1      NOp   1
 Largest concise Abelian subgroup C1      NOp   1
                         Standard orientation:                         
 ---------------------------------------------------------------------
 Center     Atomic      Atomic             Coordinates (Angstroms)
 Number     Number       Type             X           Y           Z
 ---------------------------------------------------------------------
      1          6           0        1.824948    0.123604   -0.195640
      2          6           0        1.116258   -1.099671   -0.153192
      3          6           0       -0.274308   -1.102383   -0.138198
      4          6           0       -1.011896    0.096233   -0.118002
      5          6           0       -0.304222    1.320625   -0.113587
      6          6           0        1.078189    1.336630   -0.149760
      7          8           0        1.724555    2.544858   -0.243255
      8          8           0        1.798110   -2.297050   -0.174331
      9          1           0       -0.772204   -2.065947   -0.136048
     10          1           0       -0.806807    2.283429   -0.115859
     11          8           0        3.158155    0.271672   -0.261400
     12          6           0        4.040804   -0.739599   -0.803548
     13          1           0        3.632186   -1.162849   -1.723735
     14          1           0        4.235454   -1.525043   -0.070471
     15          1           0        4.966196   -0.202653   -1.023212
     16          6           0       -2.456854    0.034828   -0.100798
     17          6           0       -3.289418   -1.218094   -0.235998
     18          7           0       -3.251069    1.068764    0.016987
     19          6           0       -4.696845    0.765187   -0.028782
     20          6           0       -4.719102   -0.763341    0.141391
     21          1           0       -2.923588   -2.027218    0.401616
     22          1           0       -3.219319   -1.571478   -1.274933
     23          1           0       -5.095527    1.106980   -0.991362
     24          1           0       -5.205786    1.314484    0.768165
     25          1           0       -4.929915   -1.022012    1.184122
     26          1           0       -5.482460   -1.234235   -0.482309
     27          1           0       -2.941814    2.030542    0.113570
     28          6           0        2.461342    2.967127    0.926391
     29          1           0        1.782332    3.074601    1.780802
     30          1           0        2.888321    3.939569    0.671929
     31          1           0        3.261765    2.261645    1.164833
     32          6           0        1.910348   -2.958229    1.103228
     33          1           0        2.398961   -2.307965    1.838934
     34          1           0        2.521498   -3.845748    0.926329
     35          1           0        0.926160   -3.260792    1.479579
 ---------------------------------------------------------------------
 Rotational constants (GHZ):           0.7485111           0.2770967           0.2121301
 Leave Link  202 at Tue Jul 14 00:29:18 2026, MaxMem=  4026531840 cpu:               0.1 elap:               1.0
 (Enter /opt/packages/gaussian/g16RevC.01/g16/l301.exe)
 Standard basis: 6-31+G(d) (6D, 7F)
 Ernie: Thresh=  0.10000D-02 Tol=  0.10000D-05 Strict=F.
 There are   359 symmetry adapted cartesian basis functions of A   symmetry.
 There are   359 symmetry adapted basis functions of A   symmetry.
   359 basis functions,   616 primitive gaussians,   359 cartesian basis functions
    63 alpha electrons       63 beta electrons
       nuclear repulsion energy      1233.7565683993 Hartrees.
 IExCor=20419 DFT=T Ex+Corr=CAM-B3LYP ExCW=0 ScaHFX=  1.000000
 ScaDFX=  1.000000  1.000000  1.000000  0.810000 ScalE2=  1.000000  1.000000
 IRadAn=      5 IRanWt=     -1 IRanGd=            0 ICorTp=0 IEmpDi=  4
 HFx  wShort=  0.000000 wLong=  0.330000 cFull=  0.190000 cShort=  0.000000 cLong=  0.460000
 DFx  wShort=  0.000000 wLong=  0.330000 cFull=  0.190000 cShort=  0.000000 cLong=  0.460000
 NAtoms=   35 NActive=   35 NUniq=   35 SFac= 1.00D+00 NAtFMM=   60 NAOKFM=F Big=F
 Integral buffers will be    131072 words long.
 Raffenetti 1 integral format.
 Two-electron integral symmetry is turned on.
 ------------------------------------------------------------------------------
 Polarizable Continuum Model (PCM)
 =================================
 Model                : PCM.
 Atomic radii         : SMD-Coulomb.
 Polarization charges : Total charges.
 Charge compensation  : None.
 Solution method      : On-the-fly selection.
 Cavity type          : VdW (van der Waals Surface) (Alpha=1.000).
 Cavity algorithm     : GePol (No added spheres)
                        Default sphere list used, NSphG=   35.
                        Lebedev-Laikov grids with approx.  5.0 points / Ang**2.
                        Smoothing algorithm: York/Karplus (Gamma=1.0000).
                        Polarization charges: spherical gaussians, with
                                              point-specific exponents (IZeta= 3).
                        Self-potential: point-specific (ISelfS= 7).
                        Self-field    : sphere-specific E.n sum rule (ISelfD= 2).
 Solvent              : Methanol, Eps=  32.613000 Eps(inf)=   1.765709
 ------------------------------------------------------------------------------
 GePol: Number of generator spheres                  =      35
 GePol: Total number of spheres                      =      35
 GePol: Number of exposed spheres                    =      35 (100.00%)
 GePol: Number of points                             =    2523
 GePol: Average weight of points                     =       0.11
 GePol: Minimum weight of points                     =   0.27D-09
 GePol: Maximum weight of points                     =    0.21991
 GePol: Number of points with low weight             =     152
 GePol: Fraction of low-weight points (<1% of avg)   =       6.02%
 GePol: Cavity surface area                          =    277.570 Ang**2
 GePol: Cavity volume                                =    246.104 Ang**3
 ------------------------------------------------------------------------------
 Atomic radii for non-electrostatic terms: SMD-CDS.
 ------------------------------------------------------------------------------
 PCM non-electrostatic energy =         0.0032105830 Hartrees.
 Nuclear repulsion after PCM non-electrostatic terms =     1233.7597789822 Hartrees.
 Leave Link  301 at Tue Jul 14 00:29:19 2026, MaxMem=  4026531840 cpu:               1.3 elap:               0.8
 (Enter /opt/packages/gaussian/g16RevC.01/g16/l302.exe)
 NPDir=0 NMtPBC=     1 NCelOv=     1 NCel=       1 NClECP=     1 NCelD=      1
         NCelK=      1 NCelE2=     1 NClLst=     1 CellRange=     0.0.
 One-electron integrals computed using PRISM.
 One-electron integral symmetry used in STVInt
 NBasis=   359 RedAO= T EigKep=  1.20D-06  NBF=   359
 NBsUse=   357 1.00D-06 EigRej=  5.26D-07 NBFU=   357
 Precomputing XC quadrature grid using
 IXCGrd= 4 IRadAn=           5 IRanWt=          -1 IRanGd=           0 AccXCQ= 0.00D+00.
 Generated NRdTot=       0 NPtTot=           0 NUsed=           0 NTot=          32
 NSgBfM=   358   358   358   358   358 MxSgAt=    35 MxSgA2=    35.
 Leave Link  302 at Tue Jul 14 00:29:23 2026, MaxMem=  4026531840 cpu:               2.8 elap:               0.9
 (Enter /opt/packages/gaussian/g16RevC.01/g16/l303.exe)
 DipDrv:  MaxL=1.
 Leave Link  303 at Tue Jul 14 00:29:26 2026, MaxMem=  4026531840 cpu:               0.2 elap:               1.0
 (Enter /opt/packages/gaussian/g16RevC.01/g16/l308.exe)
 Leave Link  308 at Tue Jul 14 00:29:30 2026, MaxMem=  4026531840 cpu:               2.6 elap:               1.2
 (Enter /opt/packages/gaussian/g16RevC.01/g16/l401.exe)
 ExpMin= 4.38D-02 ExpMax= 5.48D+03 ExpMxC= 8.25D+02 IAcc=3 IRadAn=         5 AccDes= 0.00D+00
 Harris functional with IExCor=20419 and IRadAn=       5 diagonalized for initial guess.
 HarFok:  IExCor=20419 AccDes= 0.00D+00 IRadAn=         5 IDoV= 1 UseB2=F ITyADJ=14
 ICtDFT=  3500011 ScaDFX=  1.000000  1.000000  1.000000  1.000000
 FoFCou: FMM=F IPFlag=           0 FMFlag=      100000 FMFlg1=           0
         NFxFlg=           0 DoJE=T BraDBF=F KetDBF=T FulRan=T
         wScrn=  0.000000 ICntrl=       500 IOpCl=  0 I1Cent=   200000004 NGrid=           0
         NMat0=    1 NMatS0=      1 NMatT0=    0 NMatD0=    1 NMtDS0=    0 NMtDT0=    0
 Petite list used in FoFCou.
 Harris En= -755.942550648460    
 JPrj=0 DoOrth=F DoCkMO=F.
 Leave Link  401 at Tue Jul 14 00:29:35 2026, MaxMem=  4026531840 cpu:              15.9 elap:               2.2
 (Enter /opt/packages/gaussian/g16RevC.01/g16/l502.exe)
 Integral symmetry usage will be decided dynamically.
 Closed shell SCF:
 Using DIIS extrapolation, IDIIS=  1040.
 NGot=  4026531840 LenX=  4026266516 LenY=  4026137194
 Requested convergence on RMS density matrix=1.00D-08 within 128 cycles.
 Requested convergence on MAX density matrix=1.00D-06.
 Requested convergence on             energy=1.00D-06.
 No special actions if energy rises.
 Fock matrices will be formed incrementally for  20 cycles.

 Cycle   1  Pass 1  IDiag  1:
 FoFJK:  IHMeth= 1 ICntrl=       0 DoSepK=T KAlg= 0 I1Cent=           0 FoldK=F
 IRaf=         1 NMat=       1 IRICut=       1 DoRegI=T DoRafI=F ISym2E= 0 IDoP0=0 IntGTp=1.
 FoFCou: FMM=F IPFlag=           0 FMFlag=      100000 FMFlg1=           0
         NFxFlg=           0 DoJE=T BraDBF=F KetDBF=F FulRan=T
         wScrn=  0.000000 ICntrl=       500 IOpCl=  0 I1Cent=           0 NGrid=           0
         NMat0=    1 NMatS0=      1 NMatT0=    0 NMatD0=    1 NMtDS0=    0 NMtDT0=    0
 Symmetry not used in FoFCou.
 Inv3:  Mode=1 IEnd=    19096587.
 Iteration    1 A*A^-1 deviation from unit magnitude is 2.78D-15 for    966.
 Iteration    1 A*A^-1 deviation from orthogonality  is 1.89D-15 for   2266    985.
 Iteration    1 A^-1*A deviation from unit magnitude is 2.89D-15 for   1444.
 Iteration    1 A^-1*A deviation from orthogonality  is 5.75D-15 for   1331   1171.
 E= -785.838853497995    
 DIIS: error= 5.08D-02 at cycle   1 NSaved=   1.
 NSaved= 1 IEnMin= 1 EnMin= -785.838853497995     IErMin= 1 ErrMin= 5.08D-02
 ErrMax= 5.08D-02  0.00D+00 EMaxC= 1.00D-01 BMatC= 6.90D-01 BMatP= 6.90D-01
 IDIUse=3 WtCom= 4.92D-01 WtEn= 5.08D-01
 Coeff-Com:  0.100D+01
 Coeff-En:   0.100D+01
 Coeff:      0.100D+01
 Gap=     0.276 Goal=   None    Shift=    0.000
 GapD=    0.276 DampG=1.000 DampE=0.500 DampFc=0.5000 IDamp=-1.
 Damping current iteration by 5.00D-01
 RMSDP=1.43D-01 MaxDP=2.00D+01              OVMax= 1.71D-01

 Cycle   2  Pass 1  IDiag  1:
 RMSU=  1.45D-02    CP:  6.77D-01
 E= -785.954670264451     Delta-E=       -0.115816766456 Rises=F Damp=T
 DIIS: error= 2.60D-02 at cycle   2 NSaved=   2.
 NSaved= 2 IEnMin= 2 EnMin= -785.954670264451     IErMin= 2 ErrMin= 2.60D-02
 ErrMax= 2.60D-02  0.00D+00 EMaxC= 1.00D-01 BMatC= 1.21D-01 BMatP= 6.90D-01
 IDIUse=3 WtCom= 7.40D-01 WtEn= 2.60D-01
 Coeff-Com: -0.201D+00 0.120D+01
 Coeff-En:   0.206D-01 0.979D+00
 Coeff:     -0.143D+00 0.114D+01
 Gap=     0.278 Goal=   None    Shift=    0.000
 RMSDP=6.72D-02 MaxDP=8.74D+00 DE=-1.16D-01 OVMax= 1.13D-01

 Cycle   3  Pass 1  IDiag  1:
 RMSU=  7.30D-03    CP:  3.70D-01  1.48D+00
 E= -786.069457669704     Delta-E=       -0.114787405252 Rises=F Damp=F
 DIIS: error= 4.59D-03 at cycle   3 NSaved=   3.
 NSaved= 3 IEnMin= 3 EnMin= -786.069457669704     IErMin= 3 ErrMin= 4.59D-03
 ErrMax= 4.59D-03  0.00D+00 EMaxC= 1.00D-01 BMatC= 3.91D-02 BMatP= 1.21D-01
 IDIUse=3 WtCom= 9.54D-01 WtEn= 4.59D-02
 Coeff-Com: -0.230D+00 0.500D+00 0.731D+00
 Coeff-En:   0.000D+00 0.000D+00 0.100D+01
 Coeff:     -0.220D+00 0.477D+00 0.743D+00
 Gap=     0.249 Goal=   None    Shift=    0.000
 RMSDP=1.02D-02 MaxDP=1.53D+00 DE=-1.15D-01 OVMax= 3.89D-02

 Cycle   4  Pass 1  IDiag  1:
 RMSU=  2.49D-03    CP:  3.27D-01  1.62D+00  6.79D-01
 E= -786.098252454232     Delta-E=       -0.028794784528 Rises=F Damp=F
 DIIS: error= 1.18D-03 at cycle   4 NSaved=   4.
 NSaved= 4 IEnMin= 4 EnMin= -786.098252454232     IErMin= 4 ErrMin= 1.18D-03
 ErrMax= 1.18D-03  0.00D+00 EMaxC= 1.00D-01 BMatC= 1.67D-03 BMatP= 3.91D-02
 IDIUse=3 WtCom= 9.88D-01 WtEn= 1.18D-02
 Coeff-Com: -0.948D-01 0.196D+00 0.360D+00 0.539D+00
 Coeff-En:   0.000D+00 0.000D+00 0.000D+00 0.100D+01
 Coeff:     -0.937D-01 0.194D+00 0.356D+00 0.544D+00
 Gap=     0.244 Goal=   None    Shift=    0.000
 RMSDP=1.40D-03 MaxDP=1.74D-01 DE=-2.88D-02 OVMax= 5.97D-03

 Cycle   5  Pass 1  IDiag  1:
 RMSU=  4.88D-04    CP:  3.21D-01  1.63D+00  7.12D-01  9.63D-01
 E= -786.099643919362     Delta-E=       -0.001391465130 Rises=F Damp=F
 DIIS: error= 1.66D-04 at cycle   5 NSaved=   5.
 NSaved= 5 IEnMin= 5 EnMin= -786.099643919362     IErMin= 5 ErrMin= 1.66D-04
 ErrMax= 1.66D-04  0.00D+00 EMaxC= 1.00D-01 BMatC= 3.15D-05 BMatP= 1.67D-03
 IDIUse=3 WtCom= 9.98D-01 WtEn= 1.66D-03
 Coeff-Com: -0.874D-02 0.160D-01 0.530D-01 0.135D+00 0.805D+00
 Coeff-En:   0.000D+00 0.000D+00 0.000D+00 0.000D+00 0.100D+01
 Coeff:     -0.872D-02 0.160D-01 0.529D-01 0.135D+00 0.805D+00
 Gap=     0.245 Goal=   None    Shift=    0.000
 RMSDP=6.67D-04 MaxDP=9.50D-02 DE=-1.39D-03 OVMax= 1.72D-03

 Cycle   6  Pass 1  IDiag  1:
 RMSU=  1.00D-04    CP:  3.18D-01  1.64D+00  7.07D-01  1.04D+00  1.14D+00
 E= -786.099676296893     Delta-E=       -0.000032377531 Rises=F Damp=F
 DIIS: error= 9.59D-05 at cycle   6 NSaved=   6.
 NSaved= 6 IEnMin= 6 EnMin= -786.099676296893     IErMin= 6 ErrMin= 9.59D-05
 ErrMax= 9.59D-05  0.00D+00 EMaxC= 1.00D-01 BMatC= 7.29D-06 BMatP= 3.15D-05
 IDIUse=1 WtCom= 1.00D+00 WtEn= 0.00D+00
 Coeff-Com:  0.927D-02-0.199D-01-0.242D-01-0.192D-01 0.337D+00 0.717D+00
 Coeff:      0.927D-02-0.199D-01-0.242D-01-0.192D-01 0.337D+00 0.717D+00
 Gap=     0.245 Goal=   None    Shift=    0.000
 RMSDP=3.03D-04 MaxDP=4.35D-02 DE=-3.24D-05 OVMax= 9.50D-04

 Cycle   7  Pass 1  IDiag  1:
 RMSU=  3.89D-05    CP:  3.17D-01  1.64D+00  7.05D-01  1.08D+00  1.25D+00
                    CP:  9.28D-01
 E= -786.099683778791     Delta-E=       -0.000007481899 Rises=F Damp=F
 DIIS: error= 2.38D-05 at cycle   7 NSaved=   7.
 NSaved= 7 IEnMin= 7 EnMin= -786.099683778791     IErMin= 7 ErrMin= 2.38D-05
 ErrMax= 2.38D-05  0.00D+00 EMaxC= 1.00D-01 BMatC= 6.24D-07 BMatP= 7.29D-06
 IDIUse=1 WtCom= 1.00D+00 WtEn= 0.00D+00
 Coeff-Com:  0.449D-02-0.924D-02-0.145D-01-0.226D-01 0.407D-01 0.274D+00
 Coeff-Com:  0.727D+00
 Coeff:      0.449D-02-0.924D-02-0.145D-01-0.226D-01 0.407D-01 0.274D+00
 Coeff:      0.727D+00
 Gap=     0.245 Goal=   None    Shift=    0.000
 RMSDP=3.79D-05 MaxDP=4.03D-03 DE=-7.48D-06 OVMax= 3.31D-04

 Cycle   8  Pass 1  IDiag  1:
 RMSU=  1.38D-05    CP:  3.17D-01  1.64D+00  7.04D-01  1.08D+00  1.27D+00
                    CP:  9.50D-01  1.01D+00
 E= -786.099684527374     Delta-E=       -0.000000748583 Rises=F Damp=F
 DIIS: error= 7.55D-06 at cycle   8 NSaved=   8.
 NSaved= 8 IEnMin= 8 EnMin= -786.099684527374     IErMin= 8 ErrMin= 7.55D-06
 ErrMax= 7.55D-06  0.00D+00 EMaxC= 1.00D-01 BMatC= 6.92D-08 BMatP= 6.24D-07
 IDIUse=1 WtCom= 1.00D+00 WtEn= 0.00D+00
 Coeff-Com:  0.388D-03-0.715D-03-0.182D-02-0.538D-02-0.259D-01 0.155D-01
 Coeff-Com:  0.262D+00 0.756D+00
 Coeff:      0.388D-03-0.715D-03-0.182D-02-0.538D-02-0.259D-01 0.155D-01
 Coeff:      0.262D+00 0.756D+00
 Gap=     0.245 Goal=   None    Shift=    0.000
 RMSDP=7.56D-06 MaxDP=4.88D-04 DE=-7.49D-07 OVMax= 1.31D-04

 Cycle   9  Pass 1  IDiag  1:
 RMSU=  4.91D-06    CP:  3.17D-01  1.64D+00  7.05D-01  1.08D+00  1.27D+00
                    CP:  9.41D-01  1.09D+00  1.21D+00
 E= -786.099684623050     Delta-E=       -0.000000095676 Rises=F Damp=F
 DIIS: error= 2.55D-06 at cycle   9 NSaved=   9.
 NSaved= 9 IEnMin= 9 EnMin= -786.099684623050     IErMin= 9 ErrMin= 2.55D-06
 ErrMax= 2.55D-06  0.00D+00 EMaxC= 1.00D-01 BMatC= 5.04D-09 BMatP= 6.92D-08
 IDIUse=1 WtCom= 1.00D+00 WtEn= 0.00D+00
 Coeff-Com: -0.485D-03 0.102D-02 0.141D-02 0.145D-02-0.136D-01-0.309D-01
 Coeff-Com: -0.194D-01 0.195D+00 0.866D+00
 Coeff:     -0.485D-03 0.102D-02 0.141D-02 0.145D-02-0.136D-01-0.309D-01
 Coeff:     -0.194D-01 0.195D+00 0.866D+00
 Gap=     0.245 Goal=   None    Shift=    0.000
 RMSDP=1.00D-05 MaxDP=1.33D-03 DE=-9.57D-08 OVMax= 7.22D-05

 Cycle  10  Pass 1  IDiag  1:
 RMSU=  2.01D-06    CP:  3.17D-01  1.64D+00  7.05D-01  1.08D+00  1.27D+00
                    CP:  9.32D-01  1.13D+00  1.34D+00  1.36D+00
 E= -786.099684633996     Delta-E=       -0.000000010945 Rises=F Damp=F
 DIIS: error= 1.08D-06 at cycle  10 NSaved=  10.
 NSaved=10 IEnMin=10 EnMin= -786.099684633996     IErMin=10 ErrMin= 1.08D-06
 ErrMax= 1.08D-06  0.00D+00 EMaxC= 1.00D-01 BMatC= 1.18D-09 BMatP= 5.04D-09
 IDIUse=1 WtCom= 1.00D+00 WtEn= 0.00D+00
 Coeff-Com: -0.215D-03 0.447D-03 0.695D-03 0.105D-02-0.315D-02-0.137D-01
 Coeff-Com: -0.338D-01 0.283D-02 0.369D+00 0.677D+00
 Coeff:     -0.215D-03 0.447D-03 0.695D-03 0.105D-02-0.315D-02-0.137D-01
 Coeff:     -0.338D-01 0.283D-02 0.369D+00 0.677D+00
 Gap=     0.245 Goal=   None    Shift=    0.000
 RMSDP=2.56D-06 MaxDP=3.49D-04 DE=-1.09D-08 OVMax= 1.34D-05

 Cycle  11  Pass 1  IDiag  1:
 RMSU=  5.67D-07    CP:  3.17D-01  1.64D+00  7.05D-01  1.08D+00  1.27D+00
                    CP:  9.28D-01  1.13D+00  1.40D+00  1.45D+00  9.76D-01
 E= -786.099684635490     Delta-E=       -0.000000001495 Rises=F Damp=F
 DIIS: error= 2.57D-07 at cycle  11 NSaved=  11.
 NSaved=11 IEnMin=11 EnMin= -786.099684635490     IErMin=11 ErrMin= 2.57D-07
 ErrMax= 2.57D-07  0.00D+00 EMaxC= 1.00D-01 BMatC= 4.73D-11 BMatP= 1.18D-09
 IDIUse=1 WtCom= 1.00D+00 WtEn= 0.00D+00
 Coeff-Com:  0.170D-05-0.575D-05 0.152D-04 0.108D-03 0.489D-03-0.924D-04
 Coeff-Com: -0.641D-02-0.145D-01 0.129D-01 0.134D+00 0.873D+00
 Coeff:      0.170D-05-0.575D-05 0.152D-04 0.108D-03 0.489D-03-0.924D-04
 Coeff:     -0.641D-02-0.145D-01 0.129D-01 0.134D+00 0.873D+00
 Gap=     0.245 Goal=   None    Shift=    0.000
 RMSDP=8.90D-07 MaxDP=1.28D-04 DE=-1.49D-09 OVMax= 8.09D-06

 Cycle  12  Pass 1  IDiag  1:
 RMSU=  2.69D-07    CP:  3.17D-01  1.64D+00  7.05D-01  1.08D+00  1.27D+00
                    CP:  9.27D-01  1.13D+00  1.42D+00  1.47D+00  9.80D-01
                    CP:  1.35D+00
 E= -786.099684635574     Delta-E=       -0.000000000084 Rises=F Damp=F
 DIIS: error= 1.24D-07 at cycle  12 NSaved=  12.
 NSaved=12 IEnMin=12 EnMin= -786.099684635574     IErMin=12 ErrMin= 1.24D-07
 ErrMax= 1.24D-07  0.00D+00 EMaxC= 1.00D-01 BMatC= 1.93D-11 BMatP= 4.73D-11
 IDIUse=1 WtCom= 1.00D+00 WtEn= 0.00D+00
 Coeff-Com:  0.245D-04-0.524D-04-0.690D-04-0.546D-04 0.602D-03 0.156D-02
 Coeff-Com:  0.649D-03-0.708D-02-0.379D-01-0.281D-01 0.408D+00 0.662D+00
 Coeff:      0.245D-04-0.524D-04-0.690D-04-0.546D-04 0.602D-03 0.156D-02
 Coeff:      0.649D-03-0.708D-02-0.379D-01-0.281D-01 0.408D+00 0.662D+00
 Gap=     0.245 Goal=   None    Shift=    0.000
 RMSDP=2.44D-07 MaxDP=3.02D-05 DE=-8.44D-11 OVMax= 2.27D-06

 Cycle  13  Pass 1  IDiag  1:
 RMSU=  6.27D-08    CP:  3.17D-01  1.64D+00  7.05D-01  1.08D+00  1.27D+00
                    CP:  9.27D-01  1.12D+00  1.43D+00  1.48D+00  9.81D-01
                    CP:  1.48D+00  1.12D+00
 E= -786.099684635638     Delta-E=       -0.000000000063 Rises=F Damp=F
 DIIS: error= 4.50D-08 at cycle  13 NSaved=  13.
 NSaved=13 IEnMin=13 EnMin= -786.099684635638     IErMin=13 ErrMin= 4.50D-08
 ErrMax= 4.50D-08  0.00D+00 EMaxC= 1.00D-01 BMatC= 1.03D-12 BMatP= 1.93D-11
 IDIUse=1 WtCom= 1.00D+00 WtEn= 0.00D+00
 Coeff-Com:  0.222D-05-0.430D-05-0.103D-04-0.181D-04-0.182D-04 0.251D-03
 Coeff-Com:  0.109D-02 0.180D-02-0.697D-02-0.276D-01-0.761D-01 0.367D-01
 Coeff-Com:  0.107D+01
 Coeff:      0.222D-05-0.430D-05-0.103D-04-0.181D-04-0.182D-04 0.251D-03
 Coeff:      0.109D-02 0.180D-02-0.697D-02-0.276D-01-0.761D-01 0.367D-01
 Coeff:      0.107D+01
 Gap=     0.245 Goal=   None    Shift=    0.000
 RMSDP=9.81D-08 MaxDP=1.26D-05 DE=-6.34D-11 OVMax= 1.79D-06

 Cycle  14  Pass 1  IDiag  1:
 RMSU=  3.13D-08    CP:  3.17D-01  1.64D+00  7.05D-01  1.08D+00  1.27D+00
                    CP:  9.27D-01  1.12D+00  1.43D+00  1.48D+00  9.81D-01
                    CP:  1.54D+00  1.23D+00  1.23D+00
 E= -786.099684635648     Delta-E=       -0.000000000010 Rises=F Damp=F
 DIIS: error= 1.27D-08 at cycle  14 NSaved=  14.
 NSaved=14 IEnMin=14 EnMin= -786.099684635648     IErMin=14 ErrMin= 1.27D-08
 ErrMax= 1.27D-08  0.00D+00 EMaxC= 1.00D-01 BMatC= 1.28D-13 BMatP= 1.03D-12
 IDIUse=1 WtCom= 1.00D+00 WtEn= 0.00D+00
 Coeff-Com: -0.189D-05 0.412D-05 0.451D-05 0.193D-05-0.586D-04-0.108D-03
 Coeff-Com:  0.687D-04 0.964D-03 0.180D-02-0.193D-02-0.482D-01-0.646D-01
 Coeff-Com:  0.206D+00 0.907D+00
 Coeff:     -0.189D-05 0.412D-05 0.451D-05 0.193D-05-0.586D-04-0.108D-03
 Coeff:      0.687D-04 0.964D-03 0.180D-02-0.193D-02-0.482D-01-0.646D-01
 Coeff:      0.206D+00 0.907D+00
 Gap=     0.245 Goal=   None    Shift=    0.000
 RMSDP=2.15D-08 MaxDP=2.39D-06 DE=-1.02D-11 OVMax= 5.84D-07

 Cycle  15  Pass 1  IDiag  1:
 RMSU=  7.88D-09    CP:  3.17D-01  1.64D+00  7.05D-01  1.08D+00  1.27D+00
                    CP:  9.27D-01  1.12D+00  1.43D+00  1.48D+00  9.81D-01
                    CP:  1.54D+00  1.24D+00  1.41D+00  1.21D+00
 E= -786.099684635610     Delta-E=        0.000000000038 Rises=F Damp=F
 DIIS: error= 5.22D-09 at cycle  15 NSaved=  15.
 NSaved=15 IEnMin=14 EnMin= -786.099684635648     IErMin=15 ErrMin= 5.22D-09
 ErrMax= 5.22D-09  0.00D+00 EMaxC= 1.00D-01 BMatC= 4.54D-14 BMatP= 1.28D-13
 IDIUse=1 WtCom= 1.00D+00 WtEn= 0.00D+00
 Coeff-Com: -0.118D-05 0.248D-05 0.369D-05 0.336D-05-0.210D-04-0.892D-04
 Coeff-Com: -0.134D-03 0.222D-03 0.203D-02 0.410D-02-0.983D-02-0.386D-01
 Coeff-Com: -0.906D-01 0.410D+00 0.723D+00
 Coeff:     -0.118D-05 0.248D-05 0.369D-05 0.336D-05-0.210D-04-0.892D-04
 Coeff:     -0.134D-03 0.222D-03 0.203D-02 0.410D-02-0.983D-02-0.386D-01
 Coeff:     -0.906D-01 0.410D+00 0.723D+00
 Gap=     0.245 Goal=   None    Shift=    0.000
 RMSDP=8.11D-09 MaxDP=4.52D-07 DE= 3.82D-11 OVMax= 2.32D-07

 Error on total polarization charges =  0.06035
 SCF Done:  E(RCAM-B3LYP) =  -786.099684636     A.U. after   15 cycles
            NFock= 15  Conv=0.81D-08     -V/T= 2.0096
 KE= 7.786586969042D+02 PE=-4.278769683123D+03 EE= 1.480251522601D+03
 SMD-CDS (non-electrostatic) energy       (kcal/mol) =       2.01
 (included in total energy above)
 Leave Link  502 at Tue Jul 14 00:31:15 2026, MaxMem=  4026531840 cpu:             742.5 elap:              97.7
 (Enter /opt/packages/gaussian/g16RevC.01/g16/l801.exe)
 DoSCS=F DFT=T ScalE2(SS,OS)=  1.000000  1.000000
 ExpMin= 4.38D-02 ExpMax= 5.48D+03 ExpMxC= 8.25D+02 IAcc=3 IRadAn=         5 AccDes= 0.00D+00
 HarFok:  IExCor=  205 AccDes= 0.00D+00 IRadAn=         5 IDoV=-2 UseB2=F ITyADJ=14
 ICtDFT= 12500011 ScaDFX=  1.000000  1.000000  1.000000  1.000000
 Largest valence mixing into a core orbital is  5.39D-05
 Largest core mixing into a valence orbital is  1.11D-05
 Range of M.O.s used for correlation:    18   357
 NBasis=   359 NAE=    63 NBE=    63 NFC=    17 NFV=     0
 NROrb=    340 NOA=    46 NOB=    46 NVA=   294 NVB=   294

 **** Warning!!: The largest alpha MO coefficient is  0.14406608D+03

 Leave Link  801 at Tue Jul 14 00:31:16 2026, MaxMem=  4026531840 cpu:               1.1 elap:               0.2
 (Enter /opt/packages/gaussian/g16RevC.01/g16/l914.exe)
 RHF ground state
 Two-electron integrals replicated using symmetry.
 MDV=  4026531840 DFT=T DoStab=F Mixed=T DoRPA=T DoScal=F NonHer=T
 NEqPCM:  Using non-equilibrium solvation (IEInf=1, Eps=  32.6130, EpsInf=   1.7657)
 Inv3:  Mode=1 IEnd=    19096587.
 Iteration    1 A*A^-1 deviation from unit magnitude is 3.11D-15 for   2171.
 Iteration    1 A*A^-1 deviation from orthogonality  is 2.15D-15 for   2218   1982.
 Iteration    1 A^-1*A deviation from unit magnitude is 3.11D-15 for   2395.
 Iteration    1 A^-1*A deviation from orthogonality  is 1.21D-14 for   1268   1171.
 Making orbital integer symmetry assigments:
 Orbital symmetries:
       Occupied  (A) (A) (A) (A) (A) (A) (A) (A) (A) (A) (A) (A)
                 (A) (A) (A) (A) (A) (A) (A) (A) (A) (A) (A) (A)
                 (A) (A) (A) (A) (A) (A) (A) (A) (A) (A) (A) (A)
                 (A) (A) (A) (A) (A) (A) (A) (A) (A) (A) (A) (A)
                 (A) (A) (A) (A) (A) (A) (A) (A) (A) (A) (A) (A)
                 (A) (A) (A)
       Virtual   (A) (A) (A) (A) (A) (A) (A) (A) (A) (A) (A) (A)
                 (A) (A) (A) (A) (A) (A) (A) (A) (A) (A) (A) (A)
                 (A) (A) (A) (A) (A) (A) (A) (A) (A) (A) (A) (A)
                 (A) (A) (A) (A) (A) (A) (A) (A) (A) (A) (A) (A)
                 (A) (A) (A) (A) (A) (A) (A) (A) (A) (A) (A) (A)
                 (A) (A) (A) (A) (A) (A) (A) (A) (A) (A) (A) (A)
                 (A) (A) (A) (A) (A) (A) (A) (A) (A) (A) (A) (A)
                 (A) (A) (A) (A) (A) (A) (A) (A) (A) (A) (A) (A)
                 (A) (A) (A) (A) (A) (A) (A) (A) (A) (A) (A) (A)
                 (A) (A) (A) (A) (A) (A) (A) (A) (A) (A) (A) (A)
                 (A) (A) (A) (A) (A) (A) (A) (A) (A) (A) (A) (A)
                 (A) (A) (A) (A) (A) (A) (A) (A) (A) (A) (A) (A)
                 (A) (A) (A) (A) (A) (A) (A) (A) (A) (A) (A) (A)
                 (A) (A) (A) (A) (A) (A) (A) (A) (A) (A) (A) (A)
                 (A) (A) (A) (A) (A) (A) (A) (A) (A) (A) (A) (A)
                 (A) (A) (A) (A) (A) (A) (A) (A) (A) (A) (A) (A)
                 (A) (A) (A) (A) (A) (A) (A) (A) (A) (A) (A) (A)
                 (A) (A) (A) (A) (A) (A) (A) (A) (A) (A) (A) (A)
                 (A) (A) (A) (A) (A) (A) (A) (A) (A) (A) (A) (A)
                 (A) (A) (A) (A) (A) (A) (A) (A) (A) (A) (A) (A)
                 (A) (A) (A) (A) (A) (A) (A) (A) (A) (A) (A) (A)
                 (A) (A) (A) (A) (A) (A) (A) (A) (A) (A) (A) (A)
                 (A) (A) (A) (A) (A) (A) (A) (A) (A) (A) (A) (A)
                 (A) (A) (A) (A) (A) (A) (A) (A) (A) (A) (A) (A)
                 (A) (A) (A) (A) (A) (A)
    40 initial guesses have been made.
 Convergence on wavefunction:    0.001000000000000
 Davidson Disk Diagonalization:  ConvIn= 1.00D-03 SkipCon=T Conv= 1.00D-03.
 Max sub-space:  2000 roots to seek:    40 dimension of matrix:        27048
 Iteration     1 Dimension    40 NMult     0 NNew     40
 CISAX will form    40 AO SS matrices at one time.
 NMat=    40 NSing=    40 JSym2X= 0.
 FoFJK:  IHMeth= 1 ICntrl=       0 DoSepK=T KAlg= 0 I1Cent=           0 FoldK=F
 IRaf=         1 NMat=      80 IRICut=       1 DoRegI=T DoRafI=F ISym2E= 0 IDoP0=0 IntGTp=1.
 New state      1 was old state      2
 New state      2 was old state      1
 New state      9 was old state     11
 New state     10 was old state      9
 Excitation Energies [eV] at current iteration:
 Root      1 :     4.676515974951653
 Root      2 :     4.837472837848948
 Root      3 :     5.839936986765816
 Root      4 :     6.106783711585075
 Root      5 :     6.198337337255598
 Root      6 :     6.495957834122209
 Root      7 :     6.778365059275215
 Root      8 :     6.967350319349337
 Root      9 :     6.999070361928898
 Root     10 :     7.063909027004306
 Root     11 :     7.126695318572291
 Root     12 :     7.332651793253325
 Root     13 :     7.346335412561153
 Root     14 :     7.415377336717239
 Root     15 :     7.430187508790014
 Root     16 :     7.492950013146841
 Root     17 :     7.524388132208877
 Root     18 :     7.595626000973995
 Root     19 :     7.649984092012033
 Root     20 :     7.738319115235654
 Root     21 :     7.802377128062879
 Root     22 :     7.891703966798725
 Root     23 :     7.973448153237785
 Root     24 :     7.983638800055923
 Root     25 :     8.002086323195281
 Root     26 :     8.047150287015954
 Root     27 :     8.080467916651143
 Root     28 :     8.228686479753634
 Root     29 :     8.279867004758113
 Root     30 :     8.337492932492523
 Root     31 :     8.361652104178310
 Root     32 :     8.408601697851555
 Root     33 :     8.468990127284744
 Root     34 :     8.520695415019393
 Root     35 :     8.591828618472595
 Root     36 :     8.615339815975359
 Root     37 :     8.676469641493632
 Root     38 :     8.701436698295101
 Root     39 :     8.724763956438318
 Root     40 :     8.759415399652278
 Iteration     2 Dimension    60 NMult    40 NNew     20
 CISAX will form    20 AO SS matrices at one time.
 NMat=    20 NSing=    20 JSym2X= 0.
 New state      1 was old state      2
 Root      1 not converged, maximum delta is    0.050348085220267
 New state      2 was old state      1
 Root      2 not converged, maximum delta is    0.047000432706103
 Root      3 not converged, maximum delta is    0.080377075600236
 Root      4 not converged, maximum delta is    0.230516843238965
 Root      5 not converged, maximum delta is    0.163780161727052
 New state      6 was old state      7
 Root      6 not converged, maximum delta is    0.192860056414524
 New state      7 was old state      6
 Root      7 not converged, maximum delta is    0.124477904910492
 Root      8 not converged, maximum delta is    0.231508410727086
 Root      9 not converged, maximum delta is    0.129357209029341
 Root     10 not converged, maximum delta is    0.166568506799730
 Excitation Energies [eV] at current iteration:
 Root      1 :     4.240146456470814   Change is   -0.597326381378134
 Root      2 :     4.383465169432387   Change is   -0.293050805519267
 Root      3 :     5.650399740460482   Change is   -0.189537246305332
 Root      4 :     5.671899003746656   Change is   -0.434884707838420
 Root      5 :     6.022393011631451   Change is   -0.175944325624148
 Root      6 :     6.214788857826481   Change is   -0.563576201448734
 Root      7 :     6.338255201283842   Change is   -0.157702632838368
 Root      8 :     6.430389898179909   Change is   -0.536960421169428
 Root      9 :     6.811463860677304   Change is   -0.187606501251594
 Root     10 :     6.861383231473523   Change is   -0.202525795530783
 Iteration     3 Dimension    80 NMult    60 NNew     20
 CISAX will form    20 AO SS matrices at one time.
 NMat=    20 NSing=    20 JSym2X= 0.
 Root      1 not converged, maximum delta is    0.005786466707350
 Root      2 not converged, maximum delta is    0.004302997543708
 Root      3 not converged, maximum delta is    0.024359836543471
 Root      4 not converged, maximum delta is    0.026016069284605
 Root      5 not converged, maximum delta is    0.024975005709948
 Root      6 not converged, maximum delta is    0.022266440062589
 Root      7 not converged, maximum delta is    0.042986511776835
 Root      8 not converged, maximum delta is    0.047642183831022
 Root      9 not converged, maximum delta is    0.113010415950426
 Root     10 not converged, maximum delta is    0.122390899499238
 Excitation Energies [eV] at current iteration:
 Root      1 :     4.215029712911261   Change is   -0.025116743559553
 Root      2 :     4.372328080647253   Change is   -0.011137088785134
 Root      3 :     5.640394752927028   Change is   -0.010004987533454
 Root      4 :     5.655123837747201   Change is   -0.016775165999455
 Root      5 :     6.007135155797958   Change is   -0.015257855833493
 Root      6 :     6.181256579240353   Change is   -0.033532278586128
 Root      7 :     6.329851063111757   Change is   -0.008404138172084
 Root      8 :     6.380117910445211   Change is   -0.050271987734699
 Root      9 :     6.793168839466713   Change is   -0.018295021210591
 Root     10 :     6.840703313998614   Change is   -0.020679917474909
 Iteration     4 Dimension   100 NMult    80 NNew     20
 CISAX will form    20 AO SS matrices at one time.
 NMat=    20 NSing=    20 JSym2X= 0.
 Root      1 not converged, maximum delta is    0.001446255460068
 Root      2 not converged, maximum delta is    0.001206294708081
 Root      3 not converged, maximum delta is    0.005059705264920
 Root      4 not converged, maximum delta is    0.005485191234434
 Root      5 not converged, maximum delta is    0.014224683492250
 Root      6 not converged, maximum delta is    0.007746118558130
 Root      7 not converged, maximum delta is    0.008589212992101
 Root      8 not converged, maximum delta is    0.012422106206426
 Root      9 not converged, maximum delta is    0.125439439956912
 Root     10 not converged, maximum delta is    0.134495929067483
 Excitation Energies [eV] at current iteration:
 Root      1 :     4.212793934544325   Change is   -0.002235778366936
 Root      2 :     4.371724079347342   Change is   -0.000604001299910
 Root      3 :     5.639698756927827   Change is   -0.000695995999201
 Root      4 :     5.653570003089878   Change is   -0.001553834657323
 Root      5 :     6.004516913375038   Change is   -0.002618242422919
 Root      6 :     6.176588511695075   Change is   -0.004668067545278
 Root      7 :     6.328673417185987   Change is   -0.001177645925770
 Root      8 :     6.372841855570886   Change is   -0.007276054874324
 Root      9 :     6.781151019167285   Change is   -0.012017820299428
 Root     10 :     6.832278709583744   Change is   -0.008424604414870
 Iteration     5 Dimension   120 NMult   100 NNew     20
 CISAX will form    20 AO SS matrices at one time.
 NMat=    20 NSing=    20 JSym2X= 0.
 Root      1 has converged.
 Root      2 has converged.
 Root      3 has converged.
 Root      4 has converged.
 Root      5 not converged, maximum delta is    0.004342365748454
 Root      6 has converged.
 Root      7 not converged, maximum delta is    0.001032720906409
 Root      8 not converged, maximum delta is    0.003320861822695
 Root      9 not converged, maximum delta is    0.051528519670979
 Root     10 not converged, maximum delta is    0.080334626133804
 Excitation Energies [eV] at current iteration:
 Root      1 :     4.212694519236735   Change is   -0.000099415307590
 Root      2 :     4.371685728380907   Change is   -0.000038350966436
 Root      3 :     5.639648824110147   Change is   -0.000049932817681
 Root      4 :     5.653447401692126   Change is   -0.000122601397752
 Root      5 :     6.004173849745260   Change is   -0.000343063629779
 Root      6 :     6.176241155102581   Change is   -0.000347356592495
 Root      7 :     6.328560497458158   Change is   -0.000112919727829
 Root      8 :     6.372154476933085   Change is   -0.000687378637802
 Root      9 :     6.776749274809088   Change is   -0.004401744358196
 Root     10 :     6.827480955105620   Change is   -0.004797754478124
 Iteration     6 Dimension   130 NMult   120 NNew     10
 CISAX will form    10 AO SS matrices at one time.
 NMat=    10 NSing=    10 JSym2X= 0.
 Root      1 has converged.
 Root      2 has converged.
 Root      3 has converged.
 Root      4 has converged.
 Root      5 has converged.
 Root      6 has converged.
 Root      7 has converged.
 Root      8 not converged, maximum delta is    0.001138800500010
 Root      9 not converged, maximum delta is    0.007095821550134
 Root     10 not converged, maximum delta is    0.131221749374646
 Excitation Energies [eV] at current iteration:
 Root      1 :     4.212693655146249   Change is   -0.000000864090486
 Root      2 :     4.371685549496148   Change is   -0.000000178884759
 Root      3 :     5.639648380248691   Change is   -0.000000443861456
 Root      4 :     5.653446272893739   Change is   -0.000001128798387
 Root      5 :     6.004147092608043   Change is   -0.000026757137217
 Root      6 :     6.176233896384557   Change is   -0.000007258718024
 Root      7 :     6.328551089139753   Change is   -0.000009408318405
 Root      8 :     6.372087309955321   Change is   -0.000067166977763
 Root      9 :     6.776075962028654   Change is   -0.000673312780434
 Root     10 :     6.824537587896597   Change is   -0.002943367209022
 Iteration     7 Dimension   136 NMult   130 NNew      6
 CISAX will form     6 AO SS matrices at one time.
 NMat=     6 NSing=     6 JSym2X= 0.
 Root      1 has converged.
 Root      2 has converged.
 Root      3 has converged.
 Root      4 has converged.
 Root      5 has converged.
 Root      6 has converged.
 Root      7 has converged.
 Root      8 has converged.
 Root      9 not converged, maximum delta is    0.004355233397736
 Root     10 not converged, maximum delta is    0.169895947389032
 Excitation Energies [eV] at current iteration:
 Root      1 :     4.212693476259362   Change is   -0.000000178886888
 Root      2 :     4.371685330163013   Change is   -0.000000219333135
 Root      3 :     5.639648252551074   Change is   -0.000000127697617
 Root      4 :     5.653446055187014   Change is   -0.000000217706726
 Root      5 :     6.004146582865861   Change is   -0.000000509742182
 Root      6 :     6.176232459635806   Change is   -0.000001436748750
 Root      7 :     6.328550942831105   Change is   -0.000000146308649
 Root      8 :     6.372079970009287   Change is   -0.000007339946034
 Root      9 :     6.775962342158362   Change is   -0.000113619870292
 Root     10 :     6.820036110831078   Change is   -0.004501477065520
 Iteration     8 Dimension   140 NMult   136 NNew      4
 CISAX will form     4 AO SS matrices at one time.
 NMat=     4 NSing=     4 JSym2X= 0.
 Root      1 has converged.
 Root      2 has converged.
 Root      3 has converged.
 Root      4 has converged.
 Root      5 has converged.
 Root      6 has converged.
 Root      7 has converged.
 Root      8 has converged.
 Root      9 not converged, maximum delta is    0.001098604768248
 Root     10 not converged, maximum delta is    0.025878035338971
 Excitation Energies [eV] at current iteration:
 Root      1 :     4.212693406557302   Change is   -0.000000069702059
 Root      2 :     4.371685309069324   Change is   -0.000000021093688
 Root      3 :     5.639648166735257   Change is   -0.000000085815817
 Root      4 :     5.653445941889260   Change is   -0.000000113297755
 Root      5 :     6.004146418159030   Change is   -0.000000164706831
 Root      6 :     6.176232238452959   Change is   -0.000000221182847
 Root      7 :     6.328550897884798   Change is   -0.000000044946307
 Root      8 :     6.372079717007449   Change is   -0.000000253001838
 Root      9 :     6.775944608858569   Change is   -0.000017733299793
 Root     10 :     6.819053027622919   Change is   -0.000983083208158
 Iteration     9 Dimension   144 NMult   140 NNew      4
 CISAX will form     4 AO SS matrices at one time.
 NMat=     4 NSing=     4 JSym2X= 0.
 Root      1 has converged.
 Root      2 has converged.
 Root      3 has converged.
 Root      4 has converged.
 Root      5 has converged.
 Root      6 has converged.
 Root      7 has converged.
 Root      8 has converged.
 Root      9 has converged.
 Root     10 not converged, maximum delta is    0.002096603457871
 Excitation Energies [eV] at current iteration:
 Root      1 :     4.212693362572826   Change is   -0.000000043984476
 Root      2 :     4.371685289775719   Change is   -0.000000019293605
 Root      3 :     5.639648050053181   Change is   -0.000000116682076
 Root      4 :     5.653445882253784   Change is   -0.000000059635475
 Root      5 :     6.004146378382694   Change is   -0.000000039776336
 Root      6 :     6.176232024132950   Change is   -0.000000214320009
 Root      7 :     6.328550838807705   Change is   -0.000000059077093
 Root      8 :     6.372079684101942   Change is   -0.000000032905508
 Root      9 :     6.775942700507128   Change is   -0.000001908351442
 Root     10 :     6.818939401284017   Change is   -0.000113626338903
 Iteration    10 Dimension   146 NMult   144 NNew      2
 CISAX will form     2 AO SS matrices at one time.
 NMat=     2 NSing=     2 JSym2X= 0.
 Root      1 has converged.
 Root      2 has converged.
 Root      3 has converged.
 Root      4 has converged.
 Root      5 has converged.
 Root      6 has converged.
 Root      7 has converged.
 Root      8 has converged.
 Root      9 has converged.
 Root     10 has converged.
 Excitation Energies [eV] at current iteration:
 Root      1 :     4.212693353383550   Change is   -0.000000009189276
 Root      2 :     4.371685269413077   Change is   -0.000000020362643
 Root      3 :     5.639648039341822   Change is   -0.000000010711360
 Root      4 :     5.653445812338484   Change is   -0.000000069915301
 Root      5 :     6.004146375472353   Change is   -0.000000002910341
 Root      6 :     6.176231924406985   Change is   -0.000000099725964
 Root      7 :     6.328550832666918   Change is   -0.000000006140788
 Root      8 :     6.372079669131963   Change is   -0.000000014969979
 Root      9 :     6.775942698076647   Change is   -0.000000002430480
 Root     10 :     6.818927219308556   Change is   -0.000012181975461
 Convergence achieved on expansion vectors.
 ***********************************************************************
 Excited states from <AA,BB:AA,BB> singles matrix:
 ***********************************************************************
 
 1PDM for each excited state written to RWF  633
 Ground to excited state transition densities written to RWF  633
 Ground to excited state transition electric dipole moments (Au):
       state          X           Y           Z        Dip. S.      Osc.
         1        -2.5440      0.1918      0.1037      6.5195      0.6729
         2        -0.0119      0.4746      0.0107      0.2255      0.0241
         3        -0.3680     -0.1433     -0.0088      0.1561      0.0216
         4         0.0834     -1.2279     -0.0070      1.5147      0.2098
         5         0.1761     -0.2950     -0.0092      0.1181      0.0174
         6        -1.6248      0.3607     -0.1385      2.7894      0.4221
         7         0.0457      0.0965      0.1563      0.0358      0.0056
         8         0.7360      0.6531      0.0438      0.9700      0.1514
         9         0.3298      0.0820      0.0405      0.1171      0.0194
        10        -0.1918      0.0961      0.1255      0.0618      0.0103
 Ground to excited state transition velocity dipole moments (Au):
       state          X           Y           Z        Dip. S.      Osc.
         1         0.3804     -0.0283     -0.0162      0.1458      0.6277
         2         0.0001     -0.0758     -0.0044      0.0058      0.0239
         3         0.0749      0.0328     -0.0008      0.0067      0.0215
         4        -0.0140      0.2500     -0.0007      0.0627      0.2013
         5        -0.0395      0.0628     -0.0070      0.0056      0.0168
         6         0.3611     -0.0787      0.0329      0.1376      0.4043
         7        -0.0100     -0.0219     -0.0288      0.0014      0.0040
         8        -0.1660     -0.1481     -0.0136      0.0497      0.1414
         9        -0.0745     -0.0204     -0.0023      0.0060      0.0160
        10         0.0496     -0.0224     -0.0329      0.0040      0.0108
 Ground to excited state transition magnetic dipole moments (Au):
       state          X           Y           Z
         1        -0.0559     -0.0486     -0.0064
         2        -0.0365      0.0447     -0.2925
         3         0.3416     -0.0322      0.2001
         4         0.1310      0.1004      0.0834
         5         0.1114      0.1140      0.1005
         6         0.0240     -0.3303      0.0138
         7         0.1128      0.2009      0.1079
         8        -0.1810      0.0631      0.3600
         9        -0.1770     -0.6760      0.0142
        10         0.0559     -0.0440     -0.1056
 Ground to excited state transition velocity quadrupole moments (Au):
       state          XX          YY          ZZ          XY          XZ          YZ
         1        -0.7538      0.0223      0.0221      0.1845     -0.1624      0.0130
         2         0.0608     -0.0336     -0.0102      0.0006     -0.0035     -0.0020
         3        -0.7124      0.1320      0.0205      0.2659      0.0084      0.0304
         4        -0.0200      0.1067     -0.0161      0.6758      0.0285      0.0955
         5         0.1513      0.0069     -0.0135      0.0275      0.0461      0.0132
         6        -1.3203      0.7659      0.0871      0.6618      0.1575     -0.0038
         7        -0.3800     -0.1343      0.0369      0.3090     -0.1572      0.0554
         8        -1.4076     -0.2648     -0.0069      0.5837      0.1542      0.0277
         9        -0.0143     -0.1139     -0.0087     -0.2316      0.1005     -0.1277
        10         1.4492     -0.2667      0.0130      0.1058     -0.2976      0.1827
 <0|del|b> * <b|rxdel|0> + <0|del|b> * <b|delr+rdel|0>
 Rotatory Strengths (R) in cgs (10**-40 erg-esu-cm/Gauss)
       state          XX          YY          ZZ    R(velocity)    E-M Angle
         1       -13.9518    -30.1775    -46.1946    -30.1080      134.18
         2        -5.2377      2.8099     -6.8725     -3.1001       95.36
         3        -2.9404     47.6399     38.4385     27.7126       41.38
         4        29.6817     -4.7063     53.9887     26.3214       59.94
         5         5.3963     -8.7131      9.8930      2.1921       81.60
         6        94.4129    -21.8810     36.8065     36.4461       73.42
         7       -30.1815      6.2465     -2.3283     -8.7545      154.76
         8         0.9818     43.0396      3.7134     15.9116       79.99
         9        23.2016     31.4548     21.8951     25.5172       60.08
        10        -8.0197     26.5077      1.9085      6.7989       26.71
 1/2[<0|r|b>*<b|rxdel|0> + (<0|rxdel|b>*<b|r|0>)*]
 Rotatory Strengths (R) in cgs (10**-40 erg-esu-cm/Gauss)
       state          XX          YY          ZZ     R(length)
         1      -100.5028      6.5906      0.4684    -31.1479
         2        -0.3071    -15.0054      2.2079     -4.3682
         3        88.8978     -3.2592      1.2504     28.9630
         4        -7.7328     87.1411      0.4148     26.6077
         5       -13.8738     23.7814      0.6569      3.5215
         6        27.5681     84.2444      1.3532     37.7219
         7        -3.6412    -13.7098    -11.9256     -9.7589
         8        94.2197    -29.1375    -11.1392     17.9810
         9        41.2804     39.2037     -0.4061     26.6927
        10         7.5835      2.9867      9.3712      6.6471
  1/2[<0|del|b>*<b|r|0> + (<0|r|b>*<b|del|0>)*] (Au)
       state          X           Y           Z        Dip. S.   Osc.(frdel)
         1        -0.9678     -0.0054     -0.0017      0.9749      0.6499
         2        -0.0000     -0.0360     -0.0000      0.0360      0.0240
         3        -0.0276     -0.0047      0.0000      0.0323      0.0215
         4        -0.0012     -0.3070      0.0000      0.3082      0.2055
         5        -0.0070     -0.0185      0.0001      0.0254      0.0169
         6        -0.5867     -0.0284     -0.0046      0.6196      0.4131
         7        -0.0005     -0.0021     -0.0045      0.0071      0.0047
         8        -0.1222     -0.0967     -0.0006      0.2195      0.1463
         9        -0.0246     -0.0017     -0.0001      0.0263      0.0176
        10        -0.0095     -0.0021     -0.0041      0.0158      0.0105

 Excitation energies and oscillator strengths:
 
 Excited State   1:      Singlet-A      4.2127 eV  294.31 nm  f=0.6729  <S**2>=0.000
      63 -> 64         0.69427
 This state for optimization and/or second-order correction.
 Total Energy, E(TD-HF/TD-DFT) =  -785.944871003    
 Copying the excited state density for this state as the 1-particle RhoCI density.
 
 Excited State   2:      Singlet-A      4.3717 eV  283.61 nm  f=0.0241  <S**2>=0.000
      62 -> 64         0.66628
      63 -> 65         0.21296
 
 Excited State   3:      Singlet-A      5.6396 eV  219.84 nm  f=0.0216  <S**2>=0.000
      61 -> 64         0.66823
      63 -> 65         0.13226
 
 Excited State   4:      Singlet-A      5.6534 eV  219.31 nm  f=0.2098  <S**2>=0.000
      61 -> 64        -0.13731
      62 -> 64        -0.22404
      63 -> 65         0.62851
 
 Excited State   5:      Singlet-A      6.0041 eV  206.50 nm  f=0.0174  <S**2>=0.000
      60 -> 64         0.66939
 
 Excited State   6:      Singlet-A      6.1762 eV  200.74 nm  f=0.4221  <S**2>=0.000
      59 -> 64         0.36974
      62 -> 65         0.54684
 
 Excited State   7:      Singlet-A      6.3286 eV  195.91 nm  f=0.0056  <S**2>=0.000
      59 -> 64         0.19475
      63 -> 66         0.47956
      63 -> 67        -0.30679
      63 -> 69         0.12649
      63 -> 70         0.17290
      63 -> 71        -0.13695
      63 -> 72        -0.14916
 
 Excited State   8:      Singlet-A      6.3721 eV  194.57 nm  f=0.1514  <S**2>=0.000
      59 -> 64         0.53475
      62 -> 65        -0.36468
      63 -> 66        -0.12483
 
 Excited State   9:      Singlet-A      6.7759 eV  182.98 nm  f=0.0194  <S**2>=0.000
      58 -> 64        -0.10248
      61 -> 65         0.60940
      62 -> 66         0.17328
      62 -> 67        -0.10931
 
 Excited State  10:      Singlet-A      6.8189 eV  181.82 nm  f=0.0103  <S**2>=0.000
      57 -> 64        -0.26631
      58 -> 64         0.36200
      61 -> 65         0.15626
      62 -> 65         0.11886
      62 -> 66        -0.24393
      62 -> 67         0.11331
      62 -> 70        -0.11294
      63 -> 67        -0.10701
      63 -> 70        -0.15761
      63 -> 74        -0.14375
      63 -> 75        -0.10362
 SavETr:  write IOETrn=   770 NScale= 10 NData=  16 NLR=1 NState=   10 LETran=     190.
 Leave Link  914 at Tue Jul 14 00:38:28 2026, MaxMem=  4026531840 cpu:            3335.8 elap:             431.7
 (Enter /opt/packages/gaussian/g16RevC.01/g16/l601.exe)
 Copying SCF densities to generalized density rwf, IOpCl= 0 IROHF=0.

 **********************************************************************

            Population analysis using the SCF Density.

 **********************************************************************

 Orbital symmetries:
       Occupied  (A) (A) (A) (A) (A) (A) (A) (A) (A) (A) (A) (A)
                 (A) (A) (A) (A) (A) (A) (A) (A) (A) (A) (A) (A)
                 (A) (A) (A) (A) (A) (A) (A) (A) (A) (A) (A) (A)
                 (A) (A) (A) (A) (A) (A) (A) (A) (A) (A) (A) (A)
                 (A) (A) (A) (A) (A) (A) (A) (A) (A) (A) (A) (A)
                 (A) (A) (A)
       Virtual   (A) (A) (A) (A) (A) (A) (A) (A) (A) (A) (A) (A)
                 (A) (A) (A) (A) (A) (A) (A) (A) (A) (A) (A) (A)
                 (A) (A) (A) (A) (A) (A) (A) (A) (A) (A) (A) (A)
                 (A) (A) (A) (A) (A) (A) (A) (A) (A) (A) (A) (A)
                 (A) (A) (A) (A) (A) (A) (A) (A) (A) (A) (A) (A)
                 (A) (A) (A) (A) (A) (A) (A) (A) (A) (A) (A) (A)
                 (A) (A) (A) (A) (A) (A) (A) (A) (A) (A) (A) (A)
                 (A) (A) (A) (A) (A) (A) (A) (A) (A) (A) (A) (A)
                 (A) (A) (A) (A) (A) (A) (A) (A) (A) (A) (A) (A)
                 (A) (A) (A) (A) (A) (A) (A) (A) (A) (A) (A) (A)
                 (A) (A) (A) (A) (A) (A) (A) (A) (A) (A) (A) (A)
                 (A) (A) (A) (A) (A) (A) (A) (A) (A) (A) (A) (A)
                 (A) (A) (A) (A) (A) (A) (A) (A) (A) (A) (A) (A)
                 (A) (A) (A) (A) (A) (A) (A) (A) (A) (A) (A) (A)
                 (A) (A) (A) (A) (A) (A) (A) (A) (A) (A) (A) (A)
                 (A) (A) (A) (A) (A) (A) (A) (A) (A) (A) (A) (A)
                 (A) (A) (A) (A) (A) (A) (A) (A) (A) (A) (A) (A)
                 (A) (A) (A) (A) (A) (A) (A) (A) (A) (A) (A) (A)
                 (A) (A) (A) (A) (A) (A) (A) (A) (A) (A) (A) (A)
                 (A) (A) (A) (A) (A) (A) (A) (A) (A) (A) (A) (A)
                 (A) (A) (A) (A) (A) (A) (A) (A) (A) (A) (A) (A)
                 (A) (A) (A) (A) (A) (A) (A) (A) (A) (A) (A) (A)
                 (A) (A) (A) (A) (A) (A) (A) (A) (A) (A) (A) (A)
                 (A) (A) (A) (A) (A) (A) (A) (A) (A) (A) (A) (A)
                 (A) (A) (A) (A) (A) (A)
 The electronic state is 1-A.
 Alpha  occ. eigenvalues --  -19.27808 -19.26027 -19.25808 -14.49852 -10.38119
 Alpha  occ. eigenvalues --  -10.36055 -10.34220 -10.34180 -10.31254 -10.31086
 Alpha  occ. eigenvalues --  -10.30790 -10.30581 -10.30578 -10.29531 -10.29419
 Alpha  occ. eigenvalues --  -10.28667 -10.27389  -1.17622  -1.14731  -1.13942
 Alpha  occ. eigenvalues --   -1.09709  -0.96412  -0.88862  -0.88358  -0.85473
 Alpha  occ. eigenvalues --   -0.83452  -0.79883  -0.77688  -0.76595  -0.71787
 Alpha  occ. eigenvalues --   -0.70616  -0.69364  -0.68336  -0.63432  -0.61004
 Alpha  occ. eigenvalues --   -0.60387  -0.58224  -0.57796  -0.56211  -0.55919
 Alpha  occ. eigenvalues --   -0.53787  -0.53253  -0.52998  -0.52280  -0.51222
 Alpha  occ. eigenvalues --   -0.50444  -0.50012  -0.49678  -0.48403  -0.47919
 Alpha  occ. eigenvalues --   -0.46320  -0.45062  -0.44780  -0.43483  -0.43204
 Alpha  occ. eigenvalues --   -0.42461  -0.41065  -0.40333  -0.38054  -0.36472
 Alpha  occ. eigenvalues --   -0.35210  -0.31526  -0.29431
 Alpha virt. eigenvalues --   -0.04906   0.01940   0.03058   0.04228   0.04759
 Alpha virt. eigenvalues --    0.05305   0.05498   0.05710   0.06228   0.06617
 Alpha virt. eigenvalues --    0.06753   0.07058   0.07415   0.07879   0.08379
 Alpha virt. eigenvalues --    0.09075   0.09480   0.09936   0.10208   0.10459
 Alpha virt. eigenvalues --    0.11370   0.11531   0.12295   0.12815   0.13190
 Alpha virt. eigenvalues --    0.13275   0.14013   0.14627   0.14887   0.15596
 Alpha virt. eigenvalues --    0.15992   0.16452   0.16527   0.17345   0.17584
 Alpha virt. eigenvalues --    0.18344   0.18529   0.18881   0.19208   0.19765
 Alpha virt. eigenvalues --    0.19888   0.20358   0.21008   0.21238   0.21880
 Alpha virt. eigenvalues --    0.22549   0.22713   0.23206   0.23530   0.24028
 Alpha virt. eigenvalues --    0.24346   0.24449   0.24870   0.25377   0.26201
 Alpha virt. eigenvalues --    0.26944   0.27053   0.27406   0.27720   0.28410
 Alpha virt. eigenvalues --    0.28699   0.29091   0.29380   0.29619   0.30408
 Alpha virt. eigenvalues --    0.30828   0.31208   0.31656   0.31937   0.32484
 Alpha virt. eigenvalues --    0.32684   0.33022   0.33304   0.33922   0.34427
 Alpha virt. eigenvalues --    0.34871   0.35685   0.36224   0.36541   0.37023
 Alpha virt. eigenvalues --    0.37177   0.37759   0.38290   0.38741   0.39083
 Alpha virt. eigenvalues --    0.39773   0.39969   0.40234   0.41822   0.42709
 Alpha virt. eigenvalues --    0.43415   0.44074   0.44445   0.45135   0.45390
 Alpha virt. eigenvalues --    0.46093   0.47350   0.47990   0.48739   0.50145
 Alpha virt. eigenvalues --    0.51088   0.51765   0.53066   0.55218   0.64000
 Alpha virt. eigenvalues --    0.67240   0.68801   0.71197   0.72045   0.72268
 Alpha virt. eigenvalues --    0.73053   0.73729   0.74257   0.74691   0.75686
 Alpha virt. eigenvalues --    0.76083   0.77196   0.77492   0.78070   0.78493
 Alpha virt. eigenvalues --    0.79390   0.80302   0.81750   0.82339   0.82781
 Alpha virt. eigenvalues --    0.84717   0.85551   0.86062   0.87086   0.88325
 Alpha virt. eigenvalues --    0.89559   0.91169   0.92837   0.93297   0.95931
 Alpha virt. eigenvalues --    0.97096   0.99040   0.99533   1.00952   1.01513
 Alpha virt. eigenvalues --    1.02128   1.03251   1.04172   1.04618   1.05172
 Alpha virt. eigenvalues --    1.05593   1.06510   1.07701   1.08732   1.10659
 Alpha virt. eigenvalues --    1.11331   1.13724   1.14293   1.14982   1.16831
 Alpha virt. eigenvalues --    1.17484   1.18055   1.18943   1.19805   1.21321
 Alpha virt. eigenvalues --    1.21659   1.22055   1.23411   1.24147   1.25474
 Alpha virt. eigenvalues --    1.27217   1.27966   1.29814   1.31210   1.31427
 Alpha virt. eigenvalues --    1.32423   1.33486   1.34189   1.35419   1.36633
 Alpha virt. eigenvalues --    1.38484   1.39968   1.40941   1.41860   1.43131
 Alpha virt. eigenvalues --    1.44489   1.45659   1.46717   1.49848   1.50890
 Alpha virt. eigenvalues --    1.52890   1.53910   1.55990   1.57690   1.57925
 Alpha virt. eigenvalues --    1.59685   1.59848   1.61378   1.65306   1.66276
 Alpha virt. eigenvalues --    1.68572   1.68735   1.73024   1.78147   1.80159
 Alpha virt. eigenvalues --    1.81612   1.82028   1.83981   1.85745   1.87606
 Alpha virt. eigenvalues --    1.88427   1.89270   1.89468   1.90636   1.92352
 Alpha virt. eigenvalues --    1.95083   1.95705   1.98100   1.99830   2.00252
 Alpha virt. eigenvalues --    2.01897   2.04304   2.04820   2.07003   2.07832
 Alpha virt. eigenvalues --    2.10382   2.10878   2.11222   2.13181   2.14534
 Alpha virt. eigenvalues --    2.16306   2.16452   2.17952   2.18329   2.22337
 Alpha virt. eigenvalues --    2.22427   2.24925   2.25506   2.25790   2.27895
 Alpha virt. eigenvalues --    2.30779   2.32213   2.34200   2.35086   2.35986
 Alpha virt. eigenvalues --    2.36544   2.39623   2.40848   2.41499   2.43416
 Alpha virt. eigenvalues --    2.46259   2.46779   2.47840   2.49940   2.52570
 Alpha virt. eigenvalues --    2.54265   2.55485   2.59550   2.61267   2.62650
 Alpha virt. eigenvalues --    2.65503   2.67972   2.68977   2.71071   2.72917
 Alpha virt. eigenvalues --    2.74426   2.77837   2.82590   2.85622   2.86635
 Alpha virt. eigenvalues --    2.89943   2.91992   2.94093   2.97854   3.01263
 Alpha virt. eigenvalues --    3.05555   3.14024   3.15953   3.20681   3.22982
 Alpha virt. eigenvalues --    3.39438   3.52659   4.16246   4.25900   4.30958
 Alpha virt. eigenvalues --    4.33824   4.36413   4.39968   4.41682   4.42843
 Alpha virt. eigenvalues --    4.43266   4.46010   4.50015   4.50729   4.61348
 Alpha virt. eigenvalues --    4.68249   4.73308   4.77098   5.21179
          Condensed to atoms (all electrons):
               1          2          3          4          5          6
     1  C   17.124289  -0.055265  -2.329542  -0.433278  -6.995263  -1.649679
     2  C   -0.055265  14.976953  -6.939168  -1.265787   3.790132  -6.169322
     3  C   -2.329542  -6.939168  26.293402   2.587008 -11.156961   3.532011
     4  C   -0.433278  -1.265787   2.587008  12.833059  -5.112663  -0.095234
     5  C   -6.995263   3.790132 -11.156961  -5.112663  25.527688  -4.422167
     6  C   -1.649679  -6.169322   3.532011  -0.095234  -4.422167  16.374665
     7  O   -0.018283   0.054669  -0.024018   0.068107  -0.552757   0.521321
     8  O   -0.115182   0.208062  -0.098207   0.048692  -0.016292   0.009082
     9  H    0.028539   0.085466   0.188353  -0.015349   0.029245  -0.038345
    10  H    0.014556  -0.009994  -0.007609  -0.042420   0.314855  -0.016490
    11  O    0.238197   0.140219  -0.030088  -0.022118   0.156294  -0.515652
    12  C    0.077047  -0.464736  -0.158332  -0.000770   0.091216   0.267761
    13  H    0.042749  -0.039763   0.001440  -0.001481  -0.009975  -0.004293
    14  H   -0.071648   0.028431   0.019083   0.003195   0.004256   0.020030
    15  H    0.024020  -0.039925  -0.010756  -0.001331   0.004551   0.021811
    16  C   -0.471957   1.215005  -3.094177  -1.516946   3.689966  -1.354928
    17  C   -0.078278   0.177983  -0.942643  -0.866013   0.246350  -0.103701
    18  N    0.024650  -0.024134  -0.127568  -0.047850   0.141585   0.156277
    19  C   -0.009278  -0.056941  -0.024251   0.064167  -0.116824   0.045727
    20  C   -0.006775   0.095289  -0.060462  -0.058925   0.086049  -0.054919
    21  H    0.002964   0.008286   0.004968  -0.030355  -0.001548   0.000918
    22  H   -0.001849  -0.016180  -0.041402   0.009521   0.017395   0.006501
    23  H    0.000014  -0.000794  -0.004300  -0.012484   0.005982   0.000788
    24  H   -0.000004  -0.000410  -0.000766   0.001694   0.000383   0.000984
    25  H   -0.000001  -0.001032  -0.008604  -0.000605   0.008304   0.000885
    26  H    0.000060   0.001324   0.003775  -0.000864  -0.001021  -0.000506
    27  H    0.005775  -0.002346  -0.044684  -0.104960   0.100535   0.043866
    28  C   -0.070217  -0.127516  -0.029572  -0.059711   0.038952   0.024540
    29  H   -0.044807   0.020507  -0.017770  -0.027244   0.105739  -0.032443
    30  H    0.010911   0.001559   0.001056  -0.002981  -0.015104   0.007324
    31  H    0.042935  -0.031361   0.019575   0.013760  -0.071987   0.012879
    32  C    0.019032  -0.318242   0.142682  -0.051477  -0.024574   0.035754
    33  H   -0.045210   0.066788  -0.026490   0.019157   0.010072  -0.020577
    34  H    0.000405  -0.028797   0.034425  -0.005775  -0.001554   0.006245
    35  H    0.019767  -0.007555   0.022872  -0.035207  -0.007300   0.008303
               7          8          9         10         11         12
     1  C   -0.018283  -0.115182   0.028539   0.014556   0.238197   0.077047
     2  C    0.054669   0.208062   0.085466  -0.009994   0.140219  -0.464736
     3  C   -0.024018  -0.098207   0.188353  -0.007609  -0.030088  -0.158332
     4  C    0.068107   0.048692  -0.015349  -0.042420  -0.022118  -0.000770
     5  C   -0.552757  -0.016292   0.029245   0.314855   0.156294   0.091216
     6  C    0.521321   0.009082  -0.038345  -0.016490  -0.515652   0.267761
     7  O    8.488619  -0.000799   0.000067  -0.002237   0.000465   0.001379
     8  O   -0.000799   8.545128   0.000812   0.000066  -0.017961  -0.011636
     9  H    0.000067   0.000812   0.447407  -0.000085  -0.000468   0.000982
    10  H   -0.002237   0.000066  -0.000085   0.452951  -0.000382   0.000196
    11  O    0.000465  -0.017961  -0.000468  -0.000382   8.598540   0.016716
    12  C    0.001379  -0.011636   0.000982   0.000196   0.016716   5.364478
    13  H    0.000445  -0.002973   0.000002   0.000000  -0.043839   0.396491
    14  H   -0.000291  -0.009473   0.000001  -0.000000  -0.032676   0.391113
    15  H    0.000060   0.002263  -0.000000  -0.000000  -0.054893   0.397622
    16  C   -0.020930   0.000341   0.015909   0.025757   0.010963   0.002998
    17  C   -0.000923   0.003148   0.000527   0.013441   0.000520  -0.000183
    18  N   -0.000129   0.000253   0.000409   0.001348   0.000097  -0.000046
    19  C    0.000397  -0.000248   0.000105   0.003915  -0.000021  -0.000066
    20  C   -0.000407   0.000246  -0.000174  -0.000362   0.000193   0.000344
    21  H    0.000001  -0.000004   0.000565   0.000001  -0.000000  -0.000005
    22  H   -0.000000  -0.000000  -0.000746  -0.000003   0.000001  -0.000009
    23  H   -0.000000  -0.000000  -0.000000  -0.000006   0.000000   0.000000
    24  H    0.000000   0.000000   0.000000   0.000003  -0.000000  -0.000000
    25  H    0.000000   0.000000  -0.000009  -0.000000   0.000000  -0.000000
    26  H    0.000000  -0.000000   0.000000   0.000000   0.000000   0.000000
    27  H    0.000075   0.000002   0.000001   0.003569  -0.000002   0.000002
    28  C    0.056484   0.000454  -0.000114   0.001494   0.002889   0.000012
    29  H   -0.048897  -0.000011   0.000000   0.000018   0.000421  -0.000049
    30  H   -0.046971  -0.000003   0.000000  -0.000014  -0.000118  -0.000876
    31  H   -0.044471   0.000043   0.000000  -0.000007  -0.003387   0.001984
    32  C    0.000197   0.077018   0.000422  -0.000023   0.011502  -0.019225
    33  H    0.000018  -0.057703   0.000026  -0.000000   0.002377   0.000758
    34  H   -0.000003  -0.049870  -0.000038   0.000000  -0.000225  -0.001749
    35  H   -0.000005  -0.040843   0.000337  -0.000000  -0.000600  -0.000042
              13         14         15         16         17         18
     1  C    0.042749  -0.071648   0.024020  -0.471957  -0.078278   0.024650
     2  C   -0.039763   0.028431  -0.039925   1.215005   0.177983  -0.024134
     3  C    0.001440   0.019083  -0.010756  -3.094177  -0.942643  -0.127568
     4  C   -0.001481   0.003195  -0.001331  -1.516946  -0.866013  -0.047850
     5  C   -0.009975   0.004256   0.004551   3.689966   0.246350   0.141585
     6  C   -0.004293   0.020030   0.021811  -1.354928  -0.103701   0.156277
     7  O    0.000445  -0.000291   0.000060  -0.020930  -0.000923  -0.000129
     8  O   -0.002973  -0.009473   0.002263   0.000341   0.003148   0.000253
     9  H    0.000002   0.000001  -0.000000   0.015909   0.000527   0.000409
    10  H    0.000000  -0.000000  -0.000000   0.025757   0.013441   0.001348
    11  O   -0.043839  -0.032676  -0.054893   0.010963   0.000520   0.000097
    12  C    0.396491   0.391113   0.397622   0.002998  -0.000183  -0.000046
    13  H    0.470911  -0.031440  -0.025681  -0.000174  -0.000043   0.000000
    14  H   -0.031440   0.471457  -0.029215   0.000485   0.000039  -0.000000
    15  H   -0.025681  -0.029215   0.474675  -0.000171  -0.000012   0.000000
    16  C   -0.000174   0.000485  -0.000171   7.548438  -0.892773   0.384298
    17  C   -0.000043   0.000039  -0.000012  -0.892773   8.727781  -0.367121
    18  N    0.000000  -0.000000   0.000000   0.384298  -0.367121   6.987840
    19  C    0.000001   0.000001  -0.000000  -0.563049   0.421849   0.081152
    20  C   -0.000004   0.000000  -0.000000   0.270097  -0.703568  -0.054724
    21  H    0.000000   0.000000  -0.000000  -0.072950   0.421178   0.008399
    22  H    0.000000  -0.000000   0.000000  -0.031672   0.379419   0.006733
    23  H   -0.000000   0.000000  -0.000000  -0.033261   0.028058  -0.030402
    24  H    0.000000  -0.000000   0.000000  -0.017026   0.037482  -0.034772
    25  H    0.000000  -0.000000   0.000000   0.028485  -0.109642   0.013179
    26  H    0.000000   0.000000  -0.000000   0.027799  -0.083756   0.006473
    27  H    0.000000  -0.000000  -0.000000  -0.007911  -0.009382   0.260429
    28  C    0.001176  -0.001315   0.000627   0.000208  -0.001938   0.000978
    29  H   -0.000000   0.000000  -0.000000   0.005262  -0.000042   0.000065
    30  H    0.000000   0.000000  -0.000001  -0.000151  -0.000001  -0.000000
    31  H   -0.000009   0.000015  -0.000021  -0.002092   0.000023  -0.000007
    32  C    0.004100  -0.007971   0.000236  -0.027204  -0.007295   0.000176
    33  H    0.000013   0.000442  -0.000012   0.003785   0.000224   0.000000
    34  H   -0.000002   0.000060  -0.000004  -0.000097   0.000062  -0.000000
    35  H   -0.000012  -0.000011   0.000001  -0.006344  -0.000351   0.000007
              19         20         21         22         23         24
     1  C   -0.009278  -0.006775   0.002964  -0.001849   0.000014  -0.000004
     2  C   -0.056941   0.095289   0.008286  -0.016180  -0.000794  -0.000410
     3  C   -0.024251  -0.060462   0.004968  -0.041402  -0.004300  -0.000766
     4  C    0.064167  -0.058925  -0.030355   0.009521  -0.012484   0.001694
     5  C   -0.116824   0.086049  -0.001548   0.017395   0.005982   0.000383
     6  C    0.045727  -0.054919   0.000918   0.006501   0.000788   0.000984
     7  O    0.000397  -0.000407   0.000001  -0.000000  -0.000000   0.000000
     8  O   -0.000248   0.000246  -0.000004  -0.000000  -0.000000   0.000000
     9  H    0.000105  -0.000174   0.000565  -0.000746  -0.000000   0.000000
    10  H    0.003915  -0.000362   0.000001  -0.000003  -0.000006   0.000003
    11  O   -0.000021   0.000193  -0.000000   0.000001   0.000000  -0.000000
    12  C   -0.000066   0.000344  -0.000005  -0.000009   0.000000  -0.000000
    13  H    0.000001  -0.000004   0.000000   0.000000  -0.000000   0.000000
    14  H    0.000001   0.000000   0.000000  -0.000000   0.000000  -0.000000
    15  H   -0.000000  -0.000000  -0.000000   0.000000  -0.000000   0.000000
    16  C   -0.563049   0.270097  -0.072950  -0.031672  -0.033261  -0.017026
    17  C    0.421849  -0.703568   0.421178   0.379419   0.028058   0.037482
    18  N    0.081152  -0.054724   0.008399   0.006733  -0.030402  -0.034772
    19  C    6.166035  -0.387313   0.020391   0.011366   0.432376   0.440225
    20  C   -0.387313   6.723218  -0.040814  -0.026687  -0.065860  -0.096719
    21  H    0.020391  -0.040814   0.428179  -0.023379  -0.000162  -0.000030
    22  H    0.011366  -0.026687  -0.023379   0.417149   0.000765  -0.000147
    23  H    0.432376  -0.065860  -0.000162   0.000765   0.445570  -0.030655
    24  H    0.440225  -0.096719  -0.000030  -0.000147  -0.030655   0.444130
    25  H   -0.089979   0.484779  -0.005158   0.002644   0.002680  -0.005303
    26  H   -0.076514   0.455452   0.001103  -0.004284  -0.003553   0.001479
    27  H   -0.021194   0.012160  -0.000074  -0.000180   0.000035  -0.000736
    28  C   -0.000188   0.000124  -0.000004   0.000014  -0.000002   0.000000
    29  H   -0.000037   0.000016  -0.000000  -0.000000   0.000000  -0.000000
    30  H    0.000002  -0.000000  -0.000000  -0.000000   0.000000  -0.000000
    31  H    0.000005  -0.000001   0.000000  -0.000000  -0.000000   0.000000
    32  C   -0.000820  -0.001215   0.000124  -0.000008  -0.000003   0.000001
    33  H    0.000005   0.000028   0.000000  -0.000000   0.000000  -0.000000
    34  H    0.000001   0.000003  -0.000000   0.000000   0.000000  -0.000000
    35  H   -0.000015  -0.000084  -0.000003   0.000000   0.000000  -0.000000
              25         26         27         28         29         30
     1  C   -0.000001   0.000060   0.005775  -0.070217  -0.044807   0.010911
     2  C   -0.001032   0.001324  -0.002346  -0.127516   0.020507   0.001559
     3  C   -0.008604   0.003775  -0.044684  -0.029572  -0.017770   0.001056
     4  C   -0.000605  -0.000864  -0.104960  -0.059711  -0.027244  -0.002981
     5  C    0.008304  -0.001021   0.100535   0.038952   0.105739  -0.015104
     6  C    0.000885  -0.000506   0.043866   0.024540  -0.032443   0.007324
     7  O    0.000000   0.000000   0.000075   0.056484  -0.048897  -0.046971
     8  O    0.000000  -0.000000   0.000002   0.000454  -0.000011  -0.000003
     9  H   -0.000009   0.000000   0.000001  -0.000114   0.000000   0.000000
    10  H   -0.000000   0.000000   0.003569   0.001494   0.000018  -0.000014
    11  O    0.000000   0.000000  -0.000002   0.002889   0.000421  -0.000118
    12  C   -0.000000   0.000000   0.000002   0.000012  -0.000049  -0.000876
    13  H    0.000000   0.000000   0.000000   0.001176  -0.000000   0.000000
    14  H   -0.000000   0.000000  -0.000000  -0.001315   0.000000   0.000000
    15  H    0.000000  -0.000000  -0.000000   0.000627  -0.000000  -0.000001
    16  C    0.028485   0.027799  -0.007911   0.000208   0.005262  -0.000151
    17  C   -0.109642  -0.083756  -0.009382  -0.001938  -0.000042  -0.000001
    18  N    0.013179   0.006473   0.260429   0.000978   0.000065  -0.000000
    19  C   -0.089979  -0.076514  -0.021194  -0.000188  -0.000037   0.000002
    20  C    0.484779   0.455452   0.012160   0.000124   0.000016  -0.000000
    21  H   -0.005158   0.001103  -0.000074  -0.000004  -0.000000  -0.000000
    22  H    0.002644  -0.004284  -0.000180   0.000014  -0.000000  -0.000000
    23  H    0.002680  -0.003553   0.000035  -0.000002   0.000000   0.000000
    24  H   -0.005303   0.001479  -0.000736   0.000000  -0.000000  -0.000000
    25  H    0.450288  -0.025126  -0.000140   0.000002  -0.000000  -0.000000
    26  H   -0.025126   0.446151  -0.000065  -0.000000  -0.000000   0.000000
    27  H   -0.000140  -0.000065   0.262526   0.000078  -0.000001   0.000000
    28  C    0.000002  -0.000000   0.000078   5.382667   0.380354   0.396091
    29  H   -0.000000  -0.000000  -0.000001   0.380354   0.492802  -0.025733
    30  H   -0.000000   0.000000   0.000000   0.396091  -0.025733   0.468734
    31  H   -0.000000   0.000000   0.000000   0.399935  -0.036178  -0.025431
    32  C   -0.000003   0.000003   0.000007  -0.000985  -0.000007  -0.000006
    33  H   -0.000000  -0.000000   0.000000  -0.000044   0.000000   0.000000
    34  H    0.000000  -0.000000  -0.000000   0.000025  -0.000000  -0.000000
    35  H    0.000000   0.000000  -0.000000  -0.000065   0.000000   0.000000
              31         32         33         34         35
     1  C    0.042935   0.019032  -0.045210   0.000405   0.019767
     2  C   -0.031361  -0.318242   0.066788  -0.028797  -0.007555
     3  C    0.019575   0.142682  -0.026490   0.034425   0.022872
     4  C    0.013760  -0.051477   0.019157  -0.005775  -0.035207
     5  C   -0.071987  -0.024574   0.010072  -0.001554  -0.007300
     6  C    0.012879   0.035754  -0.020577   0.006245   0.008303
     7  O   -0.044471   0.000197   0.000018  -0.000003  -0.000005
     8  O    0.000043   0.077018  -0.057703  -0.049870  -0.040843
     9  H    0.000000   0.000422   0.000026  -0.000038   0.000337
    10  H   -0.000007  -0.000023  -0.000000   0.000000  -0.000000
    11  O   -0.003387   0.011502   0.002377  -0.000225  -0.000600
    12  C    0.001984  -0.019225   0.000758  -0.001749  -0.000042
    13  H   -0.000009   0.004100   0.000013  -0.000002  -0.000012
    14  H    0.000015  -0.007971   0.000442   0.000060  -0.000011
    15  H   -0.000021   0.000236  -0.000012  -0.000004   0.000001
    16  C   -0.002092  -0.027204   0.003785  -0.000097  -0.006344
    17  C    0.000023  -0.007295   0.000224   0.000062  -0.000351
    18  N   -0.000007   0.000176   0.000000  -0.000000   0.000007
    19  C    0.000005  -0.000820   0.000005   0.000001  -0.000015
    20  C   -0.000001  -0.001215   0.000028   0.000003  -0.000084
    21  H    0.000000   0.000124   0.000000  -0.000000  -0.000003
    22  H   -0.000000  -0.000008  -0.000000   0.000000   0.000000
    23  H   -0.000000  -0.000003   0.000000   0.000000   0.000000
    24  H    0.000000   0.000001  -0.000000  -0.000000  -0.000000
    25  H   -0.000000  -0.000003  -0.000000   0.000000   0.000000
    26  H    0.000000   0.000003  -0.000000  -0.000000   0.000000
    27  H    0.000000   0.000007   0.000000  -0.000000  -0.000000
    28  C    0.399935  -0.000985  -0.000044   0.000025  -0.000065
    29  H   -0.036178  -0.000007   0.000000  -0.000000   0.000000
    30  H   -0.025431  -0.000006   0.000000  -0.000000   0.000000
    31  H    0.486899  -0.000151   0.000001   0.000000   0.000000
    32  C   -0.000151   5.367220   0.384744   0.396922   0.389148
    33  H    0.000001   0.384744   0.487076  -0.025177  -0.035744
    34  H    0.000000   0.396922  -0.025177   0.467214  -0.026003
    35  H    0.000000   0.389148  -0.035744  -0.026003   0.491388
 Mulliken charges:
               1
     1  C    0.720605
     2  C    0.728593
     3  C   -1.673278
     4  C    0.163467
     5  C    0.136439
     6  C   -0.619417
     7  O   -0.431183
     8  O   -0.474405
     9  H    0.256153
    10  H    0.247463
    11  O   -0.456962
    12  C   -0.353375
    13  H    0.242360
    14  H    0.245432
    15  H    0.236157
    16  C    0.884016
    17  C   -0.290417
    18  N   -0.387591
    19  C   -0.340981
    20  C   -0.568987
    21  H    0.277410
    22  H    0.295039
    23  H    0.265212
    24  H    0.260187
    25  H    0.254356
    26  H    0.252068
    27  H    0.502616
    28  C   -0.395432
    29  H    0.228034
    30  H    0.231713
    31  H    0.237051
    32  C   -0.370078
    33  H    0.235441
    34  H    0.233934
    35  H    0.228361
 Sum of Mulliken charges =   1.00000
 Mulliken charges with hydrogens summed into heavy atoms:
               1
     1  C    0.720605
     2  C    0.728593
     3  C   -1.417125
     4  C    0.163467
     5  C    0.383902
     6  C   -0.619417
     7  O   -0.431183
     8  O   -0.474405
    11  O   -0.456962
    12  C    0.370574
    16  C    0.884016
    17  C    0.282032
    18  N    0.115024
    19  C    0.184419
    20  C   -0.062563
    28  C    0.301367
    32  C    0.327658
 Electronic spatial extent (au):  <R**2>=           5114.3229
 Charge=              1.0000 electrons
 Dipole moment (field-independent basis, Debye):
    X=            -10.4116    Y=             -0.5685    Z=              2.6339  Tot=             10.7546
 Quadrupole moment (field-independent basis, Debye-Ang):
   XX=            -32.4134   YY=            -81.5714   ZZ=            -97.3402
   XY=            -10.5423   XZ=              4.9768   YZ=              1.4360
 Traceless Quadrupole moment (field-independent basis, Debye-Ang):
   XX=             38.0283   YY=            -11.1297   ZZ=            -26.8985
   XY=            -10.5423   XZ=              4.9768   YZ=              1.4360
 Octapole moment (field-independent basis, Debye-Ang**2):
  XXX=           -139.5511  YYY=              4.1942  ZZZ=              1.0061  XYY=            -10.7160
  XXY=              8.0650  XXZ=             -2.4655  XZZ=              5.3403  YZZ=             -3.7380
  YYZ=             34.0687  XYZ=              2.1209
 Hexadecapole moment (field-independent basis, Debye-Ang**3):
 XXXX=          -3417.9903 YYYY=          -1545.5296 ZZZZ=           -281.8128 XXXY=           -156.6697
 XXXZ=            -22.1489 YYYX=            -38.5474 YYYZ=             -0.9410 ZZZX=             -0.1511
 ZZZY=              3.0725 XXYY=           -883.6593 XXZZ=           -775.1453 YYZZ=           -316.2917
 XXYZ=             28.7185 YYXZ=             63.8109 ZZXY=             -7.1958
 N-N= 1.233759778982D+03 E-N=-4.278769683487D+03  KE= 7.786586969042D+02
 Leave Link  601 at Tue Jul 14 00:38:31 2026, MaxMem=  4026531840 cpu:               0.7 elap:               0.4
 (Enter /opt/packages/gaussian/g16RevC.01/g16/l9999.exe)
 Electronic transition elements 
                 1             2             3             4             5 
      1  -0.785945D+03 -0.785939D+03 -0.785892D+03 -0.785892D+03 -0.785879D+03
      2  -0.254982D+01 -0.457200D-01 -0.354788D+00  0.168698D+00  0.196272D+00
      3   0.140810D-01  0.472577D+00 -0.168612D+00 -0.121907D+01 -0.281985D+00
      4  -0.133191D+00  0.639681D-02 -0.418772D-01  0.881727D-02  0.902864D-02
      5   0.381317D+00  0.570980D-02  0.722136D-01 -0.312018D-01 -0.429510D-01
      6  -0.170223D-02 -0.755678D-01  0.378975D-01  0.248459D+00  0.598943D-01
      7   0.191906D-01 -0.383996D-02  0.586738D-02 -0.363562D-02 -0.110695D-01
      8  -0.515267D-01 -0.122502D-01  0.322975D+00  0.115462D+00  0.934088D-01
      9  -0.523739D-01  0.420197D-01 -0.825360D-02  0.109255D+00  0.121505D+00
     10  -0.112034D-01 -0.294902D+00  0.231001D+00  0.945281D-01  0.109630D+00
     11  -0.738719D+00  0.602787D-01 -0.739853D+00 -0.116445D+00  0.137058D+00
     12   0.442125D-01 -0.330573D-01  0.164853D+00  0.200084D+00  0.114422D-01
     13  -0.148284D-01 -0.102018D-01  0.150185D-01 -0.129151D-01 -0.385598D-02
     14   0.128037D+00  0.729490D-02  0.200875D+00  0.648589D+00  0.355661D-01
     15  -0.233749D+00  0.318895D-02 -0.645136D-01  0.123466D-01  0.590333D-01
     16   0.135617D-01 -0.156206D-02  0.497643D-01  0.158007D+00  0.197814D-01
                 6             7             8             9            10 
      1  -0.785873D+03 -0.785867D+03 -0.785866D+03 -0.785851D+03 -0.785849D+03
      2  -0.162609D+01  0.241817D-01  0.681667D+00  0.318125D+00 -0.208838D+00
      3   0.246615D+00  0.994535D-01  0.702755D+00  0.104788D+00  0.825019D-01
      4  -0.290493D+00  0.159225D+00  0.107299D+00  0.702809D-01  0.106639D+00
      5   0.361042D+00 -0.571098D-02 -0.153347D+00 -0.724100D-01  0.538572D-01
      6  -0.532999D-01 -0.225908D-01 -0.159315D+00 -0.255488D-01 -0.188720D-01
      7   0.666819D-01 -0.294239D-01 -0.279223D-01 -0.902600D-02 -0.280188D-01
      8   0.454561D-01  0.880570D-01 -0.217559D+00 -0.130247D+00  0.683594D-01
      9  -0.327790D+00  0.208317D+00  0.503781D-01 -0.686710D+00 -0.399705D-01
     10   0.181553D-01  0.116519D+00  0.341274D+00  0.221085D-02 -0.996384D-01
     11  -0.141843D+01 -0.388104D+00 -0.149852D+01 -0.293186D-02  0.147113D+01
     12   0.847733D+00 -0.925229D-01 -0.189241D+00 -0.145614D+00 -0.243618D+00
     13   0.103317D+00  0.328221D-02  0.847689D-02  0.116867D-01 -0.320695D-01
     14   0.507571D+00  0.283501D+00  0.492896D+00 -0.210318D+00  0.208062D+00
     15   0.171457D-01 -0.200260D+00  0.129847D-01  0.109674D+00 -0.173859D+00
     16   0.543437D-01  0.709541D-01  0.844127D-01 -0.140472D+00  0.181658D+00
 Unable to Open any file for archive entry.
 1\1\GINC-R189\SP\RCAM-B3LYP TD-FC\6-31+G(d)\C13H18N1O3(1+)\ZLAB\14-Jul
 -2026\0\\#p TD(NStates=10,Root=1) CAM-B3LYP/6-31+G(d) SCRF=(SMD,Solven
 t=Methanol)\\Vertical excitation energies (absorption spectrum)\\1,1\C
 ,0,2.38537,0.32894,0.26663\C,0,1.76235,-0.94073,0.25145\C,0,0.37993,-1
 .04031,0.13784\C,0,-0.4377,0.10401,0.08185\C,0,0.17989,1.37473,0.14359
 \C,0,1.55525,1.487,0.23527\O,0,2.12214,2.73731,0.19396\O,0,2.52462,-2.
 0877,0.30134\H,0,-0.04799,-2.03622,0.10031\H,0,-0.38588,2.30018,0.0885
 1\O,0,3.70544,0.56952,0.32343\C,0,4.70254,-0.37788,-0.12811\H,0,4.4113
 1,-0.8287,-1.07932\H,0,4.88241,-1.14775,0.62499\H,0,5.60483,0.2222,-0.
 26482\C,0,-1.87028,-0.05791,-0.0342\C,0,-2.59782,-1.36581,-0.23752\N,0
 ,-2.74178,0.9182,0.00283\C,0,-4.15254,0.51463,-0.1744\C,0,-4.08441,-1.
 01171,0.00307\H,0,-2.23743,-2.14739,0.43651\H,0,-2.40739,-1.7136,-1.26
 317\H,0,-4.48303,0.82768,-1.17195\H,0,-4.77002,1.02725,0.56844\H,0,-4.
 37251,-1.28429,1.02353\H,0,-4.75217,-1.53473,-0.68541\H,0,-2.51026,1.8
 992,0.12124\C,0,2.71628,3.21005,1.4239\H,0,1.95519,3.27008,2.21115\H,0
 ,3.09653,4.20984,1.20359\H,0,3.53815,2.56208,1.73997\C,0,2.56355,-2.73
 927,1.58814\H,0,2.93559,-2.05644,2.36156\H,0,3.24854,-3.58208,1.47436\
 H,0,1.57208,-3.10961,1.87388\\Version=ES64L-G16RevC.01\State=1-A\HF=-7
 86.0996846\RMSD=8.105e-09\PG=C01 [X(C13H18N1O3)]\\@
 The archive entry for this job was punched.


 ALL OUR THINKING ABOUT NATURE MUST NECESSARILY MOVE IN CIRCLES OR SPIRALS;
 FOR WE CAN ONLY UNDERSTAND NATURE IF WE THINK ABOUT HER, AND WE CAN ONLY
 THINK BECAUSE OUR BRAIN IS BUILT IN ACCORDANCE WITH NATURE'S LAWS.

                                             -- TIMOTHY FERRIS, "GALAXIES"
 Job cpu time:       0 days  1 hours  8 minutes 49.0 seconds.
 Elapsed time:       0 days  0 hours  9 minutes  0.9 seconds.
 File lengths (MBytes):  RWF=   1148 Int=      0 D2E=      0 Chk=     52 Scr=      1
 Normal termination of Gaussian 16 at Tue Jul 14 00:38:32 2026.
