 Entering Gaussian System, Link 0=g16
 Initial command:
 /opt/packages/gaussian/g16RevC.01/g16/l1.exe "/ocean/projects/che200051p/zlab/tmp/Gau-75261.inp" -scrdir="/ocean/projects/che200051p/zlab/tmp/"
 Entering Link 1 = /opt/packages/gaussian/g16RevC.01/g16/l1.exe PID=     75262.
  
 Copyright (c) 1988-2019, Gaussian, Inc.  All Rights Reserved.
  
 This is part of the Gaussian(R) 16 program.  It is based on
 the Gaussian(R) 09 system (copyright 2009, Gaussian, Inc.),
 the Gaussian(R) 03 system (copyright 2003, Gaussian, Inc.),
 the Gaussian(R) 98 system (copyright 1998, Gaussian, Inc.),
 the Gaussian(R) 94 system (copyright 1995, Gaussian, Inc.),
 the Gaussian 92(TM) system (copyright 1992, Gaussian, Inc.),
 the Gaussian 90(TM) system (copyright 1990, Gaussian, Inc.),
 the Gaussian 88(TM) system (copyright 1988, Gaussian, Inc.),
 the Gaussian 86(TM) system (copyright 1986, Carnegie Mellon
 University), and the Gaussian 82(TM) system (copyright 1983,
 Carnegie Mellon University). Gaussian is a federally registered
 trademark of Gaussian, Inc.
  
 This software contains proprietary and confidential information,
 including trade secrets, belonging to Gaussian, Inc.
  
 This software is provided under written license and may be
 used, copied, transmitted, or stored only in accord with that
 written license.
  
 The following legend is applicable only to US Government
 contracts under FAR:
  
                    RESTRICTED RIGHTS LEGEND
  
 Use, reproduction and disclosure by the US Government is
 subject to restrictions as set forth in subparagraphs (a)
 and (c) of the Commercial Computer Software - Restricted
 Rights clause in FAR 52.227-19.
  
 Gaussian, Inc.
 340 Quinnipiac St., Bldg. 40, Wallingford CT 06492
  
  
 ---------------------------------------------------------------
 Warning -- This program may not be used in any manner that
 competes with the business of Gaussian, Inc. or will provide
 assistance to any competitor of Gaussian, Inc.  The licensee
 of this program is prohibited from giving any competitor of
 Gaussian, Inc. access to this program.  By using this program,
 the user acknowledges that Gaussian, Inc. is engaged in the
 business of creating and licensing software in the field of
 computational chemistry and represents and warrants to the
 licensee that it is not a competitor of Gaussian, Inc. and that
 it will not use this program in any manner prohibited above.
 ---------------------------------------------------------------
  

 Cite this work as:
 Gaussian 16, Revision C.01,
 M. J. Frisch, G. W. Trucks, H. B. Schlegel, G. E. Scuseria, 
 M. A. Robb, J. R. Cheeseman, G. Scalmani, V. Barone, 
 G. A. Petersson, H. Nakatsuji, X. Li, M. Caricato, A. V. Marenich, 
 J. Bloino, B. G. Janesko, R. Gomperts, B. Mennucci, H. P. Hratchian, 
 J. V. Ortiz, A. F. Izmaylov, J. L. Sonnenberg, D. Williams-Young, 
 F. Ding, F. Lipparini, F. Egidi, J. Goings, B. Peng, A. Petrone, 
 T. Henderson, D. Ranasinghe, V. G. Zakrzewski, J. Gao, N. Rega, 
 G. Zheng, W. Liang, M. Hada, M. Ehara, K. Toyota, R. Fukuda, 
 J. Hasegawa, M. Ishida, T. Nakajima, Y. Honda, O. Kitao, H. Nakai, 
 T. Vreven, K. Throssell, J. A. Montgomery, Jr., J. E. Peralta, 
 F. Ogliaro, M. J. Bearpark, J. J. Heyd, E. N. Brothers, K. N. Kudin, 
 V. N. Staroverov, T. A. Keith, R. Kobayashi, J. Normand, 
 K. Raghavachari, A. P. Rendell, J. C. Burant, S. S. Iyengar, 
 J. Tomasi, M. Cossi, J. M. Millam, M. Klene, C. Adamo, R. Cammi, 
 J. W. Ochterski, R. L. Martin, K. Morokuma, O. Farkas, 
 J. B. Foresman, and D. J. Fox, Gaussian, Inc., Wallingford CT, 2019.
 
 ******************************************
 Gaussian 16:  ES64L-G16RevC.01  3-Jul-2019
                28-Jul-2026 
 ******************************************
 %chk=iminium_singlet_abs.chk
 %mem=30GB
 %nprocshared=8
 Will use up to    8 processors via shared memory.
 -------------------------------------------------------------
 #p TD(NStates=10) B3LYP/6-31+G(d) SCRF=(SMD,Solvent=Methanol)
 -------------------------------------------------------------
 1/38=1,172=1/1;
 2/12=2,17=6,18=5,40=1/2;
 3/5=1,6=6,7=11,11=9,25=1,30=1,70=32201,72=3,74=-5/1,2,3,8;
 4//1;
 5/5=2,38=5,53=3/2;
 8/6=1,10=2,108=10/1;
 9/41=10,42=1,70=2/14;
 6/7=2,8=2,9=2,10=2/1;
 99/5=1,9=1/99;
 Leave Link    1 at Tue Jul 28 09:38:33 2026, MaxMem=  4026531840 cpu:               1.1 elap:               0.2
 (Enter /opt/packages/gaussian/g16RevC.01/g16/l101.exe)
 --------------------------------------------------
 Vertical excitation energies (absorption spectrum)
 --------------------------------------------------
 Symbolic Z-matrix:
 Charge =  1 Multiplicity = 1
 C                     1.83207   0.12958  -0.21024 
 C                     1.1349   -1.09922  -0.16734 
 C                    -0.25549  -1.11481  -0.13236 
 C                    -1.00365   0.07671  -0.1148 
 C                    -0.3087    1.30716  -0.12452 
 C                     1.07267   1.33152  -0.16625 
 O                     1.72785   2.54071  -0.24618 
 O                     1.81598  -2.29859  -0.19161 
 H                    -0.74337  -2.08339  -0.11815 
 H                    -0.82128   2.26389  -0.11731 
 O                     3.16704   0.29162  -0.26496 
 C                     4.04792  -0.70499  -0.83521 
 H                     3.63166  -1.09691  -1.76609 
 H                     4.23776  -1.51258  -0.12604 
 H                     4.97374  -0.16313  -1.03872 
 C                    -2.45011  -0.00162  -0.09574 
 C                    -3.2634   -1.2711   -0.10058 
 N                    -3.25687   1.02683  -0.10589 
 C                    -4.69376   0.69529  -0.14276 
 C                    -4.69483  -0.79509   0.23053 
 H                    -2.878    -2.00729   0.60911 
 H                    -3.19216  -1.71344  -1.10404 
 H                    -5.06642   0.8884   -1.15511 
 H                    -5.23265   1.33526   0.55952 
 H                    -4.88771  -0.91152   1.30158 
 H                    -5.45573  -1.35282  -0.31939 
 H                    -2.9446    1.99417  -0.15383 
 C                     2.21272   3.0577    1.01291 
 H                     1.37325   3.24459   1.69296 
 H                     2.71642   3.99762   0.77723 
 H                     2.92143   2.36177   1.47436 
 C                     2.0552   -2.87751   1.10913 
 H                     2.65301  -2.19993   1.73007 
 H                     2.60643  -3.80318   0.93 
 H                     1.10614  -3.1009    1.61042 
 
 ITRead=  0  0  0  0  0  0  0  0  0  0  0  0  0  0  0  0  0  0  0  0
 ITRead=  0  0  0  0  0  0  0  0  0  0  0  0  0  0  0
 MicOpt= -1 -1 -1 -1 -1 -1 -1 -1 -1 -1 -1 -1 -1 -1 -1 -1 -1 -1 -1 -1
 MicOpt= -1 -1 -1 -1 -1 -1 -1 -1 -1 -1 -1 -1 -1 -1 -1
 NAtoms=     35 NQM=       35 NQMF=       0 NMMI=      0 NMMIF=      0
                NMic=       0 NMicF=      0.
                    Isotopes and Nuclear Properties:
 (Nuclear quadrupole moments (NQMom) in fm**2, nuclear magnetic moments (NMagM)
  in nuclear magnetons)

  Atom         1           2           3           4           5           6           7           8           9          10
 IAtWgt=          12          12          12          12          12          12          16          16           1           1
 AtmWgt=  12.0000000  12.0000000  12.0000000  12.0000000  12.0000000  12.0000000  15.9949146  15.9949146   1.0078250   1.0078250
 NucSpn=           0           0           0           0           0           0           0           0           1           1
 AtZEff=  -0.0000000  -0.0000000  -0.0000000  -0.0000000  -0.0000000  -0.0000000  -0.0000000  -0.0000000  -0.0000000  -0.0000000
 NQMom=    0.0000000   0.0000000   0.0000000   0.0000000   0.0000000   0.0000000   0.0000000   0.0000000   0.0000000   0.0000000
 NMagM=    0.0000000   0.0000000   0.0000000   0.0000000   0.0000000   0.0000000   0.0000000   0.0000000   2.7928460   2.7928460
 AtZNuc=   6.0000000   6.0000000   6.0000000   6.0000000   6.0000000   6.0000000   8.0000000   8.0000000   1.0000000   1.0000000

  Atom        11          12          13          14          15          16          17          18          19          20
 IAtWgt=          16          12           1           1           1          12          12          14          12          12
 AtmWgt=  15.9949146  12.0000000   1.0078250   1.0078250   1.0078250  12.0000000  12.0000000  14.0030740  12.0000000  12.0000000
 NucSpn=           0           0           1           1           1           0           0           2           0           0
 AtZEff=  -0.0000000  -0.0000000  -0.0000000  -0.0000000  -0.0000000  -0.0000000  -0.0000000  -0.0000000  -0.0000000  -0.0000000
 NQMom=    0.0000000   0.0000000   0.0000000   0.0000000   0.0000000   0.0000000   0.0000000   2.0440000   0.0000000   0.0000000
 NMagM=    0.0000000   0.0000000   2.7928460   2.7928460   2.7928460   0.0000000   0.0000000   0.4037610   0.0000000   0.0000000
 AtZNuc=   8.0000000   6.0000000   1.0000000   1.0000000   1.0000000   6.0000000   6.0000000   7.0000000   6.0000000   6.0000000

  Atom        21          22          23          24          25          26          27          28          29          30
 IAtWgt=           1           1           1           1           1           1           1          12           1           1
 AtmWgt=   1.0078250   1.0078250   1.0078250   1.0078250   1.0078250   1.0078250   1.0078250  12.0000000   1.0078250   1.0078250
 NucSpn=           1           1           1           1           1           1           1           0           1           1
 AtZEff=  -0.0000000  -0.0000000  -0.0000000  -0.0000000  -0.0000000  -0.0000000  -0.0000000  -0.0000000  -0.0000000  -0.0000000
 NQMom=    0.0000000   0.0000000   0.0000000   0.0000000   0.0000000   0.0000000   0.0000000   0.0000000   0.0000000   0.0000000
 NMagM=    2.7928460   2.7928460   2.7928460   2.7928460   2.7928460   2.7928460   2.7928460   0.0000000   2.7928460   2.7928460
 AtZNuc=   1.0000000   1.0000000   1.0000000   1.0000000   1.0000000   1.0000000   1.0000000   6.0000000   1.0000000   1.0000000

  Atom        31          32          33          34          35
 IAtWgt=           1          12           1           1           1
 AtmWgt=   1.0078250  12.0000000   1.0078250   1.0078250   1.0078250
 NucSpn=           1           0           1           1           1
 AtZEff=  -0.0000000  -0.0000000  -0.0000000  -0.0000000  -0.0000000
 NQMom=    0.0000000   0.0000000   0.0000000   0.0000000   0.0000000
 NMagM=    2.7928460   0.0000000   2.7928460   2.7928460   2.7928460
 AtZNuc=   1.0000000   6.0000000   1.0000000   1.0000000   1.0000000
 Leave Link  101 at Tue Jul 28 09:38:33 2026, MaxMem=  4026531840 cpu:               0.6 elap:               0.1
 (Enter /opt/packages/gaussian/g16RevC.01/g16/l202.exe)
                          Input orientation:                          
 ---------------------------------------------------------------------
 Center     Atomic      Atomic             Coordinates (Angstroms)
 Number     Number       Type             X           Y           Z
 ---------------------------------------------------------------------
      1          6           0        1.832070    0.129580   -0.210240
      2          6           0        1.134900   -1.099220   -0.167340
      3          6           0       -0.255490   -1.114810   -0.132360
      4          6           0       -1.003650    0.076710   -0.114800
      5          6           0       -0.308700    1.307160   -0.124520
      6          6           0        1.072670    1.331520   -0.166250
      7          8           0        1.727850    2.540710   -0.246180
      8          8           0        1.815980   -2.298590   -0.191610
      9          1           0       -0.743370   -2.083390   -0.118150
     10          1           0       -0.821280    2.263890   -0.117310
     11          8           0        3.167040    0.291620   -0.264960
     12          6           0        4.047920   -0.704990   -0.835210
     13          1           0        3.631660   -1.096910   -1.766090
     14          1           0        4.237760   -1.512580   -0.126040
     15          1           0        4.973740   -0.163130   -1.038720
     16          6           0       -2.450110   -0.001620   -0.095740
     17          6           0       -3.263400   -1.271100   -0.100580
     18          7           0       -3.256870    1.026830   -0.105890
     19          6           0       -4.693760    0.695290   -0.142760
     20          6           0       -4.694830   -0.795090    0.230530
     21          1           0       -2.878000   -2.007290    0.609110
     22          1           0       -3.192160   -1.713440   -1.104040
     23          1           0       -5.066420    0.888400   -1.155110
     24          1           0       -5.232650    1.335260    0.559520
     25          1           0       -4.887710   -0.911520    1.301580
     26          1           0       -5.455730   -1.352820   -0.319390
     27          1           0       -2.944600    1.994170   -0.153830
     28          6           0        2.212720    3.057700    1.012910
     29          1           0        1.373250    3.244590    1.692960
     30          1           0        2.716420    3.997620    0.777230
     31          1           0        2.921430    2.361770    1.474360
     32          6           0        2.055200   -2.877510    1.109130
     33          1           0        2.653010   -2.199930    1.730070
     34          1           0        2.606430   -3.803180    0.930000
     35          1           0        1.106140   -3.100900    1.610420
 ---------------------------------------------------------------------
                    Distance matrix (angstroms):
                    1          2          3          4          5
     1  C    0.000000
     2  C    1.413448   0.000000
     3  C    2.431559   1.390917   0.000000
     4  C    2.837818   2.441100   1.407044   0.000000
     5  C    2.444778   2.806507   2.422567   1.413173   0.000000
     6  C    1.422422   2.431537   2.783826   2.426582   1.382215
     7  O    2.413649   3.688753   4.160459   3.680985   2.384110
     8  O    2.428295   1.379474   2.386595   3.687582   4.185714
     9  H    3.396853   2.121063   1.084609   2.175727   3.418305
    10  H    3.406491   3.890971   3.425779   2.194771   1.085414
    11  O    1.345881   2.464459   3.702613   4.178922   3.623784
    12  C    2.448895   3.014491   4.379645   5.162209   4.851182
    13  H    2.676466   2.964763   4.216554   5.058680   4.899055
    14  H    2.913953   3.130545   4.510827   5.477075   5.349882
    15  H    3.262231   4.046265   5.391848   6.053127   5.558929
    16  C    4.285719   3.749953   2.461075   1.448705   2.509855
    17  C    5.285617   4.402163   3.012135   2.631210   3.921511
    18  N    5.168487   4.879704   3.687222   2.445365   2.961526
    19  C    6.550652   6.098700   4.793205   3.741702   4.427580
    20  C    6.606793   5.851201   4.465607   3.808425   4.876849
    21  H    5.236631   4.186984   2.867727   2.894873   4.257358
    22  H    5.425725   4.469689   3.150643   2.995465   4.289269
    23  H    7.004124   6.586554   5.310736   4.271672   4.886039
    24  H    7.208083   6.855706   5.590498   4.463530   4.971316
    25  H    6.965984   6.201999   4.853347   4.250724   5.284282
    26  H    7.437839   6.597260   5.209043   4.680430   5.797015
    27  H    5.128007   5.119723   4.110661   2.728638   2.724116
    28  C    3.196072   4.453613   4.981319   4.528031   3.273484
    29  H    3.679127   4.731407   4.998895   4.353517   3.144173
    30  H    4.088876   5.419520   5.983021   5.477972   4.147659
    31  H    3.001209   4.226739   4.976040   4.811775   3.755311
    32  C    3.291370   2.374583   3.160332   4.425154   4.961993
    33  H    3.140917   2.667655   3.620152   4.685915   4.950849
    34  H    4.167299   3.268173   4.067742   5.401651   5.977087
    35  H    3.778595   2.677308   2.972519   4.186264   4.943964
                    6          7          8          9         10
     6  C    0.000000
     7  O    1.377603   0.000000
     8  O    3.705516   4.840410   0.000000
     9  H    3.868065   5.244580   2.569432   0.000000
    10  H    2.111577   2.567353   5.270378   4.347978   0.000000
    11  O    2.340411   2.670211   2.922316   4.577503   4.451780
    12  C    3.667014   4.032896   2.816973   5.036926   5.747933
    13  H    3.873653   4.378002   2.686953   4.778047   5.817399
    14  H    4.255387   4.768987   2.546984   5.013735   6.313136
    15  H    4.267731   4.298217   3.905027   6.100836   6.349935
    16  C    3.767255   4.892997   4.846110   2.692068   2.790356
    17  C    5.057613   6.282012   5.183061   2.647768   4.296555
    18  N    4.340668   5.211425   6.066265   3.998912   2.731766
    19  C    5.801470   6.682316   7.165362   4.829829   4.178188
    20  C    6.159867   7.252974   6.695473   4.170771   4.948004
    21  H    5.230356   6.529141   4.770687   2.256401   4.795911
    22  H    5.323533   6.560504   5.124099   2.665598   4.734328
    23  H    6.233990   7.051127   7.645434   5.347484   4.581508
    24  H    6.346953   7.109910   7.965692   5.683312   4.558578
    25  H    6.535433   7.620964   7.006643   4.534806   5.350919
    26  H    7.060392   8.171215   7.334069   4.772899   5.882139
    27  H    4.071574   4.705212   6.410331   4.633916   2.140694
    28  C    2.381140   1.444882   5.504372   6.037265   3.333570
    29  H    2.684557   2.093192   5.871495   6.012285   3.009121
    30  H    3.271110   2.036474   6.433638   7.053406   4.039968
    31  H    2.677859   2.101645   5.071137   5.977148   4.068276
    32  C    4.506428   5.594741   1.443710   3.157346   6.017665
    33  H    4.308671   5.218731   2.098382   3.868449   5.950562
    34  H    5.469856   6.511547   2.036323   3.908639   7.046658
    35  H    4.775356   5.971704   2.096398   2.728364   5.956591
                   11         12         13         14         15
    11  O    0.000000
    12  C    1.447192   0.000000
    13  H    2.096969   1.092434   0.000000
    14  H    2.102588   1.091404   1.797193   0.000000
    15  H    2.017342   1.091866   1.789467   1.787643   0.000000
    16  C    5.627344   6.577685   6.401379   6.856495   7.485242
    17  C    6.619643   7.369909   7.095500   7.505089   8.364101
    18  N    6.467802   7.542617   7.397187   7.913184   8.368340
    19  C    7.872106   8.880160   8.669475   9.200381   9.746804
    20  C    7.952072   8.807928   8.567848   8.968450   9.771981
    21  H    6.526216   7.193776   6.988994   7.170720   8.232016
    22  H    6.720398   7.314916   6.883527   7.496702   8.312018
    23  H    8.302914   9.258100   8.942670   9.663925  10.095745
    24  H    8.504337   9.604003   9.481556   9.913065  10.438867
    25  H    8.293406   9.189886   9.056745   9.256002  10.162937
    26  H    8.778343   9.539660   9.205384   9.696734  10.521722
    27  H    6.345327   7.526293   7.443209   7.992769   8.254519
    28  C    3.192942   4.576171   5.195865   5.126934   4.712342
    29  H    3.971293   5.398582   5.992834   5.843359   5.660226
    30  H    3.876036   5.146591   5.767181   5.787286   5.070011
    31  H    2.714973   4.001014   4.792433   4.393699   4.111285
    32  C    3.628732   3.531463   3.731307   2.855214   4.527581
    33  H    3.232985   3.280439   3.794410   2.535553   4.147353
    34  H    4.302278   3.846120   3.955236   3.003882   4.767597
    35  H    4.390165   4.513930   4.668517   3.917282   5.532338
                   16         17         18         19         20
    16  C    0.000000
    17  C    1.507662   0.000000
    18  N    1.307163   2.297945   0.000000
    19  C    2.349864   2.431954   1.475104   0.000000
    20  C    2.403084   1.544413   2.345272   1.536418   0.000000
    21  H    2.168551   1.092780   3.140167   3.341591   2.216669
    22  H    2.120763   1.098941   2.917117   2.996805   2.209629
    23  H    2.959642   3.004389   2.096305   1.095910   2.211835
    24  H    3.155811   3.332685   2.107512   1.092319   2.221683
    25  H    2.953357   2.175714   2.897898   2.169233   1.094489
    26  H    3.302955   2.204737   3.247045   2.192385   1.091991
    27  H    2.056957   3.281228   1.017623   2.178709   3.315269
    28  C    5.685994   7.068682   5.940754   7.390265   7.947978
    29  H    5.324980   6.716157   5.439883   6.832087   7.435006
    30  H    6.591588   8.017993   6.729464   8.164713   8.842826
    31  H    6.074888   7.343725   6.515416   7.961366   8.337883
    32  C    5.479076   5.686076   6.703598   7.738255   7.118379
    33  H    5.848759   6.262421   6.979213   8.115714   7.629741
    34  H    6.408791   6.475216   7.666835   8.641749   7.927563
    35  H    5.016317   5.036722   6.246578   7.150073   6.393130
                   21         22         23         24         25
    21  H    0.000000
    22  H    1.766332   0.000000
    23  H    4.035675   3.207028   0.000000
    24  H    4.088946   4.028102   1.779683   0.000000
    25  H    2.391477   3.050405   3.050734   2.391162   0.000000
    26  H    2.816937   2.422699   2.423439   2.836904   1.773397
    27  H    4.074088   3.835434   2.593725   2.485599   3.786414
    28  C    7.192538   7.513853   7.898864   7.655449   8.139665
    29  H    6.843252   7.297139   7.425125   6.969085   7.525028
    30  H    8.208821   8.430107   8.600801   8.385897   9.066278
    31  H    7.312368   7.786621   8.537604   8.269200   8.469176
    32  C    5.034259   5.812742   8.368174   8.435773   7.218459
    33  H    5.646745   6.514205   8.800662   8.720745   7.661988
    34  H    5.779893   6.490607   9.232076   9.380405   8.041263
    35  H    4.251115   5.269604   7.852590   7.807955   6.388662
                   26         27         28         29         30
    26  H    0.000000
    27  H    4.187544   0.000000
    28  C    8.946107   5.393545   0.000000
    29  H    8.474709   4.859837   1.096406   0.000000
    30  H    9.829233   6.076827   1.092112   1.791569   0.000000
    31  H    9.337694   6.098888   1.095228   1.795555   1.789979
    32  C    7.796116   7.094106   5.938080   6.187570   6.914823
    33  H    8.406518   7.243811   5.324551   5.593028   6.270690
    34  H    8.518431   8.099252   6.872667   7.195408   7.803071
    35  H    7.059610   6.743946   6.285689   6.351646   7.326404
                   31         32         33         34         35
    31  H    0.000000
    32  C    5.322951   0.000000
    33  H    4.576739   1.096384   0.000000
    34  H    6.196948   1.092157   1.792398   0.000000
    35  H    5.757999   1.096316   1.794121   1.790821   0.000000
 Stoichiometry    C13H18NO3(1+)
 Framework group  C1[X(C13H18NO3)]
 Deg. of freedom    99
 Full point group                 C1      NOp   1
 Largest Abelian subgroup         C1      NOp   1
 Largest concise Abelian subgroup C1      NOp   1
                         Standard orientation:                         
 ---------------------------------------------------------------------
 Center     Atomic      Atomic             Coordinates (Angstroms)
 Number     Number       Type             X           Y           Z
 ---------------------------------------------------------------------
      1          6           0        1.832070    0.129580   -0.210240
      2          6           0        1.134900   -1.099220   -0.167340
      3          6           0       -0.255490   -1.114811   -0.132360
      4          6           0       -1.003650    0.076709   -0.114800
      5          6           0       -0.308701    1.307159   -0.124520
      6          6           0        1.072669    1.331520   -0.166250
      7          8           0        1.727849    2.540710   -0.246180
      8          8           0        1.815980   -2.298590   -0.191610
      9          1           0       -0.743370   -2.083391   -0.118150
     10          1           0       -0.821281    2.263889   -0.117310
     11          8           0        3.167040    0.291620   -0.264960
     12          6           0        4.047920   -0.704990   -0.835210
     13          1           0        3.631660   -1.096910   -1.766090
     14          1           0        4.237760   -1.512580   -0.126040
     15          1           0        4.973740   -0.163129   -1.038720
     16          6           0       -2.450110   -0.001621   -0.095740
     17          6           0       -3.263400   -1.271101   -0.100580
     18          7           0       -3.256870    1.026829   -0.105890
     19          6           0       -4.693760    0.695289   -0.142760
     20          6           0       -4.694830   -0.795091    0.230530
     21          1           0       -2.878000   -2.007291    0.609110
     22          1           0       -3.192160   -1.713441   -1.104040
     23          1           0       -5.066420    0.888398   -1.155110
     24          1           0       -5.232651    1.335258    0.559520
     25          1           0       -4.887710   -0.911521    1.301580
     26          1           0       -5.455730   -1.352822   -0.319390
     27          1           0       -2.944601    1.994169   -0.153830
     28          6           0        2.212719    3.057700    1.012910
     29          1           0        1.373249    3.244590    1.692960
     30          1           0        2.716419    3.997620    0.777230
     31          1           0        2.921429    2.361770    1.474360
     32          6           0        2.055200   -2.877510    1.109130
     33          1           0        2.653010   -2.199930    1.730070
     34          1           0        2.606431   -3.803180    0.930000
     35          1           0        1.106140   -3.100900    1.610420
 ---------------------------------------------------------------------
 Rotational constants (GHZ):           0.7442575           0.2783113           0.2132639
 Leave Link  202 at Tue Jul 28 09:38:34 2026, MaxMem=  4026531840 cpu:               0.2 elap:               0.1
 (Enter /opt/packages/gaussian/g16RevC.01/g16/l301.exe)
 Standard basis: 6-31+G(d) (6D, 7F)
 Ernie: Thresh=  0.10000D-02 Tol=  0.10000D-05 Strict=F.
 There are   359 symmetry adapted cartesian basis functions of A   symmetry.
 There are   359 symmetry adapted basis functions of A   symmetry.
   359 basis functions,   616 primitive gaussians,   359 cartesian basis functions
    63 alpha electrons       63 beta electrons
       nuclear repulsion energy      1234.5554224770 Hartrees.
 IExCor=  402 DFT=T Ex+Corr=B3LYP ExCW=0 ScaHFX=  0.200000
 ScaDFX=  0.800000  0.720000  1.000000  0.810000 ScalE2=  1.000000  1.000000
 IRadAn=      5 IRanWt=     -1 IRanGd=            0 ICorTp=0 IEmpDi=  4
 NAtoms=   35 NActive=   35 NUniq=   35 SFac= 1.00D+00 NAtFMM=   60 NAOKFM=F Big=F
 Integral buffers will be    131072 words long.
 Regular integral format.
 Two-electron integral symmetry is turned on.
 ------------------------------------------------------------------------------
 Polarizable Continuum Model (PCM)
 =================================
 Model                : PCM.
 Atomic radii         : SMD-Coulomb.
 Polarization charges : Total charges.
 Charge compensation  : None.
 Solution method      : On-the-fly selection.
 Cavity type          : VdW (van der Waals Surface) (Alpha=1.000).
 Cavity algorithm     : GePol (No added spheres)
                        Default sphere list used, NSphG=   35.
                        Lebedev-Laikov grids with approx.  5.0 points / Ang**2.
                        Smoothing algorithm: York/Karplus (Gamma=1.0000).
                        Polarization charges: spherical gaussians, with
                                              point-specific exponents (IZeta= 3).
                        Self-potential: point-specific (ISelfS= 7).
                        Self-field    : sphere-specific E.n sum rule (ISelfD= 2).
 Solvent              : Methanol, Eps=  32.613000 Eps(inf)=   1.765709
 ------------------------------------------------------------------------------
 GePol: Number of generator spheres                  =      35
 GePol: Total number of spheres                      =      35
 GePol: Number of exposed spheres                    =      35 (100.00%)
 GePol: Number of points                             =    2527
 GePol: Average weight of points                     =       0.11
 GePol: Minimum weight of points                     =   0.16D-11
 GePol: Maximum weight of points                     =    0.21991
 GePol: Number of points with low weight             =     159
 GePol: Fraction of low-weight points (<1% of avg)   =       6.29%
 GePol: Cavity surface area                          =    278.379 Ang**2
 GePol: Cavity volume                                =    245.877 Ang**3
 ------------------------------------------------------------------------------
 Atomic radii for non-electrostatic terms: SMD-CDS.
 ------------------------------------------------------------------------------
 PCM non-electrostatic energy =         0.0032717854 Hartrees.
 Nuclear repulsion after PCM non-electrostatic terms =     1234.5586942624 Hartrees.
 Leave Link  301 at Tue Jul 28 09:38:34 2026, MaxMem=  4026531840 cpu:               1.0 elap:               0.2
 (Enter /opt/packages/gaussian/g16RevC.01/g16/l302.exe)
 NPDir=0 NMtPBC=     1 NCelOv=     1 NCel=       1 NClECP=     1 NCelD=      1
         NCelK=      1 NCelE2=     1 NClLst=     1 CellRange=     0.0.
 One-electron integrals computed using PRISM.
 One-electron integral symmetry used in STVInt
 NBasis=   359 RedAO= T EigKep=  1.22D-06  NBF=   359
 NBsUse=   357 1.00D-06 EigRej=  5.16D-07 NBFU=   357
 Precomputing XC quadrature grid using
 IXCGrd= 4 IRadAn=           5 IRanWt=          -1 IRanGd=           0 AccXCQ= 0.00D+00.
 Generated NRdTot=       0 NPtTot=           0 NUsed=           0 NTot=          32
 NSgBfM=   358   358   358   358   358 MxSgAt=    35 MxSgA2=    35.
 Leave Link  302 at Tue Jul 28 09:38:35 2026, MaxMem=  4026531840 cpu:               4.5 elap:               0.6
 (Enter /opt/packages/gaussian/g16RevC.01/g16/l303.exe)
 DipDrv:  MaxL=1.
 Leave Link  303 at Tue Jul 28 09:38:35 2026, MaxMem=  4026531840 cpu:               0.4 elap:               0.1
 (Enter /opt/packages/gaussian/g16RevC.01/g16/l308.exe)
 Leave Link  308 at Tue Jul 28 09:38:35 2026, MaxMem=  4026531840 cpu:               0.4 elap:               0.1
 (Enter /opt/packages/gaussian/g16RevC.01/g16/l401.exe)
 ExpMin= 4.38D-02 ExpMax= 5.48D+03 ExpMxC= 8.25D+02 IAcc=3 IRadAn=         5 AccDes= 0.00D+00
 Harris functional with IExCor=  402 and IRadAn=       5 diagonalized for initial guess.
 HarFok:  IExCor=  402 AccDes= 0.00D+00 IRadAn=         5 IDoV= 1 UseB2=F ITyADJ=14
 ICtDFT=  3500011 ScaDFX=  1.000000  1.000000  1.000000  1.000000
 FoFCou: FMM=F IPFlag=           0 FMFlag=      100000 FMFlg1=           0
         NFxFlg=           0 DoJE=T BraDBF=F KetDBF=T FulRan=T
         wScrn=  0.000000 ICntrl=       500 IOpCl=  0 I1Cent=   200000004 NGrid=           0
         NMat0=    1 NMatS0=      1 NMatT0=    0 NMatD0=    1 NMtDS0=    0 NMtDT0=    0
 Petite list used in FoFCou.
 Harris En= -786.380769726573    
 JPrj=0 DoOrth=F DoCkMO=F.
 Leave Link  401 at Tue Jul 28 09:38:38 2026, MaxMem=  4026531840 cpu:              17.3 elap:               2.3
 (Enter /opt/packages/gaussian/g16RevC.01/g16/l502.exe)
 Integral symmetry usage will be decided dynamically.
 Closed shell SCF:
 Using DIIS extrapolation, IDIIS=  1040.
 NGot=  4026531840 LenX=  4026266516 LenY=  4026137194
 Requested convergence on RMS density matrix=1.00D-08 within 128 cycles.
 Requested convergence on MAX density matrix=1.00D-06.
 Requested convergence on             energy=1.00D-06.
 No special actions if energy rises.
 Fock matrices will be formed incrementally for  20 cycles.

 Cycle   1  Pass 1  IDiag  1:
 FoFJK:  IHMeth= 1 ICntrl=       0 DoSepK=F KAlg= 0 I1Cent=           0 FoldK=F
 IRaf= 860000000 NMat=       1 IRICut=       1 DoRegI=T DoRafI=F ISym2E= 0 IDoP0=0 IntGTp=1.
 FoFCou: FMM=F IPFlag=           0 FMFlag=      100000 FMFlg1=           0
         NFxFlg=           0 DoJE=F BraDBF=F KetDBF=F FulRan=T
         wScrn=  0.000000 ICntrl=         0 IOpCl=  0 I1Cent=           0 NGrid=           0
         NMat0=    1 NMatS0=      1 NMatT0=    0 NMatD0=    1 NMtDS0=    0 NMtDT0=    0
 Symmetry not used in FoFCou.
 Inv3:  Mode=1 IEnd=    19157187.
 Iteration    1 A*A^-1 deviation from unit magnitude is 3.77D-15 for   2174.
 Iteration    1 A*A^-1 deviation from orthogonality  is 4.23D-15 for   1169    558.
 Iteration    1 A^-1*A deviation from unit magnitude is 3.77D-15 for   2174.
 Iteration    1 A^-1*A deviation from orthogonality  is 3.13D-14 for   1233   1169.
 E= -786.218800461424    
 DIIS: error= 1.73D-02 at cycle   1 NSaved=   1.
 NSaved= 1 IEnMin= 1 EnMin= -786.218800461424     IErMin= 1 ErrMin= 1.73D-02
 ErrMax= 1.73D-02  0.00D+00 EMaxC= 1.00D-01 BMatC= 2.82D-01 BMatP= 2.82D-01
 IDIUse=3 WtCom= 8.27D-01 WtEn= 1.73D-01
 Coeff-Com:  0.100D+01
 Coeff-En:   0.100D+01
 Coeff:      0.100D+01
 Gap=     0.150 Goal=   None    Shift=    0.000
 GapD=    0.150 DampG=1.000 DampE=0.500 DampFc=0.5000 IDamp=-1.
 Damping current iteration by 5.00D-01
 RMSDP=3.08D-02 MaxDP=2.49D+00              OVMax= 1.71D-01

 Cycle   2  Pass 1  IDiag  1:
 RMSU=  1.41D-02    CP:  9.47D-01
 E= -786.347970245181     Delta-E=       -0.129169783757 Rises=F Damp=T
 DIIS: error= 5.89D-03 at cycle   2 NSaved=   2.
 NSaved= 2 IEnMin= 2 EnMin= -786.347970245181     IErMin= 2 ErrMin= 5.89D-03
 ErrMax= 5.89D-03  0.00D+00 EMaxC= 1.00D-01 BMatC= 2.08D-02 BMatP= 2.82D-01
 IDIUse=3 WtCom= 9.41D-01 WtEn= 5.89D-02
 Coeff-Com:  0.678D-02 0.993D+00
 Coeff-En:   0.110D-01 0.989D+00
 Coeff:      0.703D-02 0.993D+00
 Gap=     0.178 Goal=   None    Shift=    0.000
 RMSDP=3.08D-02 MaxDP=4.37D+00 DE=-1.29D-01 OVMax= 1.20D-01

 Cycle   3  Pass 1  IDiag  1:
 RMSU=  1.00D-02    CP:  6.99D-01  6.64D-01
 E= -786.484960199076     Delta-E=       -0.136989953895 Rises=F Damp=F
 DIIS: error= 2.71D-03 at cycle   3 NSaved=   3.
 NSaved= 3 IEnMin= 3 EnMin= -786.484960199076     IErMin= 3 ErrMin= 2.71D-03
 ErrMax= 2.71D-03  0.00D+00 EMaxC= 1.00D-01 BMatC= 1.06D-02 BMatP= 2.08D-02
 IDIUse=3 WtCom= 9.73D-01 WtEn= 2.71D-02
 Coeff-Com: -0.610D-01 0.418D+00 0.643D+00
 Coeff-En:   0.000D+00 0.000D+00 0.100D+01
 Coeff:     -0.593D-01 0.407D+00 0.652D+00
 Gap=     0.155 Goal=   None    Shift=    0.000
 RMSDP=2.14D-03 MaxDP=1.87D-01 DE=-1.37D-01 OVMax= 4.20D-02

 Cycle   4  Pass 1  IDiag  1:
 RMSU=  1.76D-03    CP:  6.92D-01  5.98D-01  1.01D+00
 E= -786.492259377124     Delta-E=       -0.007299178048 Rises=F Damp=F
 DIIS: error= 1.30D-03 at cycle   4 NSaved=   4.
 NSaved= 4 IEnMin= 4 EnMin= -786.492259377124     IErMin= 4 ErrMin= 1.30D-03
 ErrMax= 1.30D-03  0.00D+00 EMaxC= 1.00D-01 BMatC= 2.57D-03 BMatP= 1.06D-02
 IDIUse=3 WtCom= 9.87D-01 WtEn= 1.30D-02
 Coeff-Com: -0.307D-01 0.121D+00 0.370D+00 0.540D+00
 Coeff-En:   0.000D+00 0.000D+00 0.195D+00 0.805D+00
 Coeff:     -0.304D-01 0.119D+00 0.367D+00 0.544D+00
 Gap=     0.153 Goal=   None    Shift=    0.000
 RMSDP=1.54D-03 MaxDP=9.08D-02 DE=-7.30D-03 OVMax= 1.58D-02

 Cycle   5  Pass 1  IDiag  1:
 RMSU=  9.63D-04    CP:  6.91D-01  6.22D-01  9.23D-01  5.69D-01
 E= -786.494567270263     Delta-E=       -0.002307893139 Rises=F Damp=F
 DIIS: error= 3.67D-04 at cycle   5 NSaved=   5.
 NSaved= 5 IEnMin= 5 EnMin= -786.494567270263     IErMin= 5 ErrMin= 3.67D-04
 ErrMax= 3.67D-04  0.00D+00 EMaxC= 1.00D-01 BMatC= 1.33D-04 BMatP= 2.57D-03
 IDIUse=3 WtCom= 9.96D-01 WtEn= 3.67D-03
 Coeff-Com: -0.104D-01 0.270D-01 0.132D+00 0.267D+00 0.585D+00
 Coeff-En:   0.000D+00 0.000D+00 0.000D+00 0.000D+00 0.100D+01
 Coeff:     -0.103D-01 0.269D-01 0.131D+00 0.266D+00 0.586D+00
 Gap=     0.154 Goal=   None    Shift=    0.000
 RMSDP=3.45D-04 MaxDP=2.80D-02 DE=-2.31D-03 OVMax= 3.93D-03

 Cycle   6  Pass 1  IDiag  1:
 RMSU=  2.18D-04    CP:  6.93D-01  6.23D-01  9.16D-01  5.73D-01  8.90D-01
 E= -786.494683654846     Delta-E=       -0.000116384583 Rises=F Damp=F
 DIIS: error= 1.41D-04 at cycle   6 NSaved=   6.
 NSaved= 6 IEnMin= 6 EnMin= -786.494683654846     IErMin= 6 ErrMin= 1.41D-04
 ErrMax= 1.41D-04  0.00D+00 EMaxC= 1.00D-01 BMatC= 1.54D-05 BMatP= 1.33D-04
 IDIUse=3 WtCom= 9.99D-01 WtEn= 1.41D-03
 Coeff-Com: -0.356D-02 0.620D-02 0.453D-01 0.106D+00 0.331D+00 0.515D+00
 Coeff-En:   0.000D+00 0.000D+00 0.000D+00 0.000D+00 0.475D-01 0.952D+00
 Coeff:     -0.356D-02 0.619D-02 0.453D-01 0.106D+00 0.331D+00 0.516D+00
 Gap=     0.154 Goal=   None    Shift=    0.000
 RMSDP=1.21D-04 MaxDP=1.25D-02 DE=-1.16D-04 OVMax= 1.04D-03

 Cycle   7  Pass 1  IDiag  1:
 RMSU=  5.20D-05    CP:  6.93D-01  6.21D-01  9.23D-01  5.72D-01  8.86D-01
                    CP:  7.80D-01
 E= -786.494698504851     Delta-E=       -0.000014850005 Rises=F Damp=F
 DIIS: error= 2.86D-05 at cycle   7 NSaved=   7.
 NSaved= 7 IEnMin= 7 EnMin= -786.494698504851     IErMin= 7 ErrMin= 2.86D-05
 ErrMax= 2.86D-05  0.00D+00 EMaxC= 1.00D-01 BMatC= 8.37D-07 BMatP= 1.54D-05
 IDIUse=1 WtCom= 1.00D+00 WtEn= 0.00D+00
 Coeff-Com: -0.130D-02 0.184D-02 0.166D-01 0.413D-01 0.150D+00 0.274D+00
 Coeff-Com:  0.517D+00
 Coeff:     -0.130D-02 0.184D-02 0.166D-01 0.413D-01 0.150D+00 0.274D+00
 Coeff:      0.517D+00
 Gap=     0.154 Goal=   None    Shift=    0.000
 RMSDP=2.51D-05 MaxDP=3.17D-03 DE=-1.49D-05 OVMax= 2.43D-04

 Cycle   8  Pass 1  IDiag  1:
 RMSU=  1.19D-05    CP:  6.93D-01  6.21D-01  9.24D-01  5.76D-01  8.86D-01
                    CP:  7.88D-01  9.22D-01
 E= -786.494699163977     Delta-E=       -0.000000659126 Rises=F Damp=F
 DIIS: error= 9.84D-06 at cycle   8 NSaved=   8.
 NSaved= 8 IEnMin= 8 EnMin= -786.494699163977     IErMin= 8 ErrMin= 9.84D-06
 ErrMax= 9.84D-06  0.00D+00 EMaxC= 1.00D-01 BMatC= 6.66D-08 BMatP= 8.37D-07
 IDIUse=1 WtCom= 1.00D+00 WtEn= 0.00D+00
 Coeff-Com: -0.100D-03-0.780D-04 0.105D-02 0.344D-02 0.221D-01 0.473D-01
 Coeff-Com:  0.240D+00 0.687D+00
 Coeff:     -0.100D-03-0.780D-04 0.105D-02 0.344D-02 0.221D-01 0.473D-01
 Coeff:      0.240D+00 0.687D+00
 Gap=     0.154 Goal=   None    Shift=    0.000
 RMSDP=8.07D-06 MaxDP=4.46D-04 DE=-6.59D-07 OVMax= 8.83D-05

 Cycle   9  Pass 1  IDiag  1:
 RMSU=  3.39D-06    CP:  6.93D-01  6.21D-01  9.23D-01  5.76D-01  8.90D-01
                    CP:  7.87D-01  9.22D-01  8.58D-01
 E= -786.494699210048     Delta-E=       -0.000000046071 Rises=F Damp=F
 DIIS: error= 3.01D-06 at cycle   9 NSaved=   9.
 NSaved= 9 IEnMin= 9 EnMin= -786.494699210048     IErMin= 9 ErrMin= 3.01D-06
 ErrMax= 3.01D-06  0.00D+00 EMaxC= 1.00D-01 BMatC= 1.09D-08 BMatP= 6.66D-08
 IDIUse=1 WtCom= 1.00D+00 WtEn= 0.00D+00
 Coeff-Com:  0.472D-04-0.185D-03-0.731D-03-0.140D-02 0.645D-03 0.387D-02
 Coeff-Com:  0.916D-01 0.380D+00 0.526D+00
 Coeff:      0.472D-04-0.185D-03-0.731D-03-0.140D-02 0.645D-03 0.387D-02
 Coeff:      0.916D-01 0.380D+00 0.526D+00
 Gap=     0.154 Goal=   None    Shift=    0.000
 RMSDP=3.74D-06 MaxDP=3.17D-04 DE=-4.61D-08 OVMax= 3.03D-05

 Cycle  10  Pass 1  IDiag  1:
 RMSU=  1.96D-06    CP:  6.93D-01  6.21D-01  9.23D-01  5.75D-01  8.92D-01
                    CP:  7.88D-01  9.32D-01  8.15D-01  7.51D-01
 E= -786.494699220621     Delta-E=       -0.000000010572 Rises=F Damp=F
 DIIS: error= 5.37D-07 at cycle  10 NSaved=  10.
 NSaved=10 IEnMin=10 EnMin= -786.494699220621     IErMin=10 ErrMin= 5.37D-07
 ErrMax= 5.37D-07  0.00D+00 EMaxC= 1.00D-01 BMatC= 3.52D-10 BMatP= 1.09D-08
 IDIUse=1 WtCom= 1.00D+00 WtEn= 0.00D+00
 Coeff-Com:  0.250D-04-0.501D-04-0.356D-03-0.856D-03-0.202D-02-0.358D-02
 Coeff-Com:  0.710D-02 0.495D-01 0.184D+00 0.767D+00
 Coeff:      0.250D-04-0.501D-04-0.356D-03-0.856D-03-0.202D-02-0.358D-02
 Coeff:      0.710D-02 0.495D-01 0.184D+00 0.767D+00
 Gap=     0.154 Goal=   None    Shift=    0.000
 RMSDP=6.52D-07 MaxDP=5.35D-05 DE=-1.06D-08 OVMax= 1.16D-05

 Cycle  11  Pass 1  IDiag  1:
 RMSU=  2.48D-07    CP:  6.93D-01  6.21D-01  9.23D-01  5.75D-01  8.92D-01
                    CP:  7.89D-01  9.37D-01  8.25D-01  8.09D-01  8.95D-01
 E= -786.494699220965     Delta-E=       -0.000000000344 Rises=F Damp=F
 DIIS: error= 1.07D-07 at cycle  11 NSaved=  11.
 NSaved=11 IEnMin=11 EnMin= -786.494699220965     IErMin=11 ErrMin= 1.07D-07
 ErrMax= 1.07D-07  0.00D+00 EMaxC= 1.00D-01 BMatC= 2.55D-11 BMatP= 3.52D-10
 IDIUse=1 WtCom= 1.00D+00 WtEn= 0.00D+00
 Coeff-Com:  0.109D-04-0.184D-04-0.150D-03-0.378D-03-0.103D-02-0.193D-02
 Coeff-Com: -0.125D-03 0.907D-02 0.649D-01 0.351D+00 0.578D+00
 Coeff:      0.109D-04-0.184D-04-0.150D-03-0.378D-03-0.103D-02-0.193D-02
 Coeff:     -0.125D-03 0.907D-02 0.649D-01 0.351D+00 0.578D+00
 Gap=     0.154 Goal=   None    Shift=    0.000
 RMSDP=2.47D-07 MaxDP=2.66D-05 DE=-3.44D-10 OVMax= 2.59D-06

 Cycle  12  Pass 1  IDiag  1:
 RMSU=  9.54D-08    CP:  6.93D-01  6.21D-01  9.23D-01  5.75D-01  8.92D-01
                    CP:  7.89D-01  9.37D-01  8.21D-01  8.03D-01  9.39D-01
                    CP:  9.09D-01
 E= -786.494699220984     Delta-E=       -0.000000000019 Rises=F Damp=F
 DIIS: error= 6.05D-08 at cycle  12 NSaved=  12.
 NSaved=12 IEnMin=12 EnMin= -786.494699220984     IErMin=12 ErrMin= 6.05D-08
 ErrMax= 6.05D-08  0.00D+00 EMaxC= 1.00D-01 BMatC= 5.07D-12 BMatP= 2.55D-11
 IDIUse=1 WtCom= 1.00D+00 WtEn= 0.00D+00
 Coeff-Com:  0.102D-05-0.332D-06-0.122D-04-0.409D-04-0.142D-03-0.320D-03
 Coeff-Com: -0.119D-02-0.386D-02 0.132D-02 0.517D-01 0.324D+00 0.629D+00
 Coeff:      0.102D-05-0.332D-06-0.122D-04-0.409D-04-0.142D-03-0.320D-03
 Coeff:     -0.119D-02-0.386D-02 0.132D-02 0.517D-01 0.324D+00 0.629D+00
 Gap=     0.154 Goal=   None    Shift=    0.000
 RMSDP=5.14D-08 MaxDP=3.89D-06 DE=-1.89D-11 OVMax= 1.09D-06

 Cycle  13  Pass 1  IDiag  1:
 RMSU=  2.72D-08    CP:  6.93D-01  6.21D-01  9.23D-01  5.75D-01  8.92D-01
                    CP:  7.89D-01  9.37D-01  8.21D-01  8.09D-01  9.44D-01
                    CP:  9.73D-01  7.37D-01
 E= -786.494699221016     Delta-E=       -0.000000000032 Rises=F Damp=F
 DIIS: error= 1.30D-08 at cycle  13 NSaved=  13.
 NSaved=13 IEnMin=13 EnMin= -786.494699221016     IErMin=13 ErrMin= 1.30D-08
 ErrMax= 1.30D-08  0.00D+00 EMaxC= 1.00D-01 BMatC= 2.06D-13 BMatP= 5.07D-12
 IDIUse=1 WtCom= 1.00D+00 WtEn= 0.00D+00
 Coeff-Com: -0.517D-07 0.707D-06 0.159D-05-0.116D-05-0.117D-04-0.511D-04
 Coeff-Com: -0.503D-03-0.201D-02-0.225D-02 0.651D-02 0.106D+00 0.272D+00
 Coeff-Com:  0.620D+00
 Coeff:     -0.517D-07 0.707D-06 0.159D-05-0.116D-05-0.117D-04-0.511D-04
 Coeff:     -0.503D-03-0.201D-02-0.225D-02 0.651D-02 0.106D+00 0.272D+00
 Coeff:      0.620D+00
 Gap=     0.154 Goal=   None    Shift=    0.000
 RMSDP=2.13D-08 MaxDP=2.39D-06 DE=-3.21D-11 OVMax= 1.40D-07

 Cycle  14  Pass 1  IDiag  1:
 RMSU=  7.42D-09    CP:  6.93D-01  6.21D-01  9.23D-01  5.75D-01  8.92D-01
                    CP:  7.89D-01  9.37D-01  8.21D-01  8.09D-01  9.46D-01
                    CP:  9.77D-01  7.81D-01  1.03D+00
 E= -786.494699221008     Delta-E=        0.000000000008 Rises=F Damp=F
 DIIS: error= 5.32D-09 at cycle  14 NSaved=  14.
 NSaved=14 IEnMin=13 EnMin= -786.494699221016     IErMin=14 ErrMin= 5.32D-09
 ErrMax= 5.32D-09  0.00D+00 EMaxC= 1.00D-01 BMatC= 3.24D-14 BMatP= 2.06D-13
 IDIUse=1 WtCom= 1.00D+00 WtEn= 0.00D+00
 Coeff-Com: -0.159D-06 0.387D-06 0.247D-05 0.468D-05 0.135D-04 0.155D-04
 Coeff-Com: -0.109D-03-0.511D-03-0.136D-02-0.380D-02 0.781D-02 0.546D-01
 Coeff-Com:  0.315D+00 0.628D+00
 Coeff:     -0.159D-06 0.387D-06 0.247D-05 0.468D-05 0.135D-04 0.155D-04
 Coeff:     -0.109D-03-0.511D-03-0.136D-02-0.380D-02 0.781D-02 0.546D-01
 Coeff:      0.315D+00 0.628D+00
 Gap=     0.154 Goal=   None    Shift=    0.000
 RMSDP=4.80D-09 MaxDP=3.80D-07 DE= 7.96D-12 OVMax= 6.56D-08

 Error on total polarization charges =  0.06016
 SCF Done:  E(RB3LYP) =  -786.494699221     A.U. after   14 cycles
            NFock= 14  Conv=0.48D-08     -V/T= 2.0096
 KE= 7.790024436661D+02 PE=-4.280805741063D+03 EE= 1.480749903914D+03
 SMD-CDS (non-electrostatic) energy       (kcal/mol) =       2.05
 (included in total energy above)
 Leave Link  502 at Tue Jul 28 09:39:32 2026, MaxMem=  4026531840 cpu:             428.6 elap:              54.2
 (Enter /opt/packages/gaussian/g16RevC.01/g16/l801.exe)
 DoSCS=F DFT=T ScalE2(SS,OS)=  1.000000  1.000000
 ExpMin= 4.38D-02 ExpMax= 5.48D+03 ExpMxC= 8.25D+02 IAcc=3 IRadAn=         5 AccDes= 0.00D+00
 HarFok:  IExCor=  205 AccDes= 0.00D+00 IRadAn=         5 IDoV=-2 UseB2=F ITyADJ=14
 ICtDFT= 12500011 ScaDFX=  1.000000  1.000000  1.000000  1.000000
 Largest valence mixing into a core orbital is  5.48D-05
 Largest core mixing into a valence orbital is  1.17D-05
 Range of M.O.s used for correlation:    18   357
 NBasis=   359 NAE=    63 NBE=    63 NFC=    17 NFV=     0
 NROrb=    340 NOA=    46 NOB=    46 NVA=   294 NVB=   294

 **** Warning!!: The largest alpha MO coefficient is  0.13473268D+03

 Leave Link  801 at Tue Jul 28 09:39:33 2026, MaxMem=  4026531840 cpu:               1.4 elap:               0.2
 (Enter /opt/packages/gaussian/g16RevC.01/g16/l914.exe)
 RHF ground state
 Two-electron integrals replicated using symmetry.
 MDV=  4026531840 DFT=T DoStab=F Mixed=T DoRPA=T DoScal=F NonHer=T
 NEqPCM:  Using non-equilibrium solvation (IEInf=1, Eps=  32.6130, EpsInf=   1.7657)
 Inv3:  Mode=1 IEnd=    19157187.
 Iteration    1 A*A^-1 deviation from unit magnitude is 3.22D-15 for    398.
 Iteration    1 A*A^-1 deviation from orthogonality  is 2.91D-15 for   1169    558.
 Iteration    1 A^-1*A deviation from unit magnitude is 3.22D-15 for    398.
 Iteration    1 A^-1*A deviation from orthogonality  is 2.86D-14 for   1188   1169.
 Making orbital integer symmetry assigments:
 Orbital symmetries:
       Occupied  (A) (A) (A) (A) (A) (A) (A) (A) (A) (A) (A) (A)
                 (A) (A) (A) (A) (A) (A) (A) (A) (A) (A) (A) (A)
                 (A) (A) (A) (A) (A) (A) (A) (A) (A) (A) (A) (A)
                 (A) (A) (A) (A) (A) (A) (A) (A) (A) (A) (A) (A)
                 (A) (A) (A) (A) (A) (A) (A) (A) (A) (A) (A) (A)
                 (A) (A) (A)
       Virtual   (A) (A) (A) (A) (A) (A) (A) (A) (A) (A) (A) (A)
                 (A) (A) (A) (A) (A) (A) (A) (A) (A) (A) (A) (A)
                 (A) (A) (A) (A) (A) (A) (A) (A) (A) (A) (A) (A)
                 (A) (A) (A) (A) (A) (A) (A) (A) (A) (A) (A) (A)
                 (A) (A) (A) (A) (A) (A) (A) (A) (A) (A) (A) (A)
                 (A) (A) (A) (A) (A) (A) (A) (A) (A) (A) (A) (A)
                 (A) (A) (A) (A) (A) (A) (A) (A) (A) (A) (A) (A)
                 (A) (A) (A) (A) (A) (A) (A) (A) (A) (A) (A) (A)
                 (A) (A) (A) (A) (A) (A) (A) (A) (A) (A) (A) (A)
                 (A) (A) (A) (A) (A) (A) (A) (A) (A) (A) (A) (A)
                 (A) (A) (A) (A) (A) (A) (A) (A) (A) (A) (A) (A)
                 (A) (A) (A) (A) (A) (A) (A) (A) (A) (A) (A) (A)
                 (A) (A) (A) (A) (A) (A) (A) (A) (A) (A) (A) (A)
                 (A) (A) (A) (A) (A) (A) (A) (A) (A) (A) (A) (A)
                 (A) (A) (A) (A) (A) (A) (A) (A) (A) (A) (A) (A)
                 (A) (A) (A) (A) (A) (A) (A) (A) (A) (A) (A) (A)
                 (A) (A) (A) (A) (A) (A) (A) (A) (A) (A) (A) (A)
                 (A) (A) (A) (A) (A) (A) (A) (A) (A) (A) (A) (A)
                 (A) (A) (A) (A) (A) (A) (A) (A) (A) (A) (A) (A)
                 (A) (A) (A) (A) (A) (A) (A) (A) (A) (A) (A) (A)
                 (A) (A) (A) (A) (A) (A) (A) (A) (A) (A) (A) (A)
                 (A) (A) (A) (A) (A) (A) (A) (A) (A) (A) (A) (A)
                 (A) (A) (A) (A) (A) (A) (A) (A) (A) (A) (A) (A)
                 (A) (A) (A) (A) (A) (A) (A) (A) (A) (A) (A) (A)
                 (A) (A) (A) (A) (A) (A)
    40 initial guesses have been made.
 Convergence on wavefunction:    0.001000000000000
 Davidson Disk Diagonalization:  ConvIn= 1.00D-03 SkipCon=T Conv= 1.00D-03.
 Max sub-space:  2000 roots to seek:    40 dimension of matrix:        27048
 Iteration     1 Dimension    40 NMult     0 NNew     40
 CISAX will form    40 AO SS matrices at one time.
 NMat=    40 NSing=    40 JSym2X= 0.
 FoFJK:  IHMeth= 1 ICntrl=       0 DoSepK=F KAlg= 0 I1Cent=           0 FoldK=F
 IRaf= 860000000 NMat=      80 IRICut=     100 DoRegI=T DoRafI=T ISym2E= 0 IDoP0=0 IntGTp=1.
 New state      1 was old state      2
 New state      2 was old state      1
 New state      6 was old state      8
 New state      7 was old state      6
 New state      8 was old state     13
 New state     10 was old state     16
 Excitation Energies [eV] at current iteration:
 Root      1 :     4.245774048687228
 Root      2 :     4.386676990288061
 Root      3 :     4.642263157163212
 Root      4 :     4.814756891379408
 Root      5 :     5.588766174335393
 Root      6 :     5.991263780058455
 Root      7 :     6.046073937136504
 Root      8 :     6.086470571131848
 Root      9 :     6.103056125250775
 Root     10 :     6.275552656690836
 Root     11 :     6.313480612237631
 Root     12 :     6.438281602510282
 Root     13 :     6.470275396424697
 Root     14 :     6.614944226765472
 Root     15 :     6.628077762569569
 Root     16 :     6.672701763827519
 Root     17 :     6.697755255373609
 Root     18 :     6.767136128144899
 Root     19 :     6.823442185376721
 Root     20 :     6.893992457792931
 Root     21 :     6.931345710468988
 Root     22 :     6.956065846030548
 Root     23 :     7.021914776856062
 Root     24 :     7.038664270720504
 Root     25 :     7.119097856845490
 Root     26 :     7.136068196012252
 Root     27 :     7.173958160223959
 Root     28 :     7.192887083429143
 Root     29 :     7.216193523434076
 Root     30 :     7.304027077561271
 Root     31 :     7.352690997234385
 Root     32 :     7.384031670407427
 Root     33 :     7.438894981498387
 Root     34 :     7.459433754891661
 Root     35 :     7.466593988901892
 Root     36 :     7.513906161325083
 Root     37 :     7.564791686400073
 Root     38 :     7.638642660434987
 Root     39 :     7.916856892697211
 Root     40 :     8.291568558544958
 Iteration     2 Dimension    60 NMult    40 NNew     20
 CISAX will form    20 AO SS matrices at one time.
 NMat=    20 NSing=    20 JSym2X= 0.
 New state      1 was old state      2
 Root      1 not converged, maximum delta is    0.337244096757957
 New state      2 was old state      1
 Root      2 not converged, maximum delta is    0.306427547846826
 Root      3 not converged, maximum delta is    0.158801569021620
 Root      4 not converged, maximum delta is    0.026513788093600
 Root      5 not converged, maximum delta is    0.096007762563339
 New state      6 was old state      7
 Root      6 not converged, maximum delta is    0.303205866120991
 New state      7 was old state      6
 Root      7 not converged, maximum delta is    0.249538235685342
 Root      8 not converged, maximum delta is    0.285222388488324
 Root      9 not converged, maximum delta is    0.272290481699614
 Root     10 not converged, maximum delta is    0.197884101537580
 Excitation Energies [eV] at current iteration:
 Root      1 :     3.920245063727514   Change is   -0.466431926560547
 Root      2 :     4.013956737302110   Change is   -0.231817311385118
 Root      3 :     4.579790474385024   Change is   -0.062472682778189
 Root      4 :     4.786371807670393   Change is   -0.028385083709015
 Root      5 :     5.330374054625089   Change is   -0.258392119710303
 Root      6 :     5.660637802619942   Change is   -0.385436134516563
 Root      7 :     5.964857042394915   Change is   -0.026406737663540
 Root      8 :     5.992906983324215   Change is   -0.093563587807632
 Root      9 :     6.011337818286062   Change is   -0.091718306964713
 Root     10 :     6.178744019052195   Change is   -0.096808637638641
 Iteration     3 Dimension    80 NMult    60 NNew     20
 CISAX will form    20 AO SS matrices at one time.
 NMat=    20 NSing=    20 JSym2X= 0.
 Root      1 not converged, maximum delta is    0.021402053188512
 Root      2 not converged, maximum delta is    0.020432052635542
 Root      3 not converged, maximum delta is    0.003046400422915
 Root      4 not converged, maximum delta is    0.001814001313975
 Root      5 not converged, maximum delta is    0.005189410410308
 Root      6 not converged, maximum delta is    0.029217617236261
 Root      7 not converged, maximum delta is    0.141765742466832
 Root      8 not converged, maximum delta is    0.196577540174141
 Root      9 not converged, maximum delta is    0.182614627733839
 Root     10 not converged, maximum delta is    0.187836225178693
 Excitation Energies [eV] at current iteration:
 Root      1 :     3.900114404265625   Change is   -0.020130659461889
 Root      2 :     4.004579589937522   Change is   -0.009377147364588
 Root      3 :     4.578196365428759   Change is   -0.001594108956264
 Root      4 :     4.785273948007651   Change is   -0.001097859662741
 Root      5 :     5.319595925137501   Change is   -0.010778129487588
 Root      6 :     5.629058818586461   Change is   -0.031578984033480
 Root      7 :     5.957111788805070   Change is   -0.007745253589845
 Root      8 :     5.981764071965769   Change is   -0.011142911358447
 Root      9 :     5.999909222293817   Change is   -0.011428595992245
 Root     10 :     6.132590778907482   Change is   -0.046153240144713
 Iteration     4 Dimension   100 NMult    80 NNew     20
 CISAX will form    20 AO SS matrices at one time.
 NMat=    20 NSing=    20 JSym2X= 0.
 Root      1 not converged, maximum delta is    0.001618930805154
 Root      2 not converged, maximum delta is    0.001536298189423
 Root      3 has converged.
 Root      4 has converged.
 Root      5 not converged, maximum delta is    0.001106168871518
 Root      6 not converged, maximum delta is    0.003625842790919
 Root      7 not converged, maximum delta is    0.027423635690716
 Root      8 not converged, maximum delta is    0.032185015606004
 Root      9 not converged, maximum delta is    0.024964032860426
 Root     10 not converged, maximum delta is    0.027861854435202
 Excitation Energies [eV] at current iteration:
 Root      1 :     3.898591035269010   Change is   -0.001523368996615
 Root      2 :     4.004074597196743   Change is   -0.000504992740779
 Root      3 :     4.578044927818829   Change is   -0.000151437609930
 Root      4 :     4.785189282390157   Change is   -0.000084665617495
 Root      5 :     5.318252319330431   Change is   -0.001343605807070
 Root      6 :     5.626189306122066   Change is   -0.002869512464396
 Root      7 :     5.955281872873586   Change is   -0.001829915931484
 Root      8 :     5.980334222703335   Change is   -0.001429849262434
 Root      9 :     5.998721454859452   Change is   -0.001187767434365
 Root     10 :     6.125868497897964   Change is   -0.006722281009518
 Iteration     5 Dimension   116 NMult   100 NNew     16
 CISAX will form    16 AO SS matrices at one time.
 NMat=    16 NSing=    16 JSym2X= 0.
 Root      1 has converged.
 Root      2 has converged.
 Root      3 has converged.
 Root      4 has converged.
 Root      5 has converged.
 Root      6 has converged.
 Root      7 not converged, maximum delta is    0.002632690842087
 Root      8 not converged, maximum delta is    0.003087499684930
 Root      9 not converged, maximum delta is    0.001832412955066
 Root     10 not converged, maximum delta is    0.005126792783642
 Excitation Energies [eV] at current iteration:
 Root      1 :     3.898520497526768   Change is   -0.000070537742242
 Root      2 :     4.004029414442885   Change is   -0.000045182753858
 Root      3 :     4.578040197073183   Change is   -0.000004730745646
 Root      4 :     4.785187040288344   Change is   -0.000002242101813
 Root      5 :     5.318131569887673   Change is   -0.000120749442758
 Root      6 :     5.625905679934577   Change is   -0.000283626187488
 Root      7 :     5.955101786348886   Change is   -0.000180086524700
 Root      8 :     5.980180363813807   Change is   -0.000153858889527
 Root      9 :     5.998611746140515   Change is   -0.000109708718937
 Root     10 :     6.125129433080754   Change is   -0.000739064817210
 Iteration     6 Dimension   124 NMult   116 NNew      8
 CISAX will form     8 AO SS matrices at one time.
 NMat=     8 NSing=     8 JSym2X= 0.
 Root      1 has converged.
 Root      2 has converged.
 Root      3 has converged.
 Root      4 has converged.
 Root      5 has converged.
 Root      6 has converged.
 Root      7 has converged.
 Root      8 has converged.
 Root      9 has converged.
 Root     10 has converged.
 Excitation Energies [eV] at current iteration:
 Root      1 :     3.898520139607105   Change is   -0.000000357919663
 Root      2 :     4.004029312712734   Change is   -0.000000101730151
 Root      3 :     4.578040019157224   Change is   -0.000000177915959
 Root      4 :     4.785186604043971   Change is   -0.000000436244373
 Root      5 :     5.318130867451475   Change is   -0.000000702436198
 Root      6 :     5.625900202830684   Change is   -0.000005477103894
 Root      7 :     5.955080095641909   Change is   -0.000021690706977
 Root      8 :     5.980161955186618   Change is   -0.000018408627190
 Root      9 :     5.998600204579491   Change is   -0.000011541561024
 Root     10 :     6.125043512090202   Change is   -0.000085920990552
 Convergence achieved on expansion vectors.
 ***********************************************************************
 Excited states from <AA,BB:AA,BB> singles matrix:
 ***********************************************************************
 
 1PDM for each excited state written to RWF  633
 Ground to excited state transition densities written to RWF  633
 Ground to excited state transition electric dipole moments (Au):
       state          X           Y           Z        Dip. S.      Osc.
         1        -2.3985      0.0061      0.0797      5.7593      0.5501
         2        -0.6756      0.4864      0.0234      0.6936      0.0680
         3        -0.3924      0.0285      0.0041      0.1548      0.0174
         4        -0.0220     -0.0284     -0.0135      0.0015      0.0002
         5         0.0762     -0.9832     -0.0078      0.9726      0.1267
         6        -0.9160      0.6113     -0.0597      1.2163      0.1676
         7         0.7220      0.0927      0.1466      0.5513      0.0804
         8        -0.4993     -0.2570      0.0219      0.3158      0.0463
         9        -0.2409      0.1021      0.0101      0.0685      0.0101
        10         1.2233      0.1363      0.1301      1.5321      0.2299
 Ground to excited state transition velocity dipole moments (Au):
       state          X           Y           Z        Dip. S.      Osc.
         1         0.3323      0.0001     -0.0112      0.1106      0.5145
         2         0.0947     -0.0704     -0.0047      0.0140      0.0632
         3         0.0643     -0.0020     -0.0015      0.0041      0.0164
         4         0.0023      0.0041     -0.0037      0.0000      0.0001
         5        -0.0120      0.1892     -0.0019      0.0360      0.1227
         6         0.1879     -0.1216      0.0139      0.0503      0.1621
         7        -0.1568     -0.0205     -0.0340      0.0262      0.0797
         8         0.1105      0.0547      0.0038      0.0152      0.0462
         9         0.0533     -0.0203     -0.0040      0.0033      0.0099
        10        -0.2652     -0.0305     -0.0263      0.0720      0.2131
 Ground to excited state transition magnetic dipole moments (Au):
       state          X           Y           Z
         1        -0.0617     -0.0312      0.0311
         2        -0.0363      0.0032     -0.3240
         3         0.2106     -0.0160      0.1269
         4         0.0578      0.0480      0.0458
         5         0.1636      0.0996      0.0761
         6        -0.0363     -0.1240      0.1671
         7        -0.0053      0.5639      0.0485
         8         0.1500     -0.3591     -0.0560
         9        -0.1736     -0.0282     -0.0817
        10        -0.1484     -0.2732      0.0626
 Ground to excited state transition velocity quadrupole moments (Au):
       state          XX          YY          ZZ          XY          XZ          YZ
         1        -0.6060      0.0388      0.0240      0.1139     -0.1785      0.0226
         2        -0.1269     -0.0144      0.0006      0.0119     -0.0484      0.0069
         3        -0.2550      0.0251      0.0123     -0.0036     -0.0359      0.0071
         4        -0.1313      0.0385      0.0048      0.0272      0.0257      0.0041
         5        -0.2362      0.1108     -0.0117      0.6020      0.0103      0.0878
         6        -1.6739      0.2684      0.0451      0.6833     -0.0237      0.0453
         7         0.3087     -0.4849     -0.0224     -0.0018     -0.2082      0.0362
         8         0.0131      0.1301      0.0522     -0.0028     -0.0811      0.0219
         9         0.5720      0.0496     -0.0009      0.0609     -0.1011      0.0141
        10         0.4264     -0.5658     -0.0604     -0.0652     -0.0059     -0.0195
 <0|del|b> * <b|rxdel|0> + <0|del|b> * <b|delr+rdel|0>
 Rotatory Strengths (R) in cgs (10**-40 erg-esu-cm/Gauss)
       state          XX          YY          ZZ    R(velocity)    E-M Angle
         1        -3.9748    -29.7881    -69.2505    -34.3378      145.83
         2        -5.2366     -2.9414     -2.1879     -3.4553       93.21
         3        -0.4808     28.9680     27.7008     18.7293       32.46
         4        -0.3646      0.1408      0.8474      0.2079       72.82
         5        28.2584     -3.6343     35.9951     20.2064       64.62
         6        41.0080     -9.3252      4.4964     12.0597       77.10
         7       -28.1657    -10.5934     -1.2711    -13.3434       97.78
         8       -24.8443     30.2218    -15.9868     -3.5365       93.90
         9        -2.2445    -12.7114    -11.8206     -8.9255      138.87
        10        12.9018     64.6649     67.0774     48.2147       57.24
 1/2[<0|r|b>*<b|rxdel|0> + (<0|rxdel|b>*<b|r|0>)*]
 Rotatory Strengths (R) in cgs (10**-40 erg-esu-cm/Gauss)
       state          XX          YY          ZZ     R(length)
         1      -104.7272      0.1346     -1.7548    -35.4491
         2       -17.3589     -1.1042      5.3682     -4.3650
         3        58.4297      0.3235     -0.3697     19.4612
         4         0.8978      0.9642      0.4362      0.7661
         5        -8.8206     69.2763      0.4221     20.2926
         6       -23.4859     53.6102      7.0541     12.3928
         7         2.7074    -36.9830     -5.0224    -13.0993
         8        52.9537    -65.2526      0.8672     -3.8106
         9       -29.5675      2.0346      0.5823     -8.9835
        10       128.3820     26.3369     -5.7626     49.6521
  1/2[<0|del|b>*<b|r|0> + (<0|r|b>*<b|del|0>)*] (Au)
       state          X           Y           Z        Dip. S.   Osc.(frdel)
         1        -0.7971      0.0000     -0.0009      0.7980      0.5320
         2        -0.0640     -0.0342     -0.0001      0.0983      0.0656
         3        -0.0252     -0.0001     -0.0000      0.0253      0.0169
         4        -0.0000     -0.0001      0.0001      0.0001      0.0001
         5        -0.0009     -0.1861      0.0000      0.1870      0.1246
         6        -0.1721     -0.0743     -0.0008      0.2473      0.1648
         7        -0.1132     -0.0019     -0.0050      0.1201      0.0801
         8        -0.0552     -0.0141      0.0001      0.0691      0.0461
         9        -0.0128     -0.0021     -0.0000      0.0149      0.0100
        10        -0.3245     -0.0042     -0.0034      0.3320      0.2214

 Excitation energies and oscillator strengths:
 
 Excited State   1:      Singlet-A      3.8985 eV  318.03 nm  f=0.5501  <S**2>=0.000
      62 -> 64        -0.15397
      63 -> 64         0.68313
 This state for optimization and/or second-order correction.
 Total Energy, E(TD-HF/TD-DFT) =  -786.351431242    
 Copying the excited state density for this state as the 1-particle RhoCI density.
 
 Excited State   2:      Singlet-A      4.0040 eV  309.65 nm  f=0.0680  <S**2>=0.000
      62 -> 64         0.67181
      63 -> 64         0.15241
      63 -> 65         0.14988
 
 Excited State   3:      Singlet-A      4.5780 eV  270.82 nm  f=0.0174  <S**2>=0.000
      61 -> 64         0.70256
 
 Excited State   4:      Singlet-A      4.7852 eV  259.10 nm  f=0.0002  <S**2>=0.000
      60 -> 64         0.70347
 
 Excited State   5:      Singlet-A      5.3181 eV  233.13 nm  f=0.1267  <S**2>=0.000
      59 -> 64         0.10503
      62 -> 64        -0.13971
      62 -> 68        -0.12502
      63 -> 65         0.65894
 
 Excited State   6:      Singlet-A      5.6259 eV  220.38 nm  f=0.1676  <S**2>=0.000
      59 -> 64         0.67897
      62 -> 65         0.11193
 
 Excited State   7:      Singlet-A      5.9551 eV  208.20 nm  f=0.0804  <S**2>=0.000
      58 -> 64         0.10559
      61 -> 65        -0.27861
      62 -> 65        -0.32767
      63 -> 66         0.50544
      63 -> 67         0.16069
 
 Excited State   8:      Singlet-A      5.9802 eV  207.33 nm  f=0.0463  <S**2>=0.000
      58 -> 64        -0.16654
      61 -> 65         0.40415
      62 -> 65         0.27317
      63 -> 66         0.40597
      63 -> 68         0.20946
 
 Excited State   9:      Singlet-A      5.9986 eV  206.69 nm  f=0.0101  <S**2>=0.000
      58 -> 64         0.65783
      61 -> 65         0.13414
      62 -> 65         0.14108
 
 Excited State  10:      Singlet-A      6.1250 eV  202.42 nm  f=0.2299  <S**2>=0.000
      57 -> 64         0.20290
      60 -> 65        -0.27800
      61 -> 65         0.43606
      62 -> 65        -0.37143
      63 -> 68        -0.16298
 SavETr:  write IOETrn=   770 NScale= 10 NData=  16 NLR=1 NState=   10 LETran=     190.
 Leave Link  914 at Tue Jul 28 09:43:03 2026, MaxMem=  4026531840 cpu:            1666.5 elap:             210.1
 (Enter /opt/packages/gaussian/g16RevC.01/g16/l601.exe)
 Copying SCF densities to generalized density rwf, IOpCl= 0 IROHF=0.

 **********************************************************************

            Population analysis using the SCF Density.

 **********************************************************************

 Orbital symmetries:
       Occupied  (A) (A) (A) (A) (A) (A) (A) (A) (A) (A) (A) (A)
                 (A) (A) (A) (A) (A) (A) (A) (A) (A) (A) (A) (A)
                 (A) (A) (A) (A) (A) (A) (A) (A) (A) (A) (A) (A)
                 (A) (A) (A) (A) (A) (A) (A) (A) (A) (A) (A) (A)
                 (A) (A) (A) (A) (A) (A) (A) (A) (A) (A) (A) (A)
                 (A) (A) (A)
       Virtual   (A) (A) (A) (A) (A) (A) (A) (A) (A) (A) (A) (A)
                 (A) (A) (A) (A) (A) (A) (A) (A) (A) (A) (A) (A)
                 (A) (A) (A) (A) (A) (A) (A) (A) (A) (A) (A) (A)
                 (A) (A) (A) (A) (A) (A) (A) (A) (A) (A) (A) (A)
                 (A) (A) (A) (A) (A) (A) (A) (A) (A) (A) (A) (A)
                 (A) (A) (A) (A) (A) (A) (A) (A) (A) (A) (A) (A)
                 (A) (A) (A) (A) (A) (A) (A) (A) (A) (A) (A) (A)
                 (A) (A) (A) (A) (A) (A) (A) (A) (A) (A) (A) (A)
                 (A) (A) (A) (A) (A) (A) (A) (A) (A) (A) (A) (A)
                 (A) (A) (A) (A) (A) (A) (A) (A) (A) (A) (A) (A)
                 (A) (A) (A) (A) (A) (A) (A) (A) (A) (A) (A) (A)
                 (A) (A) (A) (A) (A) (A) (A) (A) (A) (A) (A) (A)
                 (A) (A) (A) (A) (A) (A) (A) (A) (A) (A) (A) (A)
                 (A) (A) (A) (A) (A) (A) (A) (A) (A) (A) (A) (A)
                 (A) (A) (A) (A) (A) (A) (A) (A) (A) (A) (A) (A)
                 (A) (A) (A) (A) (A) (A) (A) (A) (A) (A) (A) (A)
                 (A) (A) (A) (A) (A) (A) (A) (A) (A) (A) (A) (A)
                 (A) (A) (A) (A) (A) (A) (A) (A) (A) (A) (A) (A)
                 (A) (A) (A) (A) (A) (A) (A) (A) (A) (A) (A) (A)
                 (A) (A) (A) (A) (A) (A) (A) (A) (A) (A) (A) (A)
                 (A) (A) (A) (A) (A) (A) (A) (A) (A) (A) (A) (A)
                 (A) (A) (A) (A) (A) (A) (A) (A) (A) (A) (A) (A)
                 (A) (A) (A) (A) (A) (A) (A) (A) (A) (A) (A) (A)
                 (A) (A) (A) (A) (A) (A) (A) (A) (A) (A) (A) (A)
                 (A) (A) (A) (A) (A) (A)
 The electronic state is 1-A.
 Alpha  occ. eigenvalues --  -19.20713 -19.18688 -19.18603 -14.42399 -10.30128
 Alpha  occ. eigenvalues --  -10.28514 -10.26848 -10.26757 -10.23990 -10.23868
 Alpha  occ. eigenvalues --  -10.23564 -10.23470 -10.23271 -10.22082 -10.22023
 Alpha  occ. eigenvalues --  -10.21324 -10.20162  -1.09491  -1.06652  -1.05940
 Alpha  occ. eigenvalues --   -1.01459  -0.88133  -0.80771  -0.80332  -0.77475
 Alpha  occ. eigenvalues --   -0.75588  -0.71955  -0.69995  -0.69024  -0.64295
 Alpha  occ. eigenvalues --   -0.63126  -0.62007  -0.60942  -0.56295  -0.54110
 Alpha  occ. eigenvalues --   -0.53217  -0.51336  -0.50864  -0.49324  -0.48995
 Alpha  occ. eigenvalues --   -0.47089  -0.46371  -0.46224  -0.45549  -0.44440
 Alpha  occ. eigenvalues --   -0.43997  -0.43340  -0.43256  -0.41944  -0.41274
 Alpha  occ. eigenvalues --   -0.40038  -0.38631  -0.38504  -0.37209  -0.36780
 Alpha  occ. eigenvalues --   -0.36178  -0.34945  -0.34055  -0.32095  -0.29636
 Alpha  occ. eigenvalues --   -0.28894  -0.26475  -0.24644
 Alpha virt. eigenvalues --   -0.09255  -0.02723   0.00008   0.01049   0.01437
 Alpha virt. eigenvalues --    0.02043   0.02476   0.02718   0.02973   0.03536
 Alpha virt. eigenvalues --    0.03811   0.04055   0.04579   0.05098   0.05542
 Alpha virt. eigenvalues --    0.06286   0.06481   0.07258   0.07426   0.07649
 Alpha virt. eigenvalues --    0.08604   0.08649   0.09382   0.09789   0.09982
 Alpha virt. eigenvalues --    0.10257   0.10826   0.11382   0.11560   0.12336
 Alpha virt. eigenvalues --    0.12519   0.13311   0.13424   0.13671   0.13972
 Alpha virt. eigenvalues --    0.14843   0.14905   0.14985   0.15325   0.15914
 Alpha virt. eigenvalues --    0.16325   0.16606   0.17149   0.17423   0.18020
 Alpha virt. eigenvalues --    0.18595   0.18707   0.18947   0.19888   0.20195
 Alpha virt. eigenvalues --    0.20596   0.20876   0.21154   0.21601   0.22045
 Alpha virt. eigenvalues --    0.22743   0.23099   0.23353   0.23905   0.24462
 Alpha virt. eigenvalues --    0.24662   0.25050   0.25374   0.25786   0.26202
 Alpha virt. eigenvalues --    0.26479   0.27037   0.27147   0.27270   0.28051
 Alpha virt. eigenvalues --    0.28280   0.29121   0.29183   0.29389   0.29970
 Alpha virt. eigenvalues --    0.30405   0.31059   0.31559   0.31918   0.32488
 Alpha virt. eigenvalues --    0.32570   0.33368   0.33767   0.34294   0.34733
 Alpha virt. eigenvalues --    0.35268   0.35440   0.36039   0.37582   0.38021
 Alpha virt. eigenvalues --    0.38509   0.39155   0.39724   0.39952   0.40700
 Alpha virt. eigenvalues --    0.41960   0.43087   0.43331   0.43540   0.45368
 Alpha virt. eigenvalues --    0.46791   0.47009   0.48297   0.49196   0.58175
 Alpha virt. eigenvalues --    0.60896   0.62920   0.65341   0.66120   0.66484
 Alpha virt. eigenvalues --    0.67051   0.67747   0.68609   0.69257   0.69926
 Alpha virt. eigenvalues --    0.70250   0.70762   0.71355   0.72631   0.73084
 Alpha virt. eigenvalues --    0.73415   0.75006   0.76090   0.76613   0.77740
 Alpha virt. eigenvalues --    0.78266   0.79132   0.79972   0.80369   0.82789
 Alpha virt. eigenvalues --    0.83731   0.85048   0.86544   0.87348   0.90310
 Alpha virt. eigenvalues --    0.90850   0.92940   0.93468   0.95224   0.95353
 Alpha virt. eigenvalues --    0.95870   0.96890   0.97462   0.98258   0.99274
 Alpha virt. eigenvalues --    0.99408   0.99826   1.00363   1.02577   1.04478
 Alpha virt. eigenvalues --    1.05373   1.07880   1.08231   1.08789   1.10440
 Alpha virt. eigenvalues --    1.10956   1.11459   1.12413   1.13920   1.14576
 Alpha virt. eigenvalues --    1.15493   1.15628   1.17193   1.18221   1.18969
 Alpha virt. eigenvalues --    1.21366   1.21721   1.23552   1.24475   1.25198
 Alpha virt. eigenvalues --    1.26139   1.26632   1.27638   1.28899   1.30128
 Alpha virt. eigenvalues --    1.32291   1.32909   1.34576   1.35608   1.37255
 Alpha virt. eigenvalues --    1.37814   1.39099   1.40882   1.42818   1.44544
 Alpha virt. eigenvalues --    1.46621   1.48792   1.49511   1.50926   1.51698
 Alpha virt. eigenvalues --    1.53150   1.53593   1.55339   1.59430   1.59815
 Alpha virt. eigenvalues --    1.62509   1.62663   1.65235   1.71600   1.73178
 Alpha virt. eigenvalues --    1.74863   1.75448   1.76728   1.78941   1.80729
 Alpha virt. eigenvalues --    1.81416   1.81806   1.83024   1.84415   1.85985
 Alpha virt. eigenvalues --    1.88496   1.89301   1.91119   1.92500   1.93049
 Alpha virt. eigenvalues --    1.94989   1.97960   1.98248   2.00089   2.01199
 Alpha virt. eigenvalues --    2.03309   2.03629   2.04221   2.05628   2.07481
 Alpha virt. eigenvalues --    2.09044   2.09498   2.10975   2.11507   2.14978
 Alpha virt. eigenvalues --    2.15475   2.17379   2.18317   2.18786   2.20727
 Alpha virt. eigenvalues --    2.23666   2.24764   2.26422   2.27739   2.28608
 Alpha virt. eigenvalues --    2.28746   2.32083   2.33686   2.34059   2.36347
 Alpha virt. eigenvalues --    2.38924   2.39231   2.40773   2.43221   2.45251
 Alpha virt. eigenvalues --    2.46896   2.47832   2.51721   2.54621   2.55753
 Alpha virt. eigenvalues --    2.57780   2.60913   2.62576   2.63419   2.65980
 Alpha virt. eigenvalues --    2.66945   2.70666   2.75554   2.78509   2.79143
 Alpha virt. eigenvalues --    2.83032   2.84726   2.86473   2.91047   2.93213
 Alpha virt. eigenvalues --    2.97946   3.07687   3.08780   3.13521   3.15292
 Alpha virt. eigenvalues --    3.31684   3.45436   4.09590   4.19547   4.24440
 Alpha virt. eigenvalues --    4.26984   4.29643   4.33426   4.34925   4.36101
 Alpha virt. eigenvalues --    4.37193   4.39829   4.43411   4.43894   4.54456
 Alpha virt. eigenvalues --    4.61262   4.67342   4.70477   5.15088
          Condensed to atoms (all electrons):
               1          2          3          4          5          6
     1  C   20.080169   0.974382  -4.715317  -1.017171  -6.177782  -3.808194
     2  C    0.974382  16.439200  -7.207737  -1.463672   3.610241  -7.945600
     3  C   -4.715317  -7.207737  27.990440   3.238813 -11.689524   4.958944
     4  C   -1.017171  -1.463672   3.238813  14.113003  -6.038582   0.169276
     5  C   -6.177782   3.610241 -11.689524  -6.038582  26.306747  -5.053488
     6  C   -3.808194  -7.945600   4.958944   0.169276  -5.053488  19.574079
     7  O   -0.091532   0.089324  -0.071952   0.025726  -0.409237   0.502432
     8  O   -0.149395   0.236176  -0.077676   0.050733  -0.022846   0.017641
     9  H    0.046683   0.116150   0.138234  -0.023637   0.042059  -0.049176
    10  H    0.017431  -0.011468  -0.006759  -0.048752   0.301912  -0.016947
    11  O    0.339863   0.103338   0.006537  -0.029312   0.119193  -0.547373
    12  C    0.139132  -0.481537  -0.227035  -0.005628   0.114617   0.263470
    13  H    0.035321  -0.022265   0.000573  -0.001119  -0.011280  -0.013092
    14  H   -0.065012   0.032828   0.016856   0.004511   0.003906   0.014590
    15  H    0.011196  -0.029436  -0.008023  -0.001593   0.004747   0.021488
    16  C   -0.252312   1.218183  -3.373325  -1.835170   3.999851  -1.462713
    17  C   -0.101458   0.184343  -0.998406  -1.048024   0.308294  -0.132400
    18  N    0.021590  -0.028466  -0.118789   0.000152   0.110879   0.156156
    19  C   -0.017799  -0.037178  -0.018403   0.050504  -0.134639   0.020577
    20  C   -0.002060   0.052486  -0.058711  -0.036357   0.103987  -0.014704
    21  H    0.002927   0.005735   0.015084  -0.032459  -0.008960   0.002031
    22  H   -0.001506  -0.013656  -0.023683   0.010254   0.013782   0.006227
    23  H    0.000015  -0.000879  -0.006207  -0.017253   0.009036   0.001125
    24  H   -0.000089  -0.000364  -0.000429   0.003690  -0.003311   0.000474
    25  H   -0.000007  -0.000697  -0.008749  -0.000741   0.009438   0.000846
    26  H    0.000066   0.001266   0.002998  -0.000276  -0.001485  -0.000513
    27  H    0.007077  -0.001889  -0.052374  -0.135284   0.122690   0.047870
    28  C   -0.081701  -0.109139  -0.024202  -0.049643   0.084945  -0.030084
    29  H   -0.035340   0.014954  -0.012789  -0.036394   0.085190  -0.021101
    30  H    0.010595   0.002248  -0.000261  -0.002919  -0.003742  -0.002879
    31  H    0.010054  -0.030340   0.019051   0.017363  -0.063350   0.044098
    32  C    0.039960  -0.352945   0.149129  -0.061587  -0.029532   0.063947
    33  H   -0.034478   0.043894  -0.023145   0.019392   0.010203  -0.018424
    34  H    0.005864  -0.030111   0.026804  -0.005280  -0.001257   0.008293
    35  H    0.002850  -0.002045   0.041180  -0.031338  -0.007203   0.007282
               7          8          9         10         11         12
     1  C   -0.091532  -0.149395   0.046683   0.017431   0.339863   0.139132
     2  C    0.089324   0.236176   0.116150  -0.011468   0.103338  -0.481537
     3  C   -0.071952  -0.077676   0.138234  -0.006759   0.006537  -0.227035
     4  C    0.025726   0.050733  -0.023637  -0.048752  -0.029312  -0.005628
     5  C   -0.409237  -0.022846   0.042059   0.301912   0.119193   0.114617
     6  C    0.502432   0.017641  -0.049176  -0.016947  -0.547373   0.263470
     7  O    8.441012  -0.000651   0.000084  -0.002003   0.003037   0.001168
     8  O   -0.000651   8.492441   0.000241   0.000081  -0.013737  -0.010411
     9  H    0.000084   0.000241   0.461025  -0.000097  -0.000532   0.001178
    10  H   -0.002003   0.000081  -0.000097   0.469682  -0.000482   0.000296
    11  O    0.003037  -0.013737  -0.000532  -0.000482   8.539160   0.011070
    12  C    0.001168  -0.010411   0.001178   0.000296   0.011070   5.367006
    13  H    0.000646  -0.002598   0.000002   0.000000  -0.043643   0.394135
    14  H   -0.000333  -0.008614   0.000001  -0.000000  -0.034855   0.384187
    15  H    0.000045   0.001625  -0.000000  -0.000000  -0.053234   0.394473
    16  C   -0.007807   0.001551   0.020268   0.034169   0.006561   0.003008
    17  C   -0.001692   0.005085  -0.002161   0.017154   0.000458  -0.000294
    18  N    0.000155   0.000300   0.000308  -0.000719   0.000078  -0.000089
    19  C    0.000152  -0.000228  -0.000128   0.003686   0.000006  -0.000100
    20  C   -0.000355   0.000341  -0.000218  -0.000324   0.000191   0.000326
    21  H    0.000001  -0.000025   0.000410   0.000001  -0.000000  -0.000015
    22  H   -0.000000   0.000007  -0.000839  -0.000003   0.000001  -0.000002
    23  H   -0.000000  -0.000000  -0.000000  -0.000004   0.000000   0.000000
    24  H    0.000000   0.000000   0.000000   0.000003  -0.000000  -0.000000
    25  H    0.000000   0.000000  -0.000007  -0.000000   0.000000  -0.000000
    26  H    0.000000  -0.000000   0.000001   0.000000   0.000000   0.000000
    27  H    0.000101   0.000002  -0.000000   0.004403  -0.000003   0.000002
    28  C    0.077281   0.000854  -0.000124   0.001991   0.005044   0.001543
    29  H   -0.047591  -0.000005   0.000000   0.000136   0.000107  -0.000049
    30  H   -0.045517  -0.000003   0.000000  -0.000034  -0.000404  -0.000695
    31  H   -0.050157   0.000009   0.000000   0.000007   0.001841   0.000909
    32  C    0.000398   0.079285   0.001395  -0.000020   0.013415  -0.022513
    33  H    0.000033  -0.057862   0.000030   0.000000   0.003160  -0.000780
    34  H   -0.000004  -0.047921  -0.000049   0.000000  -0.000351  -0.001670
    35  H   -0.000008  -0.044985   0.000404  -0.000000  -0.000762  -0.000254
              13         14         15         16         17         18
     1  C    0.035321  -0.065012   0.011196  -0.252312  -0.101458   0.021590
     2  C   -0.022265   0.032828  -0.029436   1.218183   0.184343  -0.028466
     3  C    0.000573   0.016856  -0.008023  -3.373325  -0.998406  -0.118789
     4  C   -0.001119   0.004511  -0.001593  -1.835170  -1.048024   0.000152
     5  C   -0.011280   0.003906   0.004747   3.999851   0.308294   0.110879
     6  C   -0.013092   0.014590   0.021488  -1.462713  -0.132400   0.156156
     7  O    0.000646  -0.000333   0.000045  -0.007807  -0.001692   0.000155
     8  O   -0.002598  -0.008614   0.001625   0.001551   0.005085   0.000300
     9  H    0.000002   0.000001  -0.000000   0.020268  -0.002161   0.000308
    10  H    0.000000  -0.000000  -0.000000   0.034169   0.017154  -0.000719
    11  O   -0.043643  -0.034855  -0.053234   0.006561   0.000458   0.000078
    12  C    0.394135   0.384187   0.394473   0.003008  -0.000294  -0.000089
    13  H    0.479031  -0.032338  -0.026470  -0.000156  -0.000044  -0.000000
    14  H   -0.032338   0.479879  -0.029525   0.000525   0.000046  -0.000000
    15  H   -0.026470  -0.029525   0.483129  -0.000175  -0.000013   0.000000
    16  C   -0.000156   0.000525  -0.000175   7.805402  -0.958711   0.356213
    17  C   -0.000044   0.000046  -0.000013  -0.958711   9.049350  -0.392711
    18  N   -0.000000  -0.000000   0.000000   0.356213  -0.392711   6.996940
    19  C    0.000001   0.000000  -0.000000  -0.530535   0.382957   0.082847
    20  C   -0.000004   0.000001  -0.000000   0.242929  -0.754388  -0.049516
    21  H    0.000000   0.000000  -0.000000  -0.076360   0.403431   0.008989
    22  H    0.000000  -0.000000   0.000000  -0.025429   0.350153   0.005411
    23  H   -0.000000   0.000000  -0.000000  -0.028094   0.032232  -0.033566
    24  H    0.000000  -0.000000   0.000000  -0.015679   0.039583  -0.036318
    25  H    0.000000  -0.000000   0.000000   0.032504  -0.111653   0.012431
    26  H    0.000000   0.000000  -0.000000   0.026891  -0.083386   0.006003
    27  H    0.000000  -0.000000  -0.000000   0.003320  -0.006362   0.251636
    28  C    0.000937  -0.000935   0.000447  -0.004742  -0.002952   0.000955
    29  H    0.000000  -0.000000   0.000000   0.005114  -0.000044   0.000067
    30  H   -0.000000   0.000000  -0.000000   0.000076  -0.000003  -0.000001
    31  H   -0.000002   0.000005  -0.000015  -0.002211   0.000047  -0.000002
    32  C    0.004253  -0.007683  -0.000067  -0.025651  -0.004079   0.000249
    33  H    0.000034   0.000810  -0.000029   0.003715   0.000400   0.000000
    34  H   -0.000016   0.000004  -0.000004  -0.000067   0.000094  -0.000000
    35  H   -0.000016   0.000000   0.000001  -0.006674  -0.000934   0.000004
              19         20         21         22         23         24
     1  C   -0.017799  -0.002060   0.002927  -0.001506   0.000015  -0.000089
     2  C   -0.037178   0.052486   0.005735  -0.013656  -0.000879  -0.000364
     3  C   -0.018403  -0.058711   0.015084  -0.023683  -0.006207  -0.000429
     4  C    0.050504  -0.036357  -0.032459   0.010254  -0.017253   0.003690
     5  C   -0.134639   0.103987  -0.008960   0.013782   0.009036  -0.003311
     6  C    0.020577  -0.014704   0.002031   0.006227   0.001125   0.000474
     7  O    0.000152  -0.000355   0.000001  -0.000000  -0.000000   0.000000
     8  O   -0.000228   0.000341  -0.000025   0.000007  -0.000000   0.000000
     9  H   -0.000128  -0.000218   0.000410  -0.000839  -0.000000   0.000000
    10  H    0.003686  -0.000324   0.000001  -0.000003  -0.000004   0.000003
    11  O    0.000006   0.000191  -0.000000   0.000001   0.000000  -0.000000
    12  C   -0.000100   0.000326  -0.000015  -0.000002   0.000000  -0.000000
    13  H    0.000001  -0.000004   0.000000   0.000000  -0.000000   0.000000
    14  H    0.000000   0.000001   0.000000  -0.000000   0.000000  -0.000000
    15  H   -0.000000  -0.000000  -0.000000   0.000000  -0.000000   0.000000
    16  C   -0.530535   0.242929  -0.076360  -0.025429  -0.028094  -0.015679
    17  C    0.382957  -0.754388   0.403431   0.350153   0.032232   0.039583
    18  N    0.082847  -0.049516   0.008989   0.005411  -0.033566  -0.036318
    19  C    6.066983  -0.265361   0.022065   0.007385   0.424225   0.432730
    20  C   -0.265361   6.639590  -0.023749  -0.022763  -0.066341  -0.092913
    21  H    0.022065  -0.023749   0.438448  -0.024408  -0.000192  -0.000037
    22  H    0.007385  -0.022763  -0.024408   0.433251   0.001090  -0.000170
    23  H    0.424225  -0.066341  -0.000192   0.001090   0.458026  -0.031128
    24  H    0.432730  -0.092913  -0.000037  -0.000170  -0.031128   0.455511
    25  H   -0.089142   0.476883  -0.005555   0.003016   0.003052  -0.005724
    26  H   -0.065858   0.442516   0.001129  -0.004796  -0.003770   0.001579
    27  H   -0.028422   0.016851  -0.000093  -0.000226   0.000056  -0.000794
    28  C   -0.000224   0.000183  -0.000003   0.000015  -0.000003  -0.000000
    29  H   -0.000032   0.000014   0.000000  -0.000000   0.000000  -0.000000
    30  H   -0.000000   0.000001  -0.000000  -0.000000   0.000000  -0.000000
    31  H    0.000007  -0.000000  -0.000000   0.000000  -0.000000   0.000000
    32  C   -0.000729  -0.000916   0.000094   0.000028  -0.000003   0.000001
    33  H    0.000005   0.000029   0.000000  -0.000000   0.000000   0.000000
    34  H    0.000001   0.000006   0.000000   0.000000   0.000000  -0.000000
    35  H   -0.000019  -0.000125  -0.000001   0.000000   0.000000  -0.000000
              25         26         27         28         29         30
     1  C   -0.000007   0.000066   0.007077  -0.081701  -0.035340   0.010595
     2  C   -0.000697   0.001266  -0.001889  -0.109139   0.014954   0.002248
     3  C   -0.008749   0.002998  -0.052374  -0.024202  -0.012789  -0.000261
     4  C   -0.000741  -0.000276  -0.135284  -0.049643  -0.036394  -0.002919
     5  C    0.009438  -0.001485   0.122690   0.084945   0.085190  -0.003742
     6  C    0.000846  -0.000513   0.047870  -0.030084  -0.021101  -0.002879
     7  O    0.000000   0.000000   0.000101   0.077281  -0.047591  -0.045517
     8  O    0.000000  -0.000000   0.000002   0.000854  -0.000005  -0.000003
     9  H   -0.000007   0.000001  -0.000000  -0.000124   0.000000   0.000000
    10  H   -0.000000   0.000000   0.004403   0.001991   0.000136  -0.000034
    11  O    0.000000   0.000000  -0.000003   0.005044   0.000107  -0.000404
    12  C   -0.000000   0.000000   0.000002   0.001543  -0.000049  -0.000695
    13  H    0.000000   0.000000   0.000000   0.000937   0.000000  -0.000000
    14  H   -0.000000   0.000000  -0.000000  -0.000935  -0.000000   0.000000
    15  H    0.000000  -0.000000  -0.000000   0.000447   0.000000  -0.000000
    16  C    0.032504   0.026891   0.003320  -0.004742   0.005114   0.000076
    17  C   -0.111653  -0.083386  -0.006362  -0.002952  -0.000044  -0.000003
    18  N    0.012431   0.006003   0.251636   0.000955   0.000067  -0.000001
    19  C   -0.089142  -0.065858  -0.028422  -0.000224  -0.000032  -0.000000
    20  C    0.476883   0.442516   0.016851   0.000183   0.000014   0.000001
    21  H   -0.005555   0.001129  -0.000093  -0.000003   0.000000  -0.000000
    22  H    0.003016  -0.004796  -0.000226   0.000015  -0.000000  -0.000000
    23  H    0.003052  -0.003770   0.000056  -0.000003   0.000000   0.000000
    24  H   -0.005724   0.001579  -0.000794  -0.000000  -0.000000  -0.000000
    25  H    0.460579  -0.025448  -0.000170   0.000003  -0.000000  -0.000000
    26  H   -0.025448   0.457406  -0.000073  -0.000000  -0.000000   0.000000
    27  H   -0.000170  -0.000073   0.277360   0.000074  -0.000002   0.000000
    28  C    0.000003  -0.000000   0.000074   5.347436   0.385540   0.391607
    29  H   -0.000000  -0.000000  -0.000002   0.385540   0.501950  -0.026633
    30  H   -0.000000   0.000000   0.000000   0.391607  -0.026633   0.476953
    31  H   -0.000000   0.000000   0.000000   0.391322  -0.037361  -0.025821
    32  C   -0.000001   0.000002   0.000003   0.000044  -0.000031  -0.000002
    33  H   -0.000000  -0.000000   0.000000  -0.000028   0.000000   0.000000
    34  H    0.000000  -0.000000   0.000000   0.000016  -0.000000  -0.000000
    35  H    0.000000  -0.000000  -0.000000  -0.000077   0.000000   0.000000
              31         32         33         34         35
     1  C    0.010054   0.039960  -0.034478   0.005864   0.002850
     2  C   -0.030340  -0.352945   0.043894  -0.030111  -0.002045
     3  C    0.019051   0.149129  -0.023145   0.026804   0.041180
     4  C    0.017363  -0.061587   0.019392  -0.005280  -0.031338
     5  C   -0.063350  -0.029532   0.010203  -0.001257  -0.007203
     6  C    0.044098   0.063947  -0.018424   0.008293   0.007282
     7  O   -0.050157   0.000398   0.000033  -0.000004  -0.000008
     8  O    0.000009   0.079285  -0.057862  -0.047921  -0.044985
     9  H    0.000000   0.001395   0.000030  -0.000049   0.000404
    10  H    0.000007  -0.000020   0.000000   0.000000  -0.000000
    11  O    0.001841   0.013415   0.003160  -0.000351  -0.000762
    12  C    0.000909  -0.022513  -0.000780  -0.001670  -0.000254
    13  H   -0.000002   0.004253   0.000034  -0.000016  -0.000016
    14  H    0.000005  -0.007683   0.000810   0.000004   0.000000
    15  H   -0.000015  -0.000067  -0.000029  -0.000004   0.000001
    16  C   -0.002211  -0.025651   0.003715  -0.000067  -0.006674
    17  C    0.000047  -0.004079   0.000400   0.000094  -0.000934
    18  N   -0.000002   0.000249   0.000000  -0.000000   0.000004
    19  C    0.000007  -0.000729   0.000005   0.000001  -0.000019
    20  C   -0.000000  -0.000916   0.000029   0.000006  -0.000125
    21  H   -0.000000   0.000094   0.000000   0.000000  -0.000001
    22  H    0.000000   0.000028  -0.000000   0.000000   0.000000
    23  H   -0.000000  -0.000003   0.000000   0.000000   0.000000
    24  H    0.000000   0.000001   0.000000  -0.000000  -0.000000
    25  H   -0.000000  -0.000001  -0.000000   0.000000   0.000000
    26  H    0.000000   0.000002  -0.000000  -0.000000  -0.000000
    27  H    0.000000   0.000003   0.000000   0.000000  -0.000000
    28  C    0.391322   0.000044  -0.000028   0.000016  -0.000077
    29  H   -0.037361  -0.000031   0.000000  -0.000000   0.000000
    30  H   -0.025821  -0.000002   0.000000  -0.000000   0.000000
    31  H    0.496562  -0.000207  -0.000001   0.000000   0.000000
    32  C   -0.000207   5.359986   0.387174   0.393003   0.380414
    33  H   -0.000001   0.387174   0.496982  -0.026546  -0.036680
    34  H    0.000000   0.393003  -0.026546   0.475075  -0.026148
    35  H    0.000000   0.380414  -0.036680  -0.026148   0.499764
 Mulliken charges:
               1
     1  C    0.805978
     2  C    0.644676
     3  C   -1.881147
     4  C    0.218775
     5  C    0.294501
     6  C   -0.764158
     7  O   -0.412756
     8  O   -0.449417
     9  H    0.248495
    10  H    0.236659
    11  O   -0.428371
    12  C   -0.325449
    13  H    0.238110
    14  H    0.241145
    15  H    0.231435
    16  C    0.845530
    17  C   -0.173915
    18  N   -0.351187
    19  C   -0.305336
    20  C   -0.587527
    21  H    0.271512
    22  H    0.286862
    23  H    0.258581
    24  H    0.253386
    25  H    0.249146
    26  H    0.245749
    27  H    0.494248
    28  C   -0.386378
    29  H    0.224297
    30  H    0.227434
    31  H    0.228192
    32  C   -0.366815
    33  H    0.232112
    34  H    0.230265
    35  H    0.225369
 Sum of Mulliken charges =   1.00000
 Mulliken charges with hydrogens summed into heavy atoms:
               1
     1  C    0.805978
     2  C    0.644676
     3  C   -1.632651
     4  C    0.218775
     5  C    0.531160
     6  C   -0.764158
     7  O   -0.412756
     8  O   -0.449417
    11  O   -0.428371
    12  C    0.385240
    16  C    0.845530
    17  C    0.384459
    18  N    0.143061
    19  C    0.206632
    20  C   -0.092632
    28  C    0.293545
    32  C    0.320930
 Electronic spatial extent (au):  <R**2>=           5095.8331
 Charge=              1.0000 electrons
 Dipole moment (field-independent basis, Debye):
    X=            -10.3111    Y=             -0.3860    Z=              2.3741  Tot=             10.5879
 Quadrupole moment (field-independent basis, Debye-Ang):
   XX=            -34.0543   YY=            -81.6624   ZZ=            -96.8616
   XY=            -10.9103   XZ=              5.9279   YZ=              0.9006
 Traceless Quadrupole moment (field-independent basis, Debye-Ang):
   XX=             36.8051   YY=            -10.8030   ZZ=            -26.0022
   XY=            -10.9103   XZ=              5.9279   YZ=              0.9006
 Octapole moment (field-independent basis, Debye-Ang**2):
  XXX=           -139.0605  YYY=             10.6921  ZZZ=              0.5148  XYY=            -11.0305
  XXY=              0.0973  XXZ=             -6.9981  XZZ=              6.2857  YZZ=             -2.9540
  YYZ=             33.0112  XYZ=              4.8008
 Hexadecapole moment (field-independent basis, Debye-Ang**3):
 XXXX=          -3407.8899 YYYY=          -1540.2525 ZZZZ=           -293.8493 XXXY=           -162.1371
 XXXZ=             -7.8782 YYYX=            -35.9474 YYYZ=              4.7449 ZZZX=             -0.2577
 ZZZY=              1.6605 XXYY=           -889.6496 XXZZ=           -768.7892 YYZZ=           -316.9713
 XXYZ=             15.7229 YYXZ=             70.9033 ZZXY=             -5.6016
 N-N= 1.234558694262D+03 E-N=-4.280805741679D+03  KE= 7.790024436661D+02
 Leave Link  601 at Tue Jul 28 09:43:04 2026, MaxMem=  4026531840 cpu:               0.7 elap:               0.2
 (Enter /opt/packages/gaussian/g16RevC.01/g16/l9999.exe)
 Electronic transition elements 
                 1             2             3             4             5 
      1  -0.786351D+03 -0.786348D+03 -0.786326D+03 -0.786319D+03 -0.786299D+03
      2  -0.239852D+01 -0.675610D+00 -0.392384D+00 -0.219804D-01  0.762375D-01
      3   0.609956D-02  0.486428D+00  0.285166D-01 -0.283831D-01 -0.983221D+00
      4   0.797366D-01  0.234310D-01  0.411962D-02 -0.134541D-01 -0.784091D-02
      5   0.332329D+00  0.947423D-01  0.642523D-01  0.225397D-02 -0.119635D-01
      6   0.811671D-04 -0.703735D-01 -0.201211D-02  0.407473D-02  0.189243D+00
      7  -0.111853D-01 -0.466478D-02 -0.153267D-02 -0.372683D-02 -0.190036D-02
      8  -0.617441D-01 -0.363333D-01  0.210572D+00  0.577577D-01  0.163609D+00
      9  -0.312100D-01  0.321001D-02 -0.160430D-01  0.480399D-01  0.996352D-01
     10   0.311198D-01 -0.323979D+00  0.126918D+00  0.458469D-01  0.761315D-01
     11  -0.606032D+00 -0.126922D+00 -0.254990D+00 -0.131316D+00 -0.236215D+00
     12   0.388267D-01 -0.143597D-01  0.250631D-01  0.384716D-01  0.110771D+00
     13   0.240047D-01  0.602997D-03  0.122721D-01  0.476501D-02 -0.116919D-01
     14   0.113939D+00  0.118586D-01 -0.364716D-02  0.271976D-01  0.602030D+00
     15  -0.178546D+00 -0.484460D-01 -0.358512D-01  0.257379D-01  0.102888D-01
     16   0.226378D-01  0.687769D-02  0.706195D-02  0.414543D-02  0.878367D-01
                 6             7             8             9            10 
      1  -0.786288D+03 -0.786276D+03 -0.786275D+03 -0.786274D+03 -0.786270D+03
      2  -0.916012D+00  0.721959D+00 -0.499294D+00 -0.240851D+00  0.122334D+01
      3   0.611268D+00  0.927488D-01 -0.256953D+00  0.102125D+00  0.136316D+00
      4  -0.596931D-01  0.146558D+00  0.219070D-01  0.100762D-01  0.130147D+00
      5   0.187920D+00 -0.156798D+00  0.110483D+00  0.532558D-01 -0.265228D+00
      6  -0.121555D+00 -0.205211D-01  0.547244D-01 -0.203304D-01 -0.304748D-01
      7   0.138556D-01 -0.340175D-01  0.383930D-02 -0.398079D-02 -0.262853D-01
      8  -0.362565D-01 -0.530294D-02  0.149975D+00 -0.173599D+00 -0.148401D+00
      9  -0.124021D+00  0.563862D+00 -0.359106D+00 -0.281727D-01 -0.273210D+00
     10   0.167107D+00  0.484599D-01 -0.559800D-01 -0.817264D-01  0.626123D-01
     11  -0.167392D+01  0.308668D+00  0.130948D-01  0.571953D+00  0.426364D+00
     12   0.268395D+00 -0.484931D+00  0.130121D+00  0.495575D-01 -0.565760D+00
     13   0.450643D-01 -0.224300D-01  0.521830D-01 -0.934475D-03 -0.604120D-01
     14   0.683323D+00 -0.177389D-02 -0.280259D-02  0.609292D-01 -0.651644D-01
     15  -0.236954D-01 -0.208249D+00 -0.810563D-01 -0.101076D+00 -0.590062D-02
     16   0.453020D-01  0.362206D-01  0.218909D-01  0.141249D-01 -0.194713D-01
 Unable to Open any file for archive entry.
 1\1\GINC-R019\SP\RB3LYP TD-FC\6-31+G(d)\C13H18N1O3(1+)\ZLAB\28-Jul-202
 6\0\\#p TD(NStates=10) B3LYP/6-31+G(d) SCRF=(SMD,Solvent=Methanol)\\Ve
 rtical excitation energies (absorption spectrum)\\1,1\C,0,1.83207,0.12
 958,-0.21024\C,0,1.1349,-1.09922,-0.16734\C,0,-0.25549,-1.11481,-0.132
 36\C,0,-1.00365,0.07671,-0.1148\C,0,-0.3087,1.30716,-0.12452\C,0,1.072
 67,1.33152,-0.16625\O,0,1.72785,2.54071,-0.24618\O,0,1.81598,-2.29859,
 -0.19161\H,0,-0.74337,-2.08339,-0.11815\H,0,-0.82128,2.26389,-0.11731\
 O,0,3.16704,0.29162,-0.26496\C,0,4.04792,-0.70499,-0.83521\H,0,3.63166
 ,-1.09691,-1.76609\H,0,4.23776,-1.51258,-0.12604\H,0,4.97374,-0.16313,
 -1.03872\C,0,-2.45011,-0.00162,-0.09574\C,0,-3.2634,-1.2711,-0.10058\N
 ,0,-3.25687,1.02683,-0.10589\C,0,-4.69376,0.69529,-0.14276\C,0,-4.6948
 3,-0.79509,0.23053\H,0,-2.878,-2.00729,0.60911\H,0,-3.19216,-1.71344,-
 1.10404\H,0,-5.06642,0.8884,-1.15511\H,0,-5.23265,1.33526,0.55952\H,0,
 -4.88771,-0.91152,1.30158\H,0,-5.45573,-1.35282,-0.31939\H,0,-2.9446,1
 .99417,-0.15383\C,0,2.21272,3.0577,1.01291\H,0,1.37325,3.24459,1.69296
 \H,0,2.71642,3.99762,0.77723\H,0,2.92143,2.36177,1.47436\C,0,2.0552,-2
 .87751,1.10913\H,0,2.65301,-2.19993,1.73007\H,0,2.60643,-3.80318,0.93\
 H,0,1.10614,-3.1009,1.61042\\Version=ES64L-G16RevC.01\State=1-A\HF=-78
 6.4946992\RMSD=4.801e-09\PG=C01 [X(C13H18N1O3)]\\@
 The archive entry for this job was punched.


 KNOWING HOW CONTENTED, FREE, AND JOYFUL IS LIFE IN
 THE REALMS OF SCIENCE, ONE FERVENTLY WISHES THAT
 MANY WOULD ENTER HER PORTALS.
   --  DMITRI IVANOVICH MENDELEEV
 "FIRST PRINCIPLES OF CHEMISTRY", LONGMANS, GREEN,
 AND CO.  LONDON, 1891
 Job cpu time:       0 days  0 hours 35 minutes 24.6 seconds.
 Elapsed time:       0 days  0 hours  4 minutes 28.6 seconds.
 File lengths (MBytes):  RWF=   1149 Int=      0 D2E=      0 Chk=     52 Scr=      1
 Normal termination of Gaussian 16 at Tue Jul 28 09:43:04 2026.
